O2 Si                                   
   1.00000000000000     
     5.0239088574930957   -0.0000000000000000    0.0000000000000000
    -2.5119544287465478    4.3508326969406115    0.0000000000000000
    -0.0000000000000000   -0.0000000000000000    5.5144849062207761
   O    Si
     6     3
Direct
  0.4148803645518712  0.2550590487032835  0.2046165384875306
  0.7449409212967139  0.1598213148485835  0.5379498964875357
  0.8401787151514165  0.5851196354481292  0.8712832104875364
  0.2550590487032835  0.4148803645518712  0.7953834765124664
  0.1598213148485835  0.7449409212967139  0.4620501335124681
  0.5851196354481292  0.8401787151514165  0.1287167975124647
  0.4768234474198259  0.0000000000000000  0.3333333429999996
 -0.0000000000000000  0.4768234474198259  0.6666666870000029
  0.5231765525801727  0.5231765525801727  0.0000000000000000
 
  0.00000000E+00  0.00000000E+00  0.00000000E+00
  0.00000000E+00  0.00000000E+00  0.00000000E+00
  0.00000000E+00  0.00000000E+00  0.00000000E+00
  0.00000000E+00  0.00000000E+00  0.00000000E+00
  0.00000000E+00  0.00000000E+00  0.00000000E+00
  0.00000000E+00  0.00000000E+00  0.00000000E+00
  0.00000000E+00  0.00000000E+00  0.00000000E+00
  0.00000000E+00  0.00000000E+00  0.00000000E+00
  0.00000000E+00  0.00000000E+00  0.00000000E+00
