newton on
units        metal
boundary p p p
atom_style full
pair_style vashishta
neighbor 1.0 bin
neigh_modify delay 1

variable random_seed equal 45585

#
#	PORE SETUP
#

read_data   ./data/SiO2_alpha_quartz_block_6nm.data

set type 1 charge 1.6
set type 2 charge -0.8

pair_coeff * * ./potentials/SiO.1990.vashishta Si O

variable center_x equal lx/2
variable center_y equal ly/2
variable center_z equal lz/2

variable pore_radius equal 20

region pore_cylinder cylinder x ${center_y} ${center_z} ${pore_radius} 0 EDGE units box
delete_atoms region pore_cylinder
delete_atoms overlap 0.3 all all
reset_atoms id sort yes

# Output
write_data ./results/initial_structure.data


#
#	ENERGY MINIMIZATION
#
variable etol        equal 0.0
variable ftol        equal 1
variable maxiter     equal 10000
variable thermo_iter equal floor(${maxiter}/100)
variable maxeval     equal 100000


# monitoring "fnorm" during minimization
thermo ${thermo_iter}
thermo_style custom step temp pe etotal press fnorm
thermo_modify norm no

# atoms only
min_style cg
minimize ${etol} ${ftol} ${maxiter} ${maxeval}
write_data ./results/structure_relaxed_atoms.data

variable init_temperature  equal 10.0
variable temperature       equal 100.0
variable delta_temperature equal 100.0
variable final_temperature equal 300.0

variable init_pressure    equal 100
variable pressure         equal 1.0
variable time_npt         equal  20000
variable time_nvt_eq      equal  20000
variable time_nvt_prod    equal  50000
variable time_cooling     equal  10000

variable drag_value       equal 0.2

variable dt               equal 0.001
variable temperature_damp equal ${dt}*100
variable pressure_damp    equal ${dt}*1000


variable output_npt       equal floor(${time_npt}/100)
variable output_nvt_eq    equal floor(${time_nvt_eq}/100)
variable output_nvt_prod  equal floor(${time_nvt_prod}/5000)
variable output_cooling   equal floor(${time_cooling}/100)


timestep        ${dt}
run_style       verlet
velocity        all create ${init_temperature} ${random_seed} mom yes rot yes dist gaussian

label loop
if "${temperature} > ${final_temperature}" then "jump SELF break"

#------------NPT
reset_timestep 0
log ./results/npt_${temperature}K.log
fix             npt_id all npt temp ${init_temperature} ${temperature} ${temperature_damp} iso ${init_pressure} &
                ${init_pressure} ${pressure_damp} drag ${drag_value}

# output
fix 		    output_id all print ${output_npt} "$(step),$(temp),$(press),$(pe),$(ke),$(ecoul),$(epair),$(lx),$(ly),$(lz),$(vol)" &
                title "time step,temperature,pressure,potential energy,kinetic energy,pair energy,lx,ly,lz,vol" &
                file ./results/npt_${temperature}K.csv screen no
thermo_style    custom step temp press pe ke ecoul epair lx ly lz cella cellb cellc cellalpha cellbeta cellgamma vol
thermo          ${output_npt}

dump            trj_dump all atom/gz ${output_npt} ./results/npt_${temperature}K.lammpstrj.gz

#----------------------------
run             ${time_npt}
#----------------------------

unfix           npt_id
unfix		    output_id
undump		    trj_dump
write_restart	./results/restart_npt_${temperature}K.dat

#------------NVT eq
log ./results/nvt_eq_${temperature}K.log

fix             nvt_eq_id all nvt temp ${temperature} ${temperature} ${temperature_damp} drag ${drag_value}

# output
fix 		    output_id all print ${output_nvt_eq} "$(step),$(temp),$(press),$(pe),$(ke),$(ecoul),$(epair),$(vol)" &
                title "time step,temperature,pressure,potential energy,kinetic energy,pair energy,vol" &
                file ./results/nvt_eq_${temperature}K.csv screen no

thermo_style    custom step temp press pe ke ecoul epair vol
thermo          ${output_nvt_eq}
dump            trj_dump all atom/gz ${output_nvt_eq} ./results/nvt_eq_${temperature}K.lammpstrj.gz

#----------------------------
run             ${time_nvt_eq}
#----------------------------
unfix nvt_eq_id
unfix output_id
undump trj_dump
write_restart	./results/restart_nvt_eq_${temperature}K.dat

#------------NVT prod
log ./results/nvt_prod_${temperature}K.log

fix             nvt_prod_id all nvt temp ${temperature} ${temperature} ${temperature_damp}

# output
fix 		    output_id all print ${output_nvt_prod} "$(step),$(temp),$(press),$(pe),$(ke),$(ecoul),$(epair),$(vol)" &
                title "time step,temperature,pressure,potential energy,kinetic energy,pair energy,vol" &
                file ./results/nvt_prod_${temperature}K.csv screen no

thermo_style    custom step temp press pe ke ecoul epair vol
thermo          ${output_nvt_prod}
dump            trj_dump all atom/gz ${output_nvt_prod} ./results/nvt_prod_${temperature}K.lammpstrj.gz

reset_timestep  0

#----------------------------
run             ${time_nvt_prod}
#----------------------------
unfix           nvt_prod_id
unfix 		output_id
undump      trj_dump

write_data      ./results/nvt_prod_${temperature}K.data
write_restart	./results/restart_nvt_prod_${temperature}K.dat

variable init_temperature  equal ${temperature}
variable temperature       equal ${init_temperature}+${delta_temperature}

jump SELF loop
label break

#------------NPT cooling
log ./results/npt_cooling.log

fix             cooling_id all npt temp ${temperature} ${init_temperature} ${temperature_damp} aniso ${pressure} ${pressure} ${pressure_damp}

fix 		output_id all print ${output_cooling} "$(step),$(temp),$(press),$(pe),$(ke),$(ecoul),$(epair),$(lx),$(ly),$(lz),$(cella),$(cellb),$(cellc),$(vol)" title "time step,temperature,pressure,potential energy,kinetic energy,pair energy,lx,ly,lz,a,b,c,vol" file ./results/npt_cooling.csv screen no

thermo_style    custom step temp press pe ke ecoul epair lx ly lz cella cellb cellc cellalpha cellbeta cellgamma vol
thermo          ${output_cooling}
dump            trj_dump all atom/gz ${output_cooling} ./results/npt_cooling.lammpstrj.gz


#----------------------------
run             ${time_cooling}
#----------------------------
unfix       cooling_id
unfix		output_id
undump		trj_dump
#----------------------------
write_data      ./results/npt_cooled.data
