!    ibrav = 0, nat = 112, ntyp = 3
CELL_PARAMETERS bohr
    0.0000000000000000   15.6399453262344998   15.6399453262344998
   15.6399453262344998    0.0000000000000000   15.6399453262344998
   15.6399453262344998   15.6399453262344998    0.0000000000000000
ATOMIC_SPECIES
 Fe1   55.84500   Fe.pbesol-spn-kjpaw_psl.0.2.1.UPF
 Fe2   55.84500   Fe.pbesol-spn-kjpaw_psl.0.2.1.UPF
  O   15.99940   O.pbesol-n-kjpaw_psl.0.1.UPF
ATOMIC_POSITIONS crystal
 Fe1   0.3750000000000000  0.3750000000000000  0.3750000000000000
 Fe1   0.8750000000000000  0.3750000000000000  0.3750000000000000
 Fe1   0.3750000000000000  0.8750000000000000  0.3750000000000000
 Fe1   0.8750000000000000  0.8750000000000000  0.3750000000000000
 Fe1   0.3750000000000000  0.3750000000000000  0.8750000000000000
 Fe1   0.8750000000000000  0.3750000000000000  0.8750000000000000
 Fe1   0.3750000000000000  0.8750000000000000  0.8750000000000000
 Fe1   0.8750000000000000  0.8750000000000000  0.8750000000000000
 Fe1   0.2500000000000000  0.2500000000000000  0.2500000000000000
 Fe1   0.7500000000000000  0.2500000000000000  0.2500000000000000
 Fe1   0.2500000000000000  0.7500000000000000  0.2500000000000000
 Fe1   0.7500000000000000  0.7500000000000000  0.2500000000000000
 Fe1   0.2500000000000000  0.2500000000000000  0.7500000000000000
 Fe1   0.7500000000000000  0.2500000000000000  0.7500000000000000
 Fe1   0.2500000000000000  0.7500000000000000  0.7500000000000000
 Fe1   0.7500000000000000  0.7500000000000000  0.7500000000000000
 Fe2   0.0625000000000000  0.0625000000000000  0.0625000000000000
 Fe2   0.5625000000000000  0.0625000000000000  0.0625000000000000
 Fe2   0.0625000000000000  0.5625000000000000  0.0625000000000000
 Fe2   0.5625000000000000  0.5625000000000000  0.0625000000000000
 Fe2   0.0625000000000000  0.0625000000000000  0.5625000000000000
 Fe2   0.5625000000000000  0.0625000000000000  0.5625000000000000
 Fe2   0.0625000000000000  0.5625000000000000  0.5625000000000000
 Fe2   0.5625000000000000  0.5625000000000000  0.5625000000000000
 Fe2   0.0625000000000000  0.0625000000000000  0.3125000000000000
 Fe2   0.5625000000000000  0.0625000000000000  0.3125000000000000
 Fe2   0.0625000000000000  0.5625000000000000  0.3125000000000000
 Fe2   0.5625000000000000  0.5625000000000000  0.3125000000000000
 Fe2   0.0625000000000000  0.0625000000000000  0.8125000000000000
 Fe2   0.5625000000000000  0.0625000000000000  0.8125000000000000
 Fe2   0.0625000000000000  0.5625000000000000  0.8125000000000000
 Fe2   0.5625000000000000  0.5625000000000000  0.8125000000000000
 Fe2   0.0625000000000000  0.3125000000000000  0.0625000000000000
 Fe2   0.5625000000000000  0.3125000000000000  0.0625000000000000
 Fe2   0.0625000000000000  0.8125000000000000  0.0625000000000000
 Fe2   0.5625000000000000  0.8125000000000000  0.0625000000000000
 Fe2   0.0625000000000000  0.3125000000000000  0.5625000000000000
 Fe2   0.5625000000000000  0.3125000000000000  0.5625000000000000
 Fe2   0.0625000000000000  0.8125000000000000  0.5625000000000000
 Fe2   0.5625000000000000  0.8125000000000000  0.5625000000000000
 Fe2   0.3125000000000000  0.0625000000000000  0.0625000000000000
 Fe2   0.8125000000000000  0.0625000000000000  0.0625000000000000
 Fe2   0.3125000000000000  0.5625000000000000  0.0625000000000000
 Fe2   0.8125000000000000  0.5625000000000000  0.0625000000000000
 Fe2   0.3125000000000000  0.0625000000000000  0.5625000000000000
 Fe2   0.8125000000000000  0.0625000000000000  0.5625000000000000
 Fe2   0.3125000000000000  0.5625000000000000  0.5625000000000000
 Fe2   0.8125000000000000  0.5625000000000000  0.5625000000000000
  O   0.4397184767000000  0.4397184767000000  0.4397184767000000
  O   0.9397184767000000  0.4397184767000000  0.4397184767000000
  O   0.4397184767000000  0.9397184767000000  0.4397184767000000
  O   0.9397184767000000  0.9397184767000000  0.4397184767000000
  O   0.4397184767000000  0.4397184767000000  0.9397184767000000
  O   0.9397184767000000  0.4397184767000000  0.9397184767000000
  O   0.4397184767000000  0.9397184767000000  0.9397184767000000
  O   0.9397184767000000  0.9397184767000000  0.9397184767000000
  O   0.1852815233000000  0.1852815233000000  0.1852815233000000
  O   0.6852815233000000  0.1852815233000000  0.1852815233000000
  O   0.1852815233000000  0.6852815233000000  0.1852815233000000
  O   0.6852815233000000  0.6852815233000000  0.1852815233000000
  O   0.1852815233000000  0.1852815233000000  0.6852815233000000
  O   0.6852815233000000  0.1852815233000000  0.6852815233000000
  O   0.1852815233000000  0.6852815233000000  0.6852815233000000
  O   0.6852815233000000  0.6852815233000000  0.6852815233000000
  O   0.4397184767000000  0.4397184767000000  0.1808445699500000
  O   0.9397184767000000  0.4397184767000000  0.1808445699500000
  O   0.4397184767000000  0.9397184767000000  0.1808445699500000
  O   0.9397184767000000  0.9397184767000000  0.1808445699500000
  O   0.4397184767000000  0.4397184767000000  0.6808445699500000
  O   0.9397184767000000  0.4397184767000000  0.6808445699500000
  O   0.4397184767000000  0.9397184767000000  0.6808445699500000
  O   0.9397184767000000  0.9397184767000000  0.6808445699500000
  O   0.1852815233000000  0.1852815233000000  0.4441554300500000
  O   0.6852815233000000  0.1852815233000000  0.4441554300500000
  O   0.1852815233000000  0.6852815233000000  0.4441554300500000
  O   0.6852815233000000  0.6852815233000000  0.4441554300500000
  O   0.1852815233000000  0.1852815233000000  0.9441554300500000
  O   0.6852815233000000  0.1852815233000000  0.9441554300500000
  O   0.1852815233000000  0.6852815233000000  0.9441554300500000
  O   0.6852815233000000  0.6852815233000000  0.9441554300500000
  O   0.4397184767000000  0.1808445699500000  0.4397184767000000
  O   0.9397184767000000  0.1808445699500000  0.4397184767000000
  O   0.4397184767000000  0.6808445699500000  0.4397184767000000
  O   0.9397184767000000  0.6808445699500000  0.4397184767000000
  O   0.4397184767000000  0.1808445699500000  0.9397184767000000
  O   0.9397184767000000  0.1808445699500000  0.9397184767000000
  O   0.4397184767000000  0.6808445699500000  0.9397184767000000
  O   0.9397184767000000  0.6808445699500000  0.9397184767000000
  O   0.1852815233000000  0.4441554300500000  0.1852815233000000
  O   0.6852815233000000  0.4441554300500000  0.1852815233000000
  O   0.1852815233000000  0.9441554300500000  0.1852815233000000
  O   0.6852815233000000  0.9441554300500000  0.1852815233000000
  O   0.1852815233000000  0.4441554300500000  0.6852815233000000
  O   0.6852815233000000  0.4441554300500000  0.6852815233000000
  O   0.1852815233000000  0.9441554300500000  0.6852815233000000
  O   0.6852815233000000  0.9441554300500000  0.6852815233000000
  O   0.1808445699500000  0.4397184767000000  0.4397184767000000
  O   0.6808445699500000  0.4397184767000000  0.4397184767000000
  O   0.1808445699500000  0.9397184767000000  0.4397184767000000
  O   0.6808445699500000  0.9397184767000000  0.4397184767000000
  O   0.1808445699500000  0.4397184767000000  0.9397184767000000
  O   0.6808445699500000  0.4397184767000000  0.9397184767000000
  O   0.1808445699500000  0.9397184767000000  0.9397184767000000
  O   0.6808445699500000  0.9397184767000000  0.9397184767000000
  O   0.4441554300500000  0.1852815233000000  0.1852815233000000
  O   0.9441554300500000  0.1852815233000000  0.1852815233000000
  O   0.4441554300500000  0.6852815233000000  0.1852815233000000
  O   0.9441554300500000  0.6852815233000000  0.1852815233000000
  O   0.4441554300500000  0.1852815233000000  0.6852815233000000
  O   0.9441554300500000  0.1852815233000000  0.6852815233000000
  O   0.4441554300500000  0.6852815233000000  0.6852815233000000
  O   0.9441554300500000  0.6852815233000000  0.6852815233000000