generated by phonopy
   1.0
    10.0478177149861914    0.0000000000000000    0.0000000000000000
    -5.0239088574930957    8.7016653938812230    0.0000000000000000
     0.0000000000000000    0.0000000000000000   11.0289698124415523
O Si
  48   24
Direct
  0.2074401822759356  0.1285247653366560  0.1023082692437653
  0.7074401822759356  0.1275295243516417  0.1023082692437653
  0.2074401822759356  0.6275295243516417  0.1023082692437653
  0.7074401822759356  0.6275295243516417  0.1023082692437653
  0.2074401822759356  0.1275295243516417  0.6023082692437653
  0.7074401822759356  0.1275295243516417  0.6023082692437653
  0.2074401822759356  0.6275295243516417  0.6023082692437653
  0.7074401822759356  0.6275295243516417  0.6023082692437653
  0.3724704606483569  0.0799106574242918  0.2689749482437678
  0.8724704606483568  0.0799106574242918  0.2689749482437678
  0.3724704606483569  0.5799106574242917  0.2689749482437678
  0.8724704606483568  0.5799106574242917  0.2689749482437678
  0.3724704606483569  0.0799106574242918  0.7689749482437678
  0.8724704606483568  0.0799106574242918  0.7689749482437678
  0.3724704606483569  0.5799106574242917  0.7689749482437678
  0.8724704606483568  0.5799106574242917  0.7689749482437678
  0.4200893575757083  0.2925598177240646  0.4356416052437682
  0.9200893575757083  0.2925598177240646  0.4356416052437682
  0.4200893575757083  0.7925598177240646  0.4356416052437682
  0.9200893575757084  0.7925598177240646  0.4356416052437682
  0.4200893575757083  0.2925598177240646  0.9356416052437683
  0.9200893575757083  0.2925598177240646  0.9356416052437683
  0.4200893575757083  0.7925598177240646  0.9356416052437683
  0.9200893575757084  0.7925598177240646  0.9356416052437683
  0.1275295243516417  0.2074401822759356  0.3976917382562333
  0.6275295243516417  0.2074401822759356  0.3976917382562333
  0.1275295243516417  0.7074401822759356  0.3976917382562333
  0.6275295243516418  0.7074401822759356  0.3976917382562333
  0.1275295243516417  0.2074401822759356  0.8976917382562333
  0.6275295243516417  0.2074401822759356  0.8976917382562333
  0.1275295243516417  0.7074401822759356  0.8976917382562333
  0.6275295243516418  0.7074401822759356  0.8976917382562333
  0.0799106574242917  0.3724704606483569  0.2310250667562340
  0.5799106574242917  0.3724704606483569  0.2310250667562340
  0.0799106574242917  0.8724704606483569  0.2310250667562340
  0.5799106574242917  0.8724704606483569  0.2310250667562340
  0.0799106574242917  0.3724704606483569  0.7310250667562340
  0.5799106574242917  0.3724704606483569  0.7310250667562340
  0.0799106574242917  0.8724704606483569  0.7310250667562340
  0.5799106574242917  0.8724704606483569  0.7310250667562340
  0.2925598177240646  0.4200893575757083  0.0643583987562324
  0.7925598177240647  0.4200893575757083  0.0643583987562324
  0.2925598177240645  0.9200893575757083  0.0643583987562324
  0.7925598177240646  0.9200893575757083  0.0643583987562324
  0.2925598177240646  0.4200893575757083  0.5643583987562324
  0.7925598177240647  0.4200893575757083  0.5643583987562324
  0.2925598177240645  0.9200893575757083  0.5643583987562324
  0.7925598177240646  0.9200893575757083  0.5643583987562324
  0.2384117237099130  0.0000000000000000  0.1666666714999998
  0.7384117237099129  0.0000000000000000  0.1666666714999998
  0.2384117237099129  0.5000000000000000  0.1666666714999998
  0.7384117237099129  0.5000000000000000  0.1666666714999998
  0.2384117237099130  0.0000000000000000  0.6666666714999998
  0.7384117237099129  0.0000000000000000  0.6666666714999998
  0.2384117237099129  0.5000000000000000  0.6666666714999998
  0.7384117237099129  0.5000000000000000  0.6666666714999998
  0.0000000000000000  0.2384117237099130  0.3333333435000014
  0.5000000000000000  0.2384117237099130  0.3333333435000014
  0.0000000000000000  0.7384117237099129  0.3333333435000014
  0.5000000000000000  0.7384117237099129  0.3333333435000014
  0.0000000000000000  0.2384117237099130  0.8333333435000014
  0.5000000000000000  0.2384117237099130  0.8333333435000014
  0.0000000000000000  0.7384117237099129  0.8333333435000014
  0.5000000000000000  0.7384117237099129  0.8333333435000014
  0.2615882762900864  0.2615882762900864  0.0000000000000000
  0.7615882762900862  0.2615882762900864  0.0000000000000000
  0.2615882762900864  0.7615882762900863  0.0000000000000000
  0.7615882762900863  0.7615882762900863  0.0000000000000000
  0.2615882762900864  0.2615882762900864  0.5000000000000000
  0.7615882762900862  0.2615882762900864  0.5000000000000000
  0.2615882762900864  0.7615882762900863  0.5000000000000000
  0.7615882762900863  0.7615882762900863  0.5000000000000000
