LAMMPS data file via write_data, version 2 Apr 2025, timestep = 0, units = real

8366 atoms
3 atom types

0 60.72 xlo xhi
0 61.39 ylo yhi
0 60.55 zlo zhi

Masses

1 15.999
2 1.008
3 28.085

Atoms # full

10 1 3 1.6 3.161 0.365 1.133 0 0 0
1830 8484 1 -0.8 51.23 33.982 6.817 0 0 0
12 3 3 1.6 3.161 0.365 4.233 0 0 0
14 4 3 1.6 3.161 3.288 5.267 0 0 0
1383 5 3 1.6 3.161 3.288 8.367 0 0 0
1379 6 3 1.6 0.63 1.826 9.4 0 0 0
2243 7 3 1.6 3.161 0.365 13.533 0 0 0
2234 8 3 1.6 0.63 1.826 12.5 0 0 0
2245 9 3 1.6 3.161 0.365 16.633 0 0 0
2247 10 3 1.6 3.161 3.288 17.667 0 0 0
3234 11 3 1.6 3.161 3.288 20.767 0 0 0
3230 12 3 1.6 0.63 1.826 21.8 0 0 0
3736 13 3 1.6 3.161 0.365 25.933 0 0 0
3727 14 3 1.6 0.63 1.826 24.9 0 0 0
3738 15 3 1.6 3.161 0.365 29.033 0 0 0
4341 16 3 1.6 3.161 3.288 30.067 0 0 0
4343 17 3 1.6 3.161 3.288 33.167 0 0 0
4338 18 3 1.6 0.63 1.826 34.2 0 0 0
4836 19 3 1.6 3.161 0.365 38.333 0 0 0
4829 20 3 1.6 0.63 1.826 37.3 0 0 0
4838 21 3 1.6 3.161 0.365 41.433 0 0 0
5330 22 3 1.6 3.161 3.288 42.467 0 0 0
5332 23 3 1.6 3.161 3.288 45.567 0 0 0
5325 24 3 1.6 0.63 1.826 46.6 0 0 0
6177 25 3 1.6 3.161 0.365 50.733 0 0 0
6170 26 3 1.6 0.63 1.826 49.7 0 0 0
6179 27 3 1.6 3.161 0.365 53.833 0 0 0
7144 28 3 1.6 3.161 3.288 54.867 0 0 0
7146 29 3 1.6 3.161 3.288 57.967 0 0 0
7139 30 3 1.6 0.63 1.826 59 0 0 0
744 8483 1 -0.8 49.967 34.712 4.75 0 0 0
3 32 3 1.6 0.63 4.749 1.133 0 0 0
5 33 3 1.6 0.63 4.749 4.233 0 0 0
217 34 3 1.6 0.63 7.672 5.267 0 0 0
1385 35 3 1.6 3.161 6.21 9.4 0 0 0
1499 36 3 1.6 0.63 7.672 8.367 0 0 0
2248 37 3 1.6 3.161 6.21 12.5 0 0 0
2236 38 3 1.6 0.63 4.749 13.533 0 0 0
2238 39 3 1.6 0.63 4.749 16.633 0 0 0
2450 40 3 1.6 0.63 7.672 17.667 0 0 0
3236 41 3 1.6 3.161 6.21 21.8 0 0 0
3350 42 3 1.6 0.63 7.672 20.767 0 0 0
3740 43 3 1.6 3.161 6.21 24.9 0 0 0
3729 44 3 1.6 0.63 4.749 25.933 0 0 0
3731 45 3 1.6 0.63 4.749 29.033 0 0 0
4469 46 3 1.6 0.63 7.672 30.067 0 0 0
4345 47 3 1.6 3.161 6.21 34.2 0 0 0
4471 48 3 1.6 0.63 7.672 33.167 0 0 0
4839 49 3 1.6 3.161 6.21 37.3 0 0 0
4831 50 3 1.6 0.63 4.749 38.333 0 0 0
4833 51 3 1.6 0.63 4.749 41.433 0 0 0
5480 52 3 1.6 0.63 7.672 42.467 0 0 0
5334 53 3 1.6 3.161 6.21 46.6 0 0 0
5482 54 3 1.6 0.63 7.672 45.567 0 0 0
6181 55 3 1.6 3.161 6.21 49.7 0 0 0
6172 56 3 1.6 0.63 4.749 50.733 0 0 0
6174 57 3 1.6 0.63 4.749 53.833 0 0 0
7294 58 3 1.6 0.63 7.672 54.867 0 0 0
7148 59 3 1.6 3.161 6.21 59 0 0 0
7296 60 3 1.6 0.63 7.672 57.967 0 0 0
223 61 3 1.6 3.161 9.135 1.133 0 0 0
739 8482 1 -0.8 48.701 35.445 2.683 0 0 0
225 63 3 1.6 3.161 9.135 4.233 0 0 0
1501 64 3 1.6 0.63 10.596 9.4 0 0 0
2456 65 3 1.6 3.161 9.135 13.533 0 0 0
2451 66 3 1.6 0.63 10.596 12.5 0 0 0
2458 67 3 1.6 3.161 9.135 16.633 0 0 0
3352 68 3 1.6 0.63 10.596 21.8 0 0 0
3935 69 3 1.6 3.161 9.135 25.933 0 0 0
3931 70 3 1.6 0.63 10.596 24.9 0 0 0
3937 71 3 1.6 3.161 9.135 29.033 0 0 0
4473 72 3 1.6 0.63 10.596 34.2 0 0 0
4989 73 3 1.6 3.161 9.135 38.333 0 0 0
4985 74 3 1.6 0.63 10.596 37.3 0 0 0
4991 75 3 1.6 3.161 9.135 41.433 0 0 0
5484 76 3 1.6 0.63 10.596 46.6 0 0 0
6354 77 3 1.6 3.161 9.135 50.733 0 0 0
6350 78 3 1.6 0.63 10.596 49.7 0 0 0
6356 79 3 1.6 3.161 9.135 53.833 0 0 0
7298 80 3 1.6 0.63 10.596 59 0 0 0
745 8481 1 -0.8 49.967 36.176 0.617 0 0 0
373 82 3 1.6 0.63 13.519 1.133 0 0 0
227 83 3 1.6 3.161 12.058 5.267 0 0 0
375 84 3 1.6 0.63 13.519 4.233 0 0 0
1631 85 3 1.6 3.161 14.98 9.4 0 0 0
1506 86 3 1.6 3.161 12.058 8.367 0 0 0
2612 87 3 1.6 3.161 14.98 12.5 0 0 0
2606 88 3 1.6 0.63 13.519 13.533 0 0 0
2460 89 3 1.6 3.161 12.058 17.667 0 0 0
2608 90 3 1.6 0.63 13.519 16.633 0 0 0
6687 10305 2 0.4 46.707 34.617 51.855 0 0 0
3357 92 3 1.6 3.161 12.058 20.767 0 0 0
6690 10305 1 -0.8 47.654 34.865 51.855 0 0 0
6685 10305 2 0.4 46.167 34.779 50.733 0 0 0
6688 10305 1 -0.8 47.115 35.028 50.733 0 0 0
6693 10305 3 1.6 48.701 35.445 50.733 0 0 0
733 10302 2 0.4 46.707 34.617 2.255 0 0 0
736 10302 1 -0.8 47.654 34.865 2.255 0 0 0
731 10302 2 0.4 46.167 34.779 1.133 0 0 0
734 10302 1 -0.8 47.115 35.028 1.133 0 0 0
5489 101 3 1.6 3.161 12.058 42.467 0 0 0
5082 102 3 1.6 0.63 13.519 41.433 0 0 0
5659 103 3 1.6 3.161 14.98 46.6 0 0 0
5491 104 3 1.6 3.161 12.058 45.567 0 0 0
6467 105 3 1.6 3.161 14.98 49.7 0 0 0
6462 106 3 1.6 0.63 13.519 50.733 0 0 0
7303 107 3 1.6 3.161 12.058 54.867 0 0 0
6464 108 3 1.6 0.63 13.519 53.833 0 0 0
7475 109 3 1.6 3.161 14.98 59 0 0 0
7305 110 3 1.6 3.161 12.058 57.967 0 0 0
383 111 3 1.6 3.161 17.905 1.133 0 0 0
7721 8480 1 -0.8 52.496 28.867 58.483 0 0 0
377 113 3 1.6 0.63 16.442 5.267 0 0 0
385 114 3 1.6 3.161 17.905 4.233 0 0 0
1627 115 3 1.6 0.63 16.442 8.367 0 0 0
1698 116 3 1.6 0.63 19.366 9.4 0 0 0
2614 117 3 1.6 3.161 17.905 13.533 0 0 0
2713 118 3 1.6 0.63 19.366 12.5 0 0 0
738 10302 3 1.6 48.701 35.445 1.133 0 0 0
7710 10301 2 0.4 46.656 27.348 54.968 0 0 0
7711 10301 1 -0.8 47.615 27.147 54.968 0 0 0
6638 10301 2 0.4 46.137 27.214 53.833 0 0 0
6641 10301 1 -0.8 47.096 27.012 53.833 0 0 0
6645 10301 3 1.6 48.701 26.675 53.833 0 0 0
646 10299 2 0.4 46.656 27.348 5.368 0 0 0
649 10299 1 -0.8 47.615 27.147 5.368 0 0 0
644 10299 2 0.4 46.137 27.214 4.233 0 0 0
648 10299 1 -0.8 47.096 27.012 4.233 0 0 0
653 10299 3 1.6 48.701 26.675 4.233 0 0 0
6752 10298 2 0.4 42.723 42.114 51.549 0 0 0
6753 10298 1 -0.8 43.412 42.811 51.549 0 0 0
6750 10298 2 0.4 41.799 42.352 50.733 0 0 0
5654 133 3 1.6 0.63 16.442 45.567 0 0 0
6850 10298 1 -0.8 42.488 43.049 50.733 0 0 0
6469 135 3 1.6 3.161 17.905 50.733 0 0 0
6560 136 3 1.6 0.63 19.366 49.7 0 0 0
7467 137 3 1.6 0.63 16.442 54.867 0 0 0
6471 138 3 1.6 3.161 17.905 53.833 0 0 0
7469 139 3 1.6 0.63 16.442 57.967 0 0 0
7582 140 3 1.6 0.63 19.366 59 0 0 0
7722 8479 1 -0.8 52.496 30.328 54.35 0 0 0
517 142 3 1.6 0.63 22.289 1.133 0 0 0
525 143 3 1.6 3.161 20.828 5.267 0 0 0
519 144 3 1.6 0.63 22.289 4.233 0 0 0
1705 145 3 1.6 3.161 23.75 9.4 0 0 0
1703 146 3 1.6 3.161 20.828 8.367 0 0 0
6852 10298 3 1.6 43.641 44.215 50.733 0 0 0
2743 10296 1 -0.8 43.412 42.811 14.349 0 0 0
2742 10296 2 0.4 41.799 42.352 13.533 0 0 0
2828 10296 1 -0.8 42.488 43.049 13.533 0 0 0
2829 10296 3 1.6 43.641 44.215 13.533 0 0 0
825 10295 2 0.4 42.723 42.114 1.949 0 0 0
826 10295 1 -0.8 43.412 42.811 1.949 0 0 0
823 10295 2 0.4 41.799 42.352 1.133 0 0 0
961 10295 1 -0.8 42.488 43.049 1.133 0 0 0
963 10295 3 1.6 43.641 44.215 1.133 0 0 0
6593 10294 2 0.4 44.797 21.137 50.65 0 0 0
6595 10294 1 -0.8 45.601 20.576 50.65 0 0 0
6592 10294 2 0.4 44.023 20.868 49.7 0 0 0
6594 10294 1 -0.8 44.826 20.306 49.7 0 0 0
6597 10294 3 1.6 46.17 19.366 49.7 0 0 0
2723 10292 2 0.4 44.023 20.868 12.5 0 0 0
2724 10292 1 -0.8 44.826 20.306 12.5 0 0 0
2725 10292 3 1.6 46.17 19.366 12.5 0 0 0
6567 165 3 1.6 3.161 23.75 49.7 0 0 0
6562 166 3 1.6 0.63 22.289 50.733 0 0 0
7588 167 3 1.6 3.161 20.828 54.867 0 0 0
6564 168 3 1.6 0.63 22.289 53.833 0 0 0
7592 169 3 1.6 3.161 23.75 59 0 0 0
7590 170 3 1.6 3.161 20.828 57.967 0 0 0
613 171 3 1.6 3.161 26.675 1.133 0 0 0
606 172 3 1.6 0.63 25.212 5.267 0 0 0
615 173 3 1.6 3.161 26.675 4.233 0 0 0
1765 174 3 1.6 0.63 25.212 8.367 0 0 0
2818 10290 2 0.4 36.432 46.223 16.994 0 0 0
2819 10290 1 -0.8 36.737 47.154 16.994 0 0 0
2812 10290 2 0.4 35.235 46.109 16.633 0 0 0
2814 10290 1 -0.8 35.54 47.04 16.633 0 0 0
2817 10290 3 1.6 36.05 48.599 16.633 0 0 0
951 10289 2 0.4 36.432 46.223 4.594 0 0 0
952 10289 1 -0.8 36.737 47.154 4.594 0 0 0
945 10289 2 0.4 35.235 46.109 4.233 0 0 0
947 10289 1 -0.8 35.54 47.04 4.233 0 0 0
950 10289 3 1.6 36.05 48.599 4.233 0 0 0
7527 10288 2 0.4 32.057 12.783 59.049 0 0 0
7385 10288 1 -0.8 32.099 11.804 59.049 0 0 0
6627 187 3 1.6 3.161 26.675 50.733 0 0 0
7668 188 3 1.6 0.63 25.212 54.867 0 0 0
6629 189 3 1.6 3.161 26.675 53.833 0 0 0
7670 190 3 1.6 0.63 25.212 57.967 0 0 0
7782 8478 1 -0.8 51.23 32.52 54.35 0 0 0
686 192 3 1.6 0.63 31.059 1.133 0 0 0
617 193 3 1.6 3.161 29.598 5.267 0 0 0
688 194 3 1.6 0.63 31.059 4.233 0 0 0
1770 195 3 1.6 3.161 29.598 8.367 0 0 0
1767 196 3 1.6 0.63 28.136 9.4 0 0 0
7526 10288 2 0.4 30.88 13.214 59 0 0 0
7379 10288 1 -0.8 30.921 12.235 59 0 0 0
7384 10288 3 1.6 30.99 10.596 59 0 0 0
4521 10287 3 1.6 30.99 10.596 34.2 0 0 0
1664 10286 2 0.4 32.057 12.783 9.449 0 0 0
1567 10286 1 -0.8 32.099 11.804 9.449 0 0 0
1663 10286 2 0.4 30.88 13.214 9.4 0 0 0
1561 10286 1 -0.8 30.921 12.235 9.4 0 0 0
1565 10286 3 1.6 30.99 10.596 9.4 0 0 0
6833 10285 2 0.4 29.797 48.028 49.6 0 0 0
6957 10285 1 -0.8 29.712 49.005 49.6 0 0 0
6832 10285 2 0.4 28.687 47.45 49.7 0 0 0
6831 10285 1 -0.8 28.603 48.427 49.7 0 0 0
6952 10285 3 1.6 28.461 50.06 49.7 0 0 0
4107 10284 3 1.6 28.461 50.06 24.9 0 0 0
2808 10283 2 0.4 29.797 48.028 12.4 0 0 0
2956 10283 1 -0.8 29.712 49.005 12.4 0 0 0
2807 10283 2 0.4 28.687 47.45 12.5 0 0 0
2806 10283 1 -0.8 28.603 48.427 12.5 0 0 0
6659 216 3 1.6 0.63 31.059 50.733 0 0 0
7677 217 3 1.6 3.161 29.598 54.867 0 0 0
6661 218 3 1.6 0.63 31.059 53.833 0 0 0
7679 219 3 1.6 3.161 29.598 57.967 0 0 0
7672 220 3 1.6 0.63 28.136 59 0 0 0
6700 8477 1 -0.8 51.23 31.059 52.283 0 0 0
696 222 3 1.6 3.161 35.445 1.133 0 0 0
690 223 3 1.6 0.63 33.982 5.267 0 0 0
698 224 3 1.6 3.161 35.445 4.233 0 0 0
1812 225 3 1.6 3.161 32.52 9.4 0 0 0
1808 226 3 1.6 0.63 33.982 8.367 0 0 0
2950 10283 3 1.6 28.461 50.06 12.5 0 0 0
7848 10282 2 0.4 15.421 40.668 58.021 0 0 0
7846 10282 1 -0.8 14.593 41.193 58.021 0 0 0
7849 10282 2 0.4 15.492 39.885 59 0 0 0
7847 10282 1 -0.8 14.665 40.411 59 0 0 0
7844 10282 3 1.6 13.281 41.29 59 0 0 0
1879 10278 2 0.4 15.421 40.668 8.421 0 0 0
1877 10278 1 -0.8 14.593 41.193 8.421 0 0 0
1880 10278 2 0.4 15.492 39.885 9.4 0 0 0
1878 10278 1 -0.8 14.665 40.411 9.4 0 0 0
1875 10278 3 1.6 13.281 41.29 9.4 0 0 0
7621 10277 2 0.4 15.424 21.396 56.963 0 0 0
7618 10277 1 -0.8 14.575 20.906 56.963 0 0 0
7623 10277 2 0.4 15.55 22.138 57.967 0 0 0
7620 10277 1 -0.8 14.701 21.648 57.967 0 0 0
7617 10277 3 1.6 13.281 20.828 57.967 0 0 0
562 10275 2 0.4 44.797 21.137 1.05 0 0 0
564 10275 1 -0.8 45.601 20.576 1.05 0 0 0
561 10275 2 0.4 44.023 20.868 0.1 0 0 0
6664 246 3 1.6 3.161 35.445 50.733 0 0 0
7746 247 3 1.6 0.63 33.982 54.867 0 0 0
6666 248 3 1.6 3.161 35.445 53.833 0 0 0
7753 249 3 1.6 3.161 32.52 59 0 0 0
7748 250 3 1.6 0.63 33.982 57.967 0 0 0
752 8485 1 -0.8 52.496 34.712 4.75 0 0 0
780 252 3 1.6 0.63 39.829 1.133 0 0 0
788 253 3 1.6 3.161 38.368 5.267 0 0 0
782 254 3 1.6 0.63 39.829 4.233 0 0 0
1851 255 3 1.6 3.161 38.368 8.367 0 0 0
1844 256 3 1.6 0.63 36.906 9.4 0 0 0
563 10275 1 -0.8 44.826 20.306 0.1 0 0 0
6647 8475 1 -0.8 52.496 27.406 50.217 0 0 0
941 10274 2 0.4 29.797 48.028 0 0 0 0
1105 10274 1 -0.8 29.712 49.005 0 0 0 0
940 10274 2 0.4 28.687 47.45 0.1 0 0 0
939 10274 1 -0.8 28.603 48.427 0.1 0 0 0
834 8486 1 -0.8 48.701 36.906 4.75 0 0 0
7779 10273 2 0.4 48.644 33.563 57.967 0 0 0
7780 10273 1 -0.8 49.611 33.72 57.967 0 0 0
7785 10273 3 1.6 51.23 33.982 57.967 0 0 0
1828 10269 2 0.4 48.644 33.563 8.367 0 0 0
1829 10269 1 -0.8 49.611 33.72 8.367 0 0 0
1831 10269 3 1.6 51.23 33.982 8.367 0 0 0
7712 10268 2 0.4 48.627 28.437 59 0 0 0
7713 10268 1 -0.8 49.601 28.325 59 0 0 0
7719 10268 3 1.6 51.23 28.136 59 0 0 0
6692 10267 2 0.4 48.611 30.999 53.833 0 0 0
6697 10267 1 -0.8 49.59 31.021 53.833 0 0 0
6717 275 3 1.6 0.63 36.906 49.7 0 0 0
6719 276 3 1.6 0.63 39.829 50.733 0 0 0
7813 277 3 1.6 3.161 38.368 54.867 0 0 0
6721 278 3 1.6 0.63 39.829 53.833 0 0 0
7815 279 3 1.6 3.161 38.368 57.967 0 0 0
7804 280 3 1.6 0.63 36.906 59 0 0 0
1832 8487 1 -0.8 51.23 35.445 8.883 0 0 0
784 282 3 1.6 0.63 42.752 5.267 0 0 0
1853 283 3 1.6 3.161 41.29 9.4 0 0 0
1847 284 3 1.6 0.63 42.752 8.367 0 0 0
2734 285 3 1.6 3.161 41.29 12.5 0 0 0
6701 10267 3 1.6 51.23 31.059 53.833 0 0 0
6691 10266 2 0.4 48.611 30.999 50.733 0 0 0
6696 10266 1 -0.8 49.59 31.021 50.733 0 0 0
6699 10266 3 1.6 51.23 31.059 50.733 0 0 0
1789 10257 2 0.4 48.627 28.437 9.4 0 0 0
1790 10257 1 -0.8 49.601 28.325 9.4 0 0 0
1794 10257 3 1.6 51.23 28.136 9.4 0 0 0
737 10256 2 0.4 48.611 30.999 1.133 0 0 0
742 10256 1 -0.8 49.59 31.021 1.133 0 0 0
746 10256 3 1.6 51.23 31.059 1.133 0 0 0
7857 10255 2 0.4 46.286 37.353 54.867 0 0 0
6724 297 3 1.6 3.161 41.29 49.7 0 0 0
7806 298 3 1.6 0.63 42.752 54.867 0 0 0
7817 299 3 1.6 3.161 41.29 59 0 0 0
7808 300 3 1.6 0.63 42.752 57.967 0 0 0
878 301 3 1.6 3.161 44.215 1.133 0 0 0
1833 8488 1 -0.8 52.496 33.251 8.883 0 0 0
880 303 3 1.6 3.161 44.215 4.233 0 0 0
882 304 3 1.6 3.161 47.138 5.267 0 0 0
1927 305 3 1.6 3.161 47.138 8.367 0 0 0
1923 306 3 1.6 0.63 45.676 9.4 0 0 0
2758 307 3 1.6 3.161 44.215 13.533 0 0 0
2751 308 3 1.6 0.63 45.676 12.5 0 0 0
7859 10255 1 -0.8 47.189 37.732 54.867 0 0 0
2760 310 3 1.6 3.161 47.138 17.667 0 0 0
7863 10255 3 1.6 48.701 38.368 54.867 0 0 0
7850 10254 2 0.4 44.084 41.166 54.867 0 0 0
7852 10254 1 -0.8 44.864 41.759 54.867 0 0 0
7854 10254 3 1.6 46.17 42.752 54.867 0 0 0
6754 10253 2 0.4 46.432 39.98 49.7 0 0 0
6755 10253 1 -0.8 47.281 40.47 49.7 0 0 0
6757 10253 3 1.6 48.701 41.29 49.7 0 0 0
1885 10246 2 0.4 46.286 37.353 8.367 0 0 0
1887 10246 1 -0.8 47.189 37.732 8.367 0 0 0
1890 10246 3 1.6 48.701 38.368 8.367 0 0 0
827 10245 2 0.4 44.084 41.166 5.267 0 0 0
5734 322 3 1.6 3.161 47.138 42.467 0 0 0
5736 323 3 1.6 3.161 47.138 45.567 0 0 0
5731 324 3 1.6 0.63 45.676 46.6 0 0 0
6787 325 3 1.6 3.161 44.215 50.733 0 0 0
6781 326 3 1.6 0.63 45.676 49.7 0 0 0
6789 327 3 1.6 3.161 44.215 53.833 0 0 0
7911 328 3 1.6 3.161 47.138 54.867 0 0 0
7913 329 3 1.6 3.161 47.138 57.967 0 0 0
7906 330 3 1.6 0.63 45.676 59 0 0 0
6698 8513 1 -0.8 49.967 36.176 50.217 0 0 0
872 332 3 1.6 0.63 48.599 1.133 0 0 0
874 333 3 1.6 0.63 48.599 4.233 0 0 0
1020 334 3 1.6 0.63 51.522 5.267 0 0 0
2000 335 3 1.6 3.161 50.06 9.4 0 0 0
1995 336 3 1.6 0.63 51.522 8.367 0 0 0
2876 337 3 1.6 3.161 50.06 12.5 0 0 0
2753 338 3 1.6 0.63 48.599 13.533 0 0 0
2755 339 3 1.6 0.63 48.599 16.633 0 0 0
2871 340 3 1.6 0.63 51.522 17.667 0 0 0
3493 341 3 1.6 3.161 50.06 21.8 0 0 0
3488 342 3 1.6 0.63 51.522 20.767 0 0 0
4052 343 3 1.6 3.161 50.06 24.9 0 0 0
828 10245 1 -0.8 44.864 41.759 5.267 0 0 0
829 10245 3 1.6 46.17 42.752 5.267 0 0 0
4565 346 3 1.6 0.63 51.522 30.067 0 0 0
830 10244 2 0.4 46.432 39.98 0.1 0 0 0
4567 348 3 1.6 0.63 51.522 33.167 0 0 0
5115 349 3 1.6 3.161 50.06 37.3 0 0 0
833 10244 1 -0.8 47.281 40.47 0.1 0 0 0
5092 351 3 1.6 0.63 48.599 41.433 0 0 0
5820 352 3 1.6 0.63 51.522 42.467 0 0 0
5827 353 3 1.6 3.161 50.06 46.6 0 0 0
5822 354 3 1.6 0.63 51.522 45.567 0 0 0
6894 355 3 1.6 3.161 50.06 49.7 0 0 0
6783 356 3 1.6 0.63 48.599 50.733 0 0 0
6785 357 3 1.6 0.63 48.599 53.833 0 0 0
8018 358 3 1.6 0.63 51.522 54.867 0 0 0
8025 359 3 1.6 3.161 50.06 59 0 0 0
8020 360 3 1.6 0.63 51.522 57.967 0 0 0
1027 361 3 1.6 3.161 52.985 1.133 0 0 0
6694 8514 1 -0.8 48.701 35.445 52.283 0 0 0
1029 363 3 1.6 3.161 52.985 4.233 0 0 0
1207 364 3 1.6 3.161 55.908 5.267 0 0 0
2107 365 3 1.6 3.161 55.908 8.367 0 0 0
1997 366 3 1.6 0.63 54.446 9.4 0 0 0
2878 367 3 1.6 3.161 52.985 13.533 0 0 0
2872 368 3 1.6 0.63 54.446 12.5 0 0 0
2880 369 3 1.6 3.161 52.985 16.633 0 0 0
3058 370 3 1.6 3.161 55.908 17.667 0 0 0
3600 371 3 1.6 3.161 55.908 20.767 0 0 0
3490 372 3 1.6 0.63 54.446 21.8 0 0 0
4054 373 3 1.6 3.161 52.985 25.933 0 0 0
4049 374 3 1.6 0.63 54.446 24.9 0 0 0
4056 375 3 1.6 3.161 52.985 29.033 0 0 0
4678 376 3 1.6 3.161 55.908 30.067 0 0 0
4680 377 3 1.6 3.161 55.908 33.167 0 0 0
4569 378 3 1.6 0.63 54.446 34.2 0 0 0
5117 379 3 1.6 3.161 52.985 38.333 0 0 0
5112 380 3 1.6 0.63 54.446 37.3 0 0 0
5119 381 3 1.6 3.161 52.985 41.433 0 0 0
5973 382 3 1.6 3.161 55.908 42.467 0 0 0
5975 383 3 1.6 3.161 55.908 45.567 0 0 0
5824 384 3 1.6 0.63 54.446 46.6 0 0 0
6896 385 3 1.6 3.161 52.985 50.733 0 0 0
6890 386 3 1.6 0.63 54.446 49.7 0 0 0
6898 387 3 1.6 3.161 52.985 53.833 0 0 0
8171 388 3 1.6 3.161 55.908 54.867 0 0 0
8173 389 3 1.6 3.161 55.908 57.967 0 0 0
8022 390 3 1.6 0.63 54.446 59 0 0 0
7781 8515 1 -0.8 49.967 34.712 54.35 0 0 0
1199 392 3 1.6 0.63 57.369 1.133 0 0 0
1201 393 3 1.6 0.63 57.369 4.233 0 0 0
1203 394 3 1.6 0.63 60.292 5.267 0 0 0
2109 395 3 1.6 3.161 58.83 9.4 0 0 0
2103 396 3 1.6 0.63 60.292 8.367 0 0 0
3059 397 3 1.6 3.161 58.83 12.5 0 0 0
3050 398 3 1.6 0.63 57.369 13.533 0 0 0
3052 399 3 1.6 0.63 57.369 16.633 0 0 0
3054 400 3 1.6 0.63 60.292 17.667 0 0 0
3602 401 3 1.6 3.161 58.83 21.8 0 0 0
3596 402 3 1.6 0.63 60.292 20.767 0 0 0
4189 403 3 1.6 3.161 58.83 24.9 0 0 0
4182 404 3 1.6 0.63 57.369 25.933 0 0 0
4184 405 3 1.6 0.63 57.369 29.033 0 0 0
4673 406 3 1.6 0.63 60.292 30.067 0 0 0
4682 407 3 1.6 3.161 58.83 34.2 0 0 0
4675 408 3 1.6 0.63 60.292 33.167 0 0 0
5233 409 3 1.6 3.161 58.83 37.3 0 0 0
5229 410 3 1.6 0.63 57.369 38.333 0 0 0
5231 411 3 1.6 0.63 57.369 41.433 0 0 0
5966 412 3 1.6 0.63 60.292 42.467 0 0 0
5977 413 3 1.6 3.161 58.83 46.6 0 0 0
5968 414 3 1.6 0.63 60.292 45.567 0 0 0
7036 415 3 1.6 3.161 58.83 49.7 0 0 0
7031 416 3 1.6 0.63 57.369 50.733 0 0 0
7033 417 3 1.6 0.63 57.369 53.833 0 0 0
8164 418 3 1.6 0.63 60.292 54.867 0 0 0
8175 419 3 1.6 3.161 58.83 59 0 0 0
8166 420 3 1.6 0.63 60.292 57.967 0 0 0
7788 8516 1 -0.8 52.496 34.712 54.35 0 0 0
1389 422 3 1.6 5.69 1.826 9.4 0 0 0
2252 423 3 1.6 5.69 1.826 12.5 0 0 0
3240 424 3 1.6 5.69 1.826 21.8 0 0 0
3744 425 3 1.6 5.69 1.826 24.9 0 0 0
4349 426 3 1.6 5.69 1.826 34.2 0 0 0
4842 427 3 1.6 5.69 1.826 37.3 0 0 0
5338 428 3 1.6 5.69 1.826 46.6 0 0 0
6185 429 3 1.6 5.69 1.826 49.7 0 0 0
7152 430 3 1.6 5.69 1.826 59 0 0 0
21 431 3 1.6 5.69 4.749 1.133 0 0 0
23 432 3 1.6 5.69 4.749 4.233 0 0 0
230 433 3 1.6 5.69 7.672 5.267 0 0 0
1510 434 3 1.6 5.69 7.672 8.367 0 0 0
2254 435 3 1.6 5.69 4.749 13.533 0 0 0
2256 436 3 1.6 5.69 4.749 16.633 0 0 0
2463 437 3 1.6 5.69 7.672 17.667 0 0 0
3361 438 3 1.6 5.69 7.672 20.767 0 0 0
3746 439 3 1.6 5.69 4.749 25.933 0 0 0
3748 440 3 1.6 5.69 4.749 29.033 0 0 0
4477 441 3 1.6 5.69 7.672 30.067 0 0 0
4479 442 3 1.6 5.69 7.672 33.167 0 0 0
4844 443 3 1.6 5.69 4.749 38.333 0 0 0
4846 444 3 1.6 5.69 4.749 41.433 0 0 0
5495 445 3 1.6 5.69 7.672 42.467 0 0 0
5497 446 3 1.6 5.69 7.672 45.567 0 0 0
6187 447 3 1.6 5.69 4.749 50.733 0 0 0
6189 448 3 1.6 5.69 4.749 53.833 0 0 0
7309 449 3 1.6 5.69 7.672 54.867 0 0 0
7311 450 3 1.6 5.69 7.672 57.967 0 0 0
7784 8517 1 -0.8 51.23 33.982 56.417 0 0 0
1512 452 3 1.6 5.69 10.596 9.4 0 0 0
2464 453 3 1.6 5.69 10.596 12.5 0 0 0
3363 454 3 1.6 5.69 10.596 21.8 0 0 0
3941 455 3 1.6 5.69 10.596 24.9 0 0 0
4481 456 3 1.6 5.69 10.596 34.2 0 0 0
4993 457 3 1.6 5.69 10.596 37.3 0 0 0
5499 458 3 1.6 5.69 10.596 46.6 0 0 0
6359 459 3 1.6 5.69 10.596 49.7 0 0 0
7313 460 3 1.6 5.69 10.596 59 0 0 0
389 461 3 1.6 5.69 13.519 1.133 0 0 0
391 462 3 1.6 5.69 13.519 4.233 0 0 0
2617 463 3 1.6 5.69 13.519 13.533 0 0 0
2619 464 3 1.6 5.69 13.519 16.633 0 0 0
7862 8518 1 -0.8 48.701 36.906 54.35 0 0 0
6686 10243 2 0.4 46.167 34.779 53.833 0 0 0
6689 10243 1 -0.8 47.115 35.028 53.833 0 0 0
5083 468 3 1.6 5.69 13.519 41.433 0 0 0
6473 469 3 1.6 5.69 13.519 50.733 0 0 0
6475 470 3 1.6 5.69 13.519 53.833 0 0 0
7786 8519 1 -0.8 51.23 35.445 58.483 0 0 0
393 472 3 1.6 5.69 16.442 5.267 0 0 0
1635 473 3 1.6 5.69 16.442 8.367 0 0 0
1709 474 3 1.6 5.69 19.366 9.4 0 0 0
2716 475 3 1.6 5.69 19.366 12.5 0 0 0
6695 10243 3 1.6 48.701 35.445 53.833 0 0 0
732 10239 2 0.4 46.167 34.779 4.233 0 0 0
735 10239 1 -0.8 47.115 35.028 4.233 0 0 0
740 10239 3 1.6 48.701 35.445 4.233 0 0 0
6637 10238 2 0.4 46.137 27.214 50.733 0 0 0
6640 10238 1 -0.8 47.096 27.012 50.733 0 0 0
6643 10238 3 1.6 48.701 26.675 50.733 0 0 0
643 10235 2 0.4 46.137 27.214 1.133 0 0 0
647 10235 1 -0.8 47.096 27.012 1.133 0 0 0
5662 485 3 1.6 5.69 16.442 45.567 0 0 0
651 10235 3 1.6 48.701 26.675 1.133 0 0 0
6571 487 3 1.6 5.69 19.366 49.7 0 0 0
7480 488 3 1.6 5.69 16.442 54.867 0 0 0
7482 489 3 1.6 5.69 16.442 57.967 0 0 0
7596 490 3 1.6 5.69 19.366 59 0 0 0
532 491 3 1.6 5.69 22.289 1.133 0 0 0
534 492 3 1.6 5.69 22.289 4.233 0 0 0
7709 10234 2 0.4 46.242 24.655 59 0 0 0
7628 10234 1 -0.8 47.162 24.316 59 0 0 0
7636 10234 3 1.6 48.701 23.75 59 0 0 0
1788 10231 2 0.4 46.242 24.655 9.4 0 0 0
1733 10231 1 -0.8 47.162 24.316 9.4 0 0 0
1738 10231 3 1.6 48.701 23.75 9.4 0 0 0
6573 499 3 1.6 5.69 22.289 50.733 0 0 0
6575 500 3 1.6 5.69 22.289 53.833 0 0 0
621 501 3 1.6 5.69 25.212 5.267 0 0 0
1773 502 3 1.6 5.69 25.212 8.367 0 0 0
6639 10230 2 0.4 46.242 24.655 49.7 0 0 0
6598 10230 1 -0.8 47.162 24.316 49.7 0 0 0
6600 10230 3 1.6 48.701 23.75 49.7 0 0 0
566 10224 2 0.4 46.382 22.046 5.267 0 0 0
568 10224 1 -0.8 47.249 21.59 5.267 0 0 0
571 10224 3 1.6 48.701 20.828 5.267 0 0 0
7683 509 3 1.6 5.69 25.212 54.867 0 0 0
7685 510 3 1.6 5.69 25.212 57.967 0 0 0
7787 8520 1 -0.8 52.496 33.251 58.483 0 0 0
702 512 3 1.6 5.69 31.059 1.133 0 0 0
704 513 3 1.6 5.69 31.059 4.233 0 0 0
1775 514 3 1.6 5.69 28.136 9.4 0 0 0
645 10223 2 0.4 46.242 24.655 0.1 0 0 0
567 10223 1 -0.8 47.162 24.316 0.1 0 0 0
840 8521 1 -0.8 51.23 36.906 0 0 0 1
7967 10222 2 0.4 41.986 45.106 57.967 0 0 0
7969 10222 1 -0.8 42.605 45.866 57.967 0 0 0
7973 10222 3 1.6 43.641 47.138 57.967 0 0 0
6843 10221 2 0.4 39.749 46.36 50.733 0 0 0
6845 10221 1 -0.8 40.258 47.198 50.733 0 0 0
6847 10221 3 1.6 41.11 48.599 50.733 0 0 0
5780 10220 2 0.4 41.986 45.106 45.567 0 0 0
5782 10220 1 -0.8 42.605 45.866 45.567 0 0 0
5785 10220 3 1.6 43.641 47.138 45.567 0 0 0
2821 10216 2 0.4 39.749 46.36 13.533 0 0 0
6668 528 3 1.6 5.69 31.059 50.733 0 0 0
6670 529 3 1.6 5.69 31.059 53.833 0 0 0
7687 530 3 1.6 5.69 28.136 59 0 0 0
706 531 3 1.6 5.69 33.982 5.267 0 0 0
1815 532 3 1.6 5.69 33.982 8.367 0 0 0
2822 10216 1 -0.8 40.258 47.198 13.533 0 0 0
2824 10216 3 1.6 41.11 48.599 13.533 0 0 0
1964 10215 2 0.4 41.986 45.106 8.367 0 0 0
1965 10215 1 -0.8 42.605 45.866 8.367 0 0 0
1967 10215 3 1.6 43.641 47.138 8.367 0 0 0
953 10214 2 0.4 39.749 46.36 1.133 0 0 0
7757 539 3 1.6 5.69 33.982 54.867 0 0 0
7759 540 3 1.6 5.69 33.982 57.967 0 0 0
841 8522 1 -0.8 51.23 38.368 0.617 0 0 0
795 542 3 1.6 5.69 39.829 1.133 0 0 0
797 543 3 1.6 5.69 39.829 4.233 0 0 0
1857 544 3 1.6 5.69 36.906 9.4 0 0 0
955 10214 1 -0.8 40.258 47.198 1.133 0 0 0
957 10214 3 1.6 41.11 48.599 1.133 0 0 0
7851 10213 2 0.4 44.084 41.166 57.967 0 0 0
7853 10213 1 -0.8 44.864 41.759 57.967 0 0 0
7856 10213 3 1.6 46.17 42.752 57.967 0 0 0
6751 10212 2 0.4 41.799 42.352 53.833 0 0 0
6851 10212 1 -0.8 42.488 43.049 53.833 0 0 0
6854 10212 3 1.6 43.641 44.215 53.833 0 0 0
1881 10206 2 0.4 44.084 41.166 8.367 0 0 0
1882 10206 1 -0.8 44.864 41.759 8.367 0 0 0
1884 10206 3 1.6 46.17 42.752 8.367 0 0 0
824 10205 2 0.4 41.799 42.352 4.233 0 0 0
6727 557 3 1.6 5.69 36.906 49.7 0 0 0
6729 558 3 1.6 5.69 39.829 50.733 0 0 0
6731 559 3 1.6 5.69 39.829 53.833 0 0 0
7821 560 3 1.6 5.69 36.906 59 0 0 0
799 561 3 1.6 5.69 42.752 5.267 0 0 0
1860 562 3 1.6 5.69 42.752 8.367 0 0 0
962 10205 1 -0.8 42.488 43.049 4.233 0 0 0
965 10205 3 1.6 43.641 44.215 4.233 0 0 0
1729 10201 2 0.4 44.023 20.868 9.4 0 0 0
1730 10201 1 -0.8 44.826 20.306 9.4 0 0 0
1731 10201 3 1.6 46.17 19.366 9.4 0 0 0
7539 10200 2 0.4 44.205 18.175 54.867 0 0 0
7823 569 3 1.6 5.69 42.752 54.867 0 0 0
7825 570 3 1.6 5.69 42.752 57.967 0 0 0
753 8523 1 -0.8 52.496 36.176 0.617 0 0 0
1931 572 3 1.6 5.69 45.676 9.4 0 0 0
2763 573 3 1.6 5.69 45.676 12.5 0 0 0
7542 10200 1 -0.8 44.94 17.527 54.867 0 0 0
7544 10200 3 1.6 46.17 16.442 54.867 0 0 0
7534 10196 2 0.4 41.927 16.962 59 0 0 0
7536 10196 1 -0.8 42.568 16.22 59 0 0 0
5741 578 3 1.6 5.69 45.676 46.6 0 0 0
6792 579 3 1.6 5.69 45.676 49.7 0 0 0
7919 580 3 1.6 5.69 45.676 59 0 0 0
888 581 3 1.6 5.69 48.599 1.133 0 0 0
890 582 3 1.6 5.69 48.599 4.233 0 0 0
1035 583 3 1.6 5.69 51.522 5.267 0 0 0
2004 584 3 1.6 5.69 51.522 8.367 0 0 0
2765 585 3 1.6 5.69 48.599 13.533 0 0 0
2767 586 3 1.6 5.69 48.599 16.633 0 0 0
2886 587 3 1.6 5.69 51.522 17.667 0 0 0
3497 588 3 1.6 5.69 51.522 20.767 0 0 0
7538 10196 3 1.6 43.641 14.98 59 0 0 0
6514 10195 2 0.4 39.693 15.723 53.833 0 0 0
4574 591 3 1.6 5.69 51.522 30.067 0 0 0
4576 592 3 1.6 5.69 51.522 33.167 0 0 0
6516 10195 1 -0.8 40.223 14.899 53.833 0 0 0
5094 594 3 1.6 5.69 48.599 41.433 0 0 0
5832 595 3 1.6 5.69 51.522 42.467 0 0 0
5834 596 3 1.6 5.69 51.522 45.567 0 0 0
6794 597 3 1.6 5.69 48.599 50.733 0 0 0
6796 598 3 1.6 5.69 48.599 53.833 0 0 0
8030 599 3 1.6 5.69 51.522 54.867 0 0 0
8032 600 3 1.6 5.69 51.522 57.967 0 0 0
839 8524 1 -0.8 49.967 40.56 0.617 0 0 0
2006 602 3 1.6 5.69 54.446 9.4 0 0 0
2887 603 3 1.6 5.69 54.446 12.5 0 0 0
3499 604 3 1.6 5.69 54.446 21.8 0 0 0
4060 605 3 1.6 5.69 54.446 24.9 0 0 0
4578 606 3 1.6 5.69 54.446 34.2 0 0 0
5122 607 3 1.6 5.69 54.446 37.3 0 0 0
5836 608 3 1.6 5.69 54.446 46.6 0 0 0
6902 609 3 1.6 5.69 54.446 49.7 0 0 0
8034 610 3 1.6 5.69 54.446 59 0 0 0
1214 611 3 1.6 5.69 57.369 1.133 0 0 0
1216 612 3 1.6 5.69 57.369 4.233 0 0 0
1218 613 3 1.6 5.69 60.292 5.267 0 0 0
2114 614 3 1.6 5.69 60.292 8.367 0 0 0
3065 615 3 1.6 5.69 57.369 13.533 0 0 0
3067 616 3 1.6 5.69 57.369 16.633 0 0 0
3069 617 3 1.6 5.69 60.292 17.667 0 0 0
3607 618 3 1.6 5.69 60.292 20.767 0 0 0
4195 619 3 1.6 5.69 57.369 25.933 0 0 0
4197 620 3 1.6 5.69 57.369 29.033 0 0 0
4686 621 3 1.6 5.69 60.292 30.067 0 0 0
4688 622 3 1.6 5.69 60.292 33.167 0 0 0
5237 623 3 1.6 5.69 57.369 38.333 0 0 0
5239 624 3 1.6 5.69 57.369 41.433 0 0 0
5983 625 3 1.6 5.69 60.292 42.467 0 0 0
5985 626 3 1.6 5.69 60.292 45.567 0 0 0
7040 627 3 1.6 5.69 57.369 50.733 0 0 0
7042 628 3 1.6 5.69 57.369 53.833 0 0 0
8181 629 3 1.6 5.69 60.292 54.867 0 0 0
8183 630 3 1.6 5.69 60.292 57.967 0 0 0
28 631 3 1.6 8.221 0.365 1.133 0 0 0
848 8525 1 -0.8 52.496 40.56 0.617 0 0 0
30 633 3 1.6 8.221 0.365 4.233 0 0 0
32 634 3 1.6 8.221 3.288 5.267 0 0 0
1393 635 3 1.6 8.221 3.288 8.367 0 0 0
1399 636 3 1.6 10.75 1.826 9.4 0 0 0
2261 637 3 1.6 8.221 0.365 13.533 0 0 0
2270 638 3 1.6 10.75 1.826 12.5 0 0 0
2263 639 3 1.6 8.221 0.365 16.633 0 0 0
2265 640 3 1.6 8.221 3.288 17.667 0 0 0
3244 641 3 1.6 8.221 3.288 20.767 0 0 0
3250 642 3 1.6 10.75 1.826 21.8 0 0 0
3753 643 3 1.6 8.221 0.365 25.933 0 0 0
3761 644 3 1.6 10.75 1.826 24.9 0 0 0
3755 645 3 1.6 8.221 0.365 29.033 0 0 0
4352 646 3 1.6 8.221 3.288 30.067 0 0 0
4354 647 3 1.6 8.221 3.288 33.167 0 0 0
4360 648 3 1.6 10.75 1.826 34.2 0 0 0
4849 649 3 1.6 8.221 0.365 38.333 0 0 0
4855 650 3 1.6 10.75 1.826 37.3 0 0 0
4851 651 3 1.6 8.221 0.365 41.433 0 0 0
5343 652 3 1.6 8.221 3.288 42.467 0 0 0
5345 653 3 1.6 8.221 3.288 45.567 0 0 0
5351 654 3 1.6 10.75 1.826 46.6 0 0 0
6192 655 3 1.6 8.221 0.365 50.733 0 0 0
6200 656 3 1.6 10.75 1.826 49.7 0 0 0
6194 657 3 1.6 8.221 0.365 53.833 0 0 0
7157 658 3 1.6 8.221 3.288 54.867 0 0 0
7159 659 3 1.6 8.221 3.288 57.967 0 0 0
7165 660 3 1.6 10.75 1.826 59 0 0 0
843 8526 1 -0.8 51.23 39.829 2.683 0 0 0
39 662 3 1.6 10.75 4.749 1.133 0 0 0
41 663 3 1.6 10.75 4.749 4.233 0 0 0
243 664 3 1.6 10.75 7.672 5.267 0 0 0
1395 665 3 1.6 8.221 6.21 9.4 0 0 0
1521 666 3 1.6 10.75 7.672 8.367 0 0 0
2266 667 3 1.6 8.221 6.21 12.5 0 0 0
2272 668 3 1.6 10.75 4.749 13.533 0 0 0
2274 669 3 1.6 10.75 4.749 16.633 0 0 0
2476 670 3 1.6 10.75 7.672 17.667 0 0 0
3246 671 3 1.6 8.221 6.21 21.8 0 0 0
3372 672 3 1.6 10.75 7.672 20.767 0 0 0
3757 673 3 1.6 8.221 6.21 24.9 0 0 0
3763 674 3 1.6 10.75 4.749 25.933 0 0 0
3765 675 3 1.6 10.75 4.749 29.033 0 0 0
4485 676 3 1.6 10.75 7.672 30.067 0 0 0
4356 677 3 1.6 8.221 6.21 34.2 0 0 0
4487 678 3 1.6 10.75 7.672 33.167 0 0 0
4852 679 3 1.6 8.221 6.21 37.3 0 0 0
4857 680 3 1.6 10.75 4.749 38.333 0 0 0
4859 681 3 1.6 10.75 4.749 41.433 0 0 0
5510 682 3 1.6 10.75 7.672 42.467 0 0 0
5347 683 3 1.6 8.221 6.21 46.6 0 0 0
5512 684 3 1.6 10.75 7.672 45.567 0 0 0
6196 685 3 1.6 8.221 6.21 49.7 0 0 0
6202 686 3 1.6 10.75 4.749 50.733 0 0 0
6204 687 3 1.6 10.75 4.749 53.833 0 0 0
7324 688 3 1.6 10.75 7.672 54.867 0 0 0
7161 689 3 1.6 8.221 6.21 59 0 0 0
7326 690 3 1.6 10.75 7.672 57.967 0 0 0
236 691 3 1.6 8.221 9.135 1.133 0 0 0
838 8527 1 -0.8 49.967 39.098 4.75 0 0 0
238 693 3 1.6 8.221 9.135 4.233 0 0 0
1523 694 3 1.6 10.75 10.596 9.4 0 0 0
2469 695 3 1.6 8.221 9.135 13.533 0 0 0
2477 696 3 1.6 10.75 10.596 12.5 0 0 0
2471 697 3 1.6 8.221 9.135 16.633 0 0 0
3374 698 3 1.6 10.75 10.596 21.8 0 0 0
3945 699 3 1.6 8.221 9.135 25.933 0 0 0
3951 700 3 1.6 10.75 10.596 24.9 0 0 0
3947 701 3 1.6 8.221 9.135 29.033 0 0 0
4489 702 3 1.6 10.75 10.596 34.2 0 0 0
4997 703 3 1.6 8.221 9.135 38.333 0 0 0
5001 704 3 1.6 10.75 10.596 37.3 0 0 0
4999 705 3 1.6 8.221 9.135 41.433 0 0 0
5514 706 3 1.6 10.75 10.596 46.6 0 0 0
6363 707 3 1.6 8.221 9.135 50.733 0 0 0
6368 708 3 1.6 10.75 10.596 49.7 0 0 0
6365 709 3 1.6 8.221 9.135 53.833 0 0 0
7328 710 3 1.6 10.75 10.596 59 0 0 0
1889 8528 1 -0.8 48.701 38.368 6.817 0 0 0
405 712 3 1.6 10.75 13.519 1.133 0 0 0
240 713 3 1.6 8.221 12.058 5.267 0 0 0
407 714 3 1.6 10.75 13.519 4.233 0 0 0
1639 715 3 1.6 8.221 14.98 9.4 0 0 0
1517 716 3 1.6 8.221 12.058 8.367 0 0 0
2623 717 3 1.6 8.221 14.98 12.5 0 0 0
2628 718 3 1.6 10.75 13.519 13.533 0 0 0
2473 719 3 1.6 8.221 12.058 17.667 0 0 0
2630 720 3 1.6 10.75 13.519 16.633 0 0 0
6519 10195 3 1.6 41.11 13.519 53.833 0 0 0
3368 722 3 1.6 8.221 12.058 20.767 0 0 0
5087 10194 3 1.6 41.11 13.519 41.433 0 0 0
2673 10189 2 0.4 41.927 16.962 12.5 0 0 0
2676 10189 1 -0.8 42.568 16.22 12.5 0 0 0
2677 10189 3 1.6 43.641 14.98 12.5 0 0 0
451 10188 2 0.4 39.693 15.723 4.233 0 0 0
454 10188 1 -0.8 40.223 14.899 4.233 0 0 0
457 10188 3 1.6 41.11 13.519 4.233 0 0 0
458 10187 2 0.4 41.927 16.962 0.1 0 0 0
5504 731 3 1.6 8.221 12.058 42.467 0 0 0
5084 732 3 1.6 10.75 13.519 41.433 0 0 0
5667 733 3 1.6 8.221 14.98 46.6 0 0 0
5506 734 3 1.6 8.221 12.058 45.567 0 0 0
6478 735 3 1.6 8.221 14.98 49.7 0 0 0
6484 736 3 1.6 10.75 13.519 50.733 0 0 0
7318 737 3 1.6 8.221 12.058 54.867 0 0 0
6486 738 3 1.6 10.75 13.519 53.833 0 0 0
7488 739 3 1.6 8.221 14.98 59 0 0 0
7320 740 3 1.6 8.221 12.058 57.967 0 0 0
399 741 3 1.6 8.221 17.905 1.133 0 0 0
845 8529 1 -0.8 51.23 41.29 4.75 0 0 0
409 743 3 1.6 10.75 16.442 5.267 0 0 0
401 744 3 1.6 8.221 17.905 4.233 0 0 0
1643 745 3 1.6 10.75 16.442 8.367 0 0 0
1720 746 3 1.6 10.75 19.366 9.4 0 0 0
2625 747 3 1.6 8.221 17.905 13.533 0 0 0
2719 748 3 1.6 10.75 19.366 12.5 0 0 0
461 10187 1 -0.8 42.568 16.22 0.1 0 0 0
847 8530 1 -0.8 52.496 39.098 4.75 0 0 0
7965 10186 2 0.4 37.541 47.656 59 0 0 0
7966 10186 1 -0.8 37.93 48.555 59 0 0 0
8111 10186 3 1.6 38.581 50.06 59 0 0 0
6844 10185 2 0.4 39.749 46.36 53.833 0 0 0
6846 10185 1 -0.8 40.258 47.198 53.833 0 0 0
6849 10185 3 1.6 41.11 48.599 53.833 0 0 0
6837 10184 2 0.4 35.235 46.109 50.733 0 0 0
6838 10184 1 -0.8 35.54 47.04 50.733 0 0 0
6840 10184 3 1.6 36.05 48.599 50.733 0 0 0
5778 10183 2 0.4 37.541 47.656 46.6 0 0 0
5779 10183 1 -0.8 37.93 48.555 46.6 0 0 0
5913 10183 3 1.6 38.581 50.06 46.6 0 0 0
5670 763 3 1.6 10.75 16.442 45.567 0 0 0
5105 10182 3 1.6 41.11 48.599 41.433 0 0 0
6480 765 3 1.6 8.221 17.905 50.733 0 0 0
6582 766 3 1.6 10.75 19.366 49.7 0 0 0
7493 767 3 1.6 10.75 16.442 54.867 0 0 0
6482 768 3 1.6 8.221 17.905 53.833 0 0 0
7495 769 3 1.6 10.75 16.442 57.967 0 0 0
7610 770 3 1.6 10.75 19.366 59 0 0 0
1891 8531 1 -0.8 48.701 39.829 8.883 0 0 0
540 772 3 1.6 8.221 20.828 5.267 0 0 0
549 773 3 1.6 10.75 22.289 4.233 0 0 0
1716 774 3 1.6 8.221 23.75 9.4 0 0 0
1714 775 3 1.6 8.221 20.828 8.367 0 0 0
3556 10179 3 1.6 38.581 50.06 21.8 0 0 0
2811 10178 2 0.4 35.235 46.109 13.533 0 0 0
2813 10178 1 -0.8 35.54 47.04 13.533 0 0 0
2815 10178 3 1.6 36.05 48.599 13.533 0 0 0
1962 10177 2 0.4 37.541 47.656 9.4 0 0 0
1963 10177 1 -0.8 37.93 48.555 9.4 0 0 0
2063 10177 3 1.6 38.581 50.06 9.4 0 0 0
954 10176 2 0.4 39.749 46.36 4.233 0 0 0
956 10176 1 -0.8 40.258 47.198 4.233 0 0 0
959 10176 3 1.6 41.11 48.599 4.233 0 0 0
944 10175 2 0.4 35.235 46.109 1.133 0 0 0
946 10175 1 -0.8 35.54 47.04 1.133 0 0 0
948 10175 3 1.6 36.05 48.599 1.133 0 0 0
7530 10174 2 0.4 37.495 14.442 57.967 0 0 0
7531 10174 1 -0.8 37.901 13.55 57.967 0 0 0
6578 791 3 1.6 8.221 23.75 49.7 0 0 0
7602 792 3 1.6 8.221 20.828 54.867 0 0 0
6586 793 3 1.6 10.75 22.289 53.833 0 0 0
7606 794 3 1.6 8.221 23.75 59 0 0 0
7604 795 3 1.6 8.221 20.828 57.967 0 0 0
628 796 3 1.6 8.221 26.675 1.133 0 0 0
630 797 3 1.6 8.221 26.675 4.233 0 0 0
7402 10174 3 1.6 38.581 12.058 57.967 0 0 0
6513 10173 2 0.4 39.693 15.723 50.733 0 0 0
6515 10173 1 -0.8 40.223 14.899 50.733 0 0 0
6517 10173 3 1.6 41.11 13.519 50.733 0 0 0
5695 10172 2 0.4 37.495 14.442 42.467 0 0 0
5696 10172 1 -0.8 37.901 13.55 42.467 0 0 0
6633 804 3 1.6 8.221 26.675 50.733 0 0 0
6635 805 3 1.6 8.221 26.675 53.833 0 0 0
632 806 3 1.6 8.221 29.598 5.267 0 0 0
1778 807 3 1.6 8.221 29.598 8.367 0 0 0
5588 10172 3 1.6 38.581 12.058 42.467 0 0 0
3432 10168 3 1.6 38.581 12.058 20.767 0 0 0
2663 10167 2 0.4 37.495 14.442 17.667 0 0 0
2664 10167 1 -0.8 37.901 13.55 17.667 0 0 0
2551 10167 3 1.6 38.581 12.058 17.667 0 0 0
2666 10166 2 0.4 39.693 15.723 13.533 0 0 0
7692 814 3 1.6 8.221 29.598 54.867 0 0 0
7694 815 3 1.6 8.221 29.598 57.967 0 0 0
1894 8532 1 -0.8 49.967 37.637 8.883 0 0 0
712 817 3 1.6 8.221 35.445 1.133 0 0 0
714 818 3 1.6 8.221 35.445 4.233 0 0 0
1819 819 3 1.6 8.221 32.52 9.4 0 0 0
2668 10166 1 -0.8 40.223 14.899 13.533 0 0 0
2670 10166 3 1.6 41.11 13.519 13.533 0 0 0
448 10165 2 0.4 37.495 14.442 5.267 0 0 0
449 10165 1 -0.8 37.901 13.55 5.267 0 0 0
318 10165 3 1.6 38.581 12.058 5.267 0 0 0
450 10164 2 0.4 39.693 15.723 1.133 0 0 0
453 10164 1 -0.8 40.223 14.899 1.133 0 0 0
455 10164 3 1.6 41.11 13.519 1.133 0 0 0
6512 10163 2 0.4 35.308 13.109 49.7 0 0 0
6417 10163 1 -0.8 35.585 12.169 49.7 0 0 0
6419 10163 3 1.6 36.05 10.596 49.7 0 0 0
2662 10162 2 0.4 35.308 13.109 12.5 0 0 0
2541 10162 1 -0.8 35.585 12.169 12.5 0 0 0
6673 833 3 1.6 8.221 35.445 50.733 0 0 0
6675 834 3 1.6 8.221 35.445 53.833 0 0 0
7764 835 3 1.6 8.221 32.52 59 0 0 0
810 836 3 1.6 10.75 39.829 1.133 0 0 0
803 837 3 1.6 8.221 38.368 5.267 0 0 0
1864 838 3 1.6 8.221 38.368 8.367 0 0 0
2543 10162 3 1.6 36.05 10.596 12.5 0 0 0
447 10161 2 0.4 35.308 13.109 0.1 0 0 0
308 10161 1 -0.8 35.585 12.169 0.1 0 0 0
1897 8533 1 -0.8 51.23 36.906 10.95 0 0 0
7961 10160 2 0.4 33.074 47.479 59 0 0 0
7962 10160 1 -0.8 33.241 48.444 59 0 0 0
8099 10160 3 1.6 33.521 50.06 59 0 0 0
3547 10158 3 1.6 33.521 50.06 21.8 0 0 0
1960 10157 2 0.4 33.074 47.479 9.4 0 0 0
6739 848 3 1.6 10.75 39.829 50.733 0 0 0
7830 849 3 1.6 8.221 38.368 54.867 0 0 0
7832 850 3 1.6 8.221 38.368 57.967 0 0 0
1900 8534 1 -0.8 52.496 37.637 8.883 0 0 0
814 852 3 1.6 10.75 42.752 5.267 0 0 0
1866 853 3 1.6 8.221 41.29 9.4 0 0 0
1873 854 3 1.6 10.75 42.752 8.367 0 0 0
2736 855 3 1.6 8.221 41.29 12.5 0 0 0
1961 10157 1 -0.8 33.241 48.444 9.4 0 0 0
2054 10157 3 1.6 33.521 50.06 9.4 0 0 0
7528 10156 2 0.4 35.308 13.109 59 0 0 0
7390 10156 1 -0.8 35.585 12.169 59 0 0 0
7395 10156 3 1.6 36.05 10.596 59 0 0 0
4529 10155 3 1.6 36.05 10.596 34.2 0 0 0
1665 10154 2 0.4 35.308 13.109 9.4 0 0 0
1570 10154 1 -0.8 35.585 12.169 9.4 0 0 0
1574 10154 3 1.6 36.05 10.596 9.4 0 0 0
6410 10153 2 0.4 33.114 11.723 53.833 0 0 0
6411 10153 1 -0.8 33.266 10.755 53.833 0 0 0
6734 867 3 1.6 8.221 41.29 49.7 0 0 0
7840 868 3 1.6 10.75 42.752 54.867 0 0 0
7834 869 3 1.6 8.221 41.29 59 0 0 0
7842 870 3 1.6 10.75 42.752 57.967 0 0 0
894 871 3 1.6 8.221 44.215 1.133 0 0 0
1795 8449 1 -0.8 52.496 28.867 8.883 0 0 0
896 873 3 1.6 8.221 44.215 4.233 0 0 0
898 874 3 1.6 8.221 47.138 5.267 0 0 0
1935 875 3 1.6 8.221 47.138 8.367 0 0 0
1939 876 3 1.6 10.75 45.676 9.4 0 0 0
2770 877 3 1.6 8.221 44.215 13.533 0 0 0
2775 878 3 1.6 10.75 45.676 12.5 0 0 0
6415 10153 3 1.6 33.521 9.135 53.833 0 0 0
2772 880 3 1.6 8.221 47.138 17.667 0 0 0
5036 10152 2 0.4 33.114 11.723 41.433 0 0 0
5037 10152 1 -0.8 33.266 10.755 41.433 0 0 0
5041 10152 3 1.6 33.521 9.135 41.433 0 0 0
3996 10151 3 1.6 33.521 9.135 29.033 0 0 0
2533 10150 2 0.4 33.114 11.723 16.633 0 0 0
2534 10150 1 -0.8 33.266 10.755 16.633 0 0 0
2538 10150 3 1.6 33.521 9.135 16.633 0 0 0
300 10149 2 0.4 33.114 11.723 4.233 0 0 0
301 10149 1 -0.8 33.266 10.755 4.233 0 0 0
305 10149 3 1.6 33.521 9.135 4.233 0 0 0
6834 10148 2 0.4 33.074 47.479 49.7 0 0 0
5744 892 3 1.6 8.221 47.138 42.467 0 0 0
5746 893 3 1.6 8.221 47.138 45.567 0 0 0
5751 894 3 1.6 10.75 45.676 46.6 0 0 0
6798 895 3 1.6 8.221 44.215 50.733 0 0 0
6803 896 3 1.6 10.75 45.676 49.7 0 0 0
6800 897 3 1.6 8.221 44.215 53.833 0 0 0
7924 898 3 1.6 8.221 47.138 54.867 0 0 0
7926 899 3 1.6 8.221 47.138 57.967 0 0 0
7932 900 3 1.6 10.75 45.676 59 0 0 0
6761 8574 1 -0.8 51.23 38.368 50.217 0 0 0
904 902 3 1.6 10.75 48.599 1.133 0 0 0
906 903 3 1.6 10.75 48.599 4.233 0 0 0
1050 904 3 1.6 10.75 51.522 5.267 0 0 0
2009 905 3 1.6 8.221 50.06 9.4 0 0 0
2013 906 3 1.6 10.75 51.522 8.367 0 0 0
2891 907 3 1.6 8.221 50.06 12.5 0 0 0
2777 908 3 1.6 10.75 48.599 13.533 0 0 0
2779 909 3 1.6 10.75 48.599 16.633 0 0 0
2901 910 3 1.6 10.75 51.522 17.667 0 0 0
3502 911 3 1.6 8.221 50.06 21.8 0 0 0
3506 912 3 1.6 10.75 51.522 20.767 0 0 0
4063 913 3 1.6 8.221 50.06 24.9 0 0 0
6835 10148 1 -0.8 33.241 48.444 49.7 0 0 0
6963 10148 3 1.6 33.521 50.06 49.7 0 0 0
4583 916 3 1.6 10.75 51.522 30.067 0 0 0
5171 10147 3 1.6 33.521 50.06 37.3 0 0 0
4585 918 3 1.6 10.75 51.522 33.167 0 0 0
5125 919 3 1.6 8.221 50.06 37.3 0 0 0
4619 10146 3 1.6 30.99 51.522 30.067 0 0 0
5096 921 3 1.6 10.75 48.599 41.433 0 0 0
5844 922 3 1.6 10.75 51.522 42.467 0 0 0
5839 923 3 1.6 8.221 50.06 46.6 0 0 0
5846 924 3 1.6 10.75 51.522 45.567 0 0 0
6906 925 3 1.6 8.221 50.06 49.7 0 0 0
6805 926 3 1.6 10.75 48.599 50.733 0 0 0
6807 927 3 1.6 10.75 48.599 53.833 0 0 0
8042 928 3 1.6 10.75 51.522 54.867 0 0 0
8037 929 3 1.6 8.221 50.06 59 0 0 0
8044 930 3 1.6 10.75 51.522 57.967 0 0 0
1042 931 3 1.6 8.221 52.985 1.133 0 0 0
661 8447 1 -0.8 52.496 30.328 4.75 0 0 0
1044 933 3 1.6 8.221 52.985 4.233 0 0 0
1222 934 3 1.6 8.221 55.908 5.267 0 0 0
2118 935 3 1.6 8.221 55.908 8.367 0 0 0
2015 936 3 1.6 10.75 54.446 9.4 0 0 0
2893 937 3 1.6 8.221 52.985 13.533 0 0 0
2902 938 3 1.6 10.75 54.446 12.5 0 0 0
2895 939 3 1.6 8.221 52.985 16.633 0 0 0
3073 940 3 1.6 8.221 55.908 17.667 0 0 0
3611 941 3 1.6 8.221 55.908 20.767 0 0 0
3508 942 3 1.6 10.75 54.446 21.8 0 0 0
4065 943 3 1.6 8.221 52.985 25.933 0 0 0
4071 944 3 1.6 10.75 54.446 24.9 0 0 0
4067 945 3 1.6 8.221 52.985 29.033 0 0 0
4691 946 3 1.6 8.221 55.908 30.067 0 0 0
4693 947 3 1.6 8.221 55.908 33.167 0 0 0
4587 948 3 1.6 10.75 54.446 34.2 0 0 0
5127 949 3 1.6 8.221 52.985 38.333 0 0 0
5132 950 3 1.6 10.75 54.446 37.3 0 0 0
5129 951 3 1.6 8.221 52.985 41.433 0 0 0
5990 952 3 1.6 8.221 55.908 42.467 0 0 0
5992 953 3 1.6 8.221 55.908 45.567 0 0 0
5848 954 3 1.6 10.75 54.446 46.6 0 0 0
6908 955 3 1.6 8.221 52.985 50.733 0 0 0
6914 956 3 1.6 10.75 54.446 49.7 0 0 0
6910 957 3 1.6 8.221 52.985 53.833 0 0 0
8188 958 3 1.6 8.221 55.908 54.867 0 0 0
8190 959 3 1.6 8.221 55.908 57.967 0 0 0
8046 960 3 1.6 10.75 54.446 59 0 0 0
749 8446 1 -0.8 51.23 32.52 4.75 0 0 0
1229 962 3 1.6 10.75 57.369 1.133 0 0 0
1231 963 3 1.6 10.75 57.369 4.233 0 0 0
1233 964 3 1.6 10.75 60.292 5.267 0 0 0
2120 965 3 1.6 8.221 58.83 9.4 0 0 0
2125 966 3 1.6 10.75 60.292 8.367 0 0 0
3074 967 3 1.6 8.221 58.83 12.5 0 0 0
3080 968 3 1.6 10.75 57.369 13.533 0 0 0
3082 969 3 1.6 10.75 57.369 16.633 0 0 0
3084 970 3 1.6 10.75 60.292 17.667 0 0 0
3613 971 3 1.6 8.221 58.83 21.8 0 0 0
3618 972 3 1.6 10.75 60.292 20.767 0 0 0
4202 973 3 1.6 8.221 58.83 24.9 0 0 0
4208 974 3 1.6 10.75 57.369 25.933 0 0 0
4210 975 3 1.6 10.75 57.369 29.033 0 0 0
4699 976 3 1.6 10.75 60.292 30.067 0 0 0
4695 977 3 1.6 8.221 58.83 34.2 0 0 0
4701 978 3 1.6 10.75 60.292 33.167 0 0 0
5241 979 3 1.6 8.221 58.83 37.3 0 0 0
5245 980 3 1.6 10.75 57.369 38.333 0 0 0
5247 981 3 1.6 10.75 57.369 41.433 0 0 0
6000 982 3 1.6 10.75 60.292 42.467 0 0 0
5994 983 3 1.6 8.221 58.83 46.6 0 0 0
6002 984 3 1.6 10.75 60.292 45.567 0 0 0
7045 985 3 1.6 8.221 58.83 49.7 0 0 0
7049 986 3 1.6 10.75 57.369 50.733 0 0 0
7051 987 3 1.6 10.75 57.369 53.833 0 0 0
8198 988 3 1.6 10.75 60.292 54.867 0 0 0
8192 989 3 1.6 8.221 58.83 59 0 0 0
8200 990 3 1.6 10.75 60.292 57.967 0 0 0
46 991 3 1.6 13.281 0.365 1.133 0 0 0
751 8445 1 -0.8 52.496 31.79 0.617 0 0 0
48 993 3 1.6 13.281 0.365 4.233 0 0 0
50 994 3 1.6 13.281 3.288 5.267 0 0 0
1403 995 3 1.6 13.281 3.288 8.367 0 0 0
1409 996 3 1.6 15.81 1.826 9.4 0 0 0
2279 997 3 1.6 13.281 0.365 13.533 0 0 0
2288 998 3 1.6 15.81 1.826 12.5 0 0 0
2281 999 3 1.6 13.281 0.365 16.633 0 0 0
2283 1000 3 1.6 13.281 3.288 17.667 0 0 0
3254 1001 3 1.6 13.281 3.288 20.767 0 0 0
3260 1002 3 1.6 15.81 1.826 21.8 0 0 0
3770 1003 3 1.6 13.281 0.365 25.933 0 0 0
3778 1004 3 1.6 15.81 1.826 24.9 0 0 0
3772 1005 3 1.6 13.281 0.365 29.033 0 0 0
4363 1006 3 1.6 13.281 3.288 30.067 0 0 0
4365 1007 3 1.6 13.281 3.288 33.167 0 0 0
4371 1008 3 1.6 15.81 1.826 34.2 0 0 0
4862 1009 3 1.6 13.281 0.365 38.333 0 0 0
4868 1010 3 1.6 15.81 1.826 37.3 0 0 0
4864 1011 3 1.6 13.281 0.365 41.433 0 0 0
5356 1012 3 1.6 13.281 3.288 42.467 0 0 0
5358 1013 3 1.6 13.281 3.288 45.567 0 0 0
5364 1014 3 1.6 15.81 1.826 46.6 0 0 0
6207 1015 3 1.6 13.281 0.365 50.733 0 0 0
6215 1016 3 1.6 15.81 1.826 49.7 0 0 0
6209 1017 3 1.6 13.281 0.365 53.833 0 0 0
7170 1018 3 1.6 13.281 3.288 54.867 0 0 0
7172 1019 3 1.6 13.281 3.288 57.967 0 0 0
7178 1020 3 1.6 15.81 1.826 59 0 0 0
747 8444 1 -0.8 51.23 31.059 2.683 0 0 0
57 1022 3 1.6 15.81 4.749 1.133 0 0 0
59 1023 3 1.6 15.81 4.749 4.233 0 0 0
256 1024 3 1.6 15.81 7.672 5.267 0 0 0
1405 1025 3 1.6 13.281 6.21 9.4 0 0 0
1532 1026 3 1.6 15.81 7.672 8.367 0 0 0
2284 1027 3 1.6 13.281 6.21 12.5 0 0 0
2290 1028 3 1.6 15.81 4.749 13.533 0 0 0
2292 1029 3 1.6 15.81 4.749 16.633 0 0 0
2489 1030 3 1.6 15.81 7.672 17.667 0 0 0
3256 1031 3 1.6 13.281 6.21 21.8 0 0 0
3383 1032 3 1.6 15.81 7.672 20.767 0 0 0
3774 1033 3 1.6 13.281 6.21 24.9 0 0 0
3780 1034 3 1.6 15.81 4.749 25.933 0 0 0
3782 1035 3 1.6 15.81 4.749 29.033 0 0 0
4493 1036 3 1.6 15.81 7.672 30.067 0 0 0
4367 1037 3 1.6 13.281 6.21 34.2 0 0 0
4495 1038 3 1.6 15.81 7.672 33.167 0 0 0
4865 1039 3 1.6 13.281 6.21 37.3 0 0 0
4870 1040 3 1.6 15.81 4.749 38.333 0 0 0
4872 1041 3 1.6 15.81 4.749 41.433 0 0 0
5525 1042 3 1.6 15.81 7.672 42.467 0 0 0
5360 1043 3 1.6 13.281 6.21 46.6 0 0 0
5527 1044 3 1.6 15.81 7.672 45.567 0 0 0
6211 1045 3 1.6 13.281 6.21 49.7 0 0 0
6217 1046 3 1.6 15.81 4.749 50.733 0 0 0
6219 1047 3 1.6 15.81 4.749 53.833 0 0 0
7339 1048 3 1.6 15.81 7.672 54.867 0 0 0
7174 1049 3 1.6 13.281 6.21 59 0 0 0
7341 1050 3 1.6 15.81 7.672 57.967 0 0 0
249 1051 3 1.6 13.281 9.135 1.133 0 0 0
660 8443 1 -0.8 52.496 27.406 0.617 0 0 0
251 1053 3 1.6 13.281 9.135 4.233 0 0 0
1534 1054 3 1.6 15.81 10.596 9.4 0 0 0
2482 1055 3 1.6 13.281 9.135 13.533 0 0 0
2490 1056 3 1.6 15.81 10.596 12.5 0 0 0
2484 1057 3 1.6 13.281 9.135 16.633 0 0 0
3385 1058 3 1.6 15.81 10.596 21.8 0 0 0
3955 1059 3 1.6 13.281 9.135 25.933 0 0 0
3961 1060 3 1.6 15.81 10.596 24.9 0 0 0
3957 1061 3 1.6 13.281 9.135 29.033 0 0 0
4497 1062 3 1.6 15.81 10.596 34.2 0 0 0
5005 1063 3 1.6 13.281 9.135 38.333 0 0 0
5009 1064 3 1.6 15.81 10.596 37.3 0 0 0
5007 1065 3 1.6 13.281 9.135 41.433 0 0 0
5529 1066 3 1.6 15.81 10.596 46.6 0 0 0
6372 1067 3 1.6 13.281 9.135 50.733 0 0 0
6377 1068 3 1.6 15.81 10.596 49.7 0 0 0
6374 1069 3 1.6 13.281 9.135 53.833 0 0 0
7343 1070 3 1.6 15.81 10.596 59 0 0 0
658 8442 1 -0.8 51.23 29.598 0.617 0 0 0
421 1072 3 1.6 15.81 13.519 1.133 0 0 0
253 1073 3 1.6 13.281 12.058 5.267 0 0 0
423 1074 3 1.6 15.81 13.519 4.233 0 0 0
1647 1075 3 1.6 13.281 14.98 9.4 0 0 0
1528 1076 3 1.6 13.281 12.058 8.367 0 0 0
2634 1077 3 1.6 13.281 14.98 12.5 0 0 0
2639 1078 3 1.6 15.81 13.519 13.533 0 0 0
2486 1079 3 1.6 13.281 12.058 17.667 0 0 0
2641 1080 3 1.6 15.81 13.519 16.633 0 0 0
2959 10145 2 0.4 30.885 48.904 17.667 0 0 0
3379 1082 3 1.6 13.281 12.058 20.767 0 0 0
2960 10145 1 -0.8 30.924 49.883 17.667 0 0 0
2961 10145 3 1.6 30.99 51.522 17.667 0 0 0
2809 10144 2 0.4 33.074 47.479 12.5 0 0 0
2810 10144 1 -0.8 33.241 48.444 12.5 0 0 0
2965 10144 3 1.6 33.521 50.06 12.5 0 0 0
1108 10143 2 0.4 30.885 48.904 5.267 0 0 0
1109 10143 1 -0.8 30.924 49.883 5.267 0 0 0
1110 10143 3 1.6 30.99 51.522 5.267 0 0 0
5519 1091 3 1.6 13.281 12.058 42.467 0 0 0
5085 1092 3 1.6 15.81 13.519 41.433 0 0 0
5675 1093 3 1.6 13.281 14.98 46.6 0 0 0
5521 1094 3 1.6 13.281 12.058 45.567 0 0 0
6489 1095 3 1.6 13.281 14.98 49.7 0 0 0
6495 1096 3 1.6 15.81 13.519 50.733 0 0 0
7333 1097 3 1.6 13.281 12.058 54.867 0 0 0
6497 1098 3 1.6 15.81 13.519 53.833 0 0 0
7501 1099 3 1.6 13.281 14.98 59 0 0 0
7335 1100 3 1.6 13.281 12.058 57.967 0 0 0
417 1101 3 1.6 13.281 17.905 4.233 0 0 0
942 10142 2 0.4 33.074 47.479 0.1 0 0 0
943 10142 1 -0.8 33.241 48.444 0.1 0 0 0
657 8441 1 -0.8 51.23 28.136 0 0 0 1
6493 1105 3 1.6 13.281 17.905 53.833 0 0 0
910 1106 3 1.6 13.281 44.215 1.133 0 0 0
914 1107 3 1.6 13.281 47.138 5.267 0 0 0
1943 1108 3 1.6 13.281 47.138 8.367 0 0 0
2782 1109 3 1.6 13.281 44.215 13.533 0 0 0
2784 1110 3 1.6 13.281 47.138 17.667 0 0 0
1959 10140 2 0.4 28.687 47.45 9.4 0 0 0
1958 10140 1 -0.8 28.603 48.427 9.4 0 0 0
2045 10140 3 1.6 28.461 50.06 9.4 0 0 0
6403 10139 2 0.4 28.667 11.747 53.833 0 0 0
6402 10139 1 -0.8 28.59 10.77 53.833 0 0 0
5754 1116 3 1.6 13.281 47.138 42.467 0 0 0
5756 1117 3 1.6 13.281 47.138 45.567 0 0 0
6809 1118 3 1.6 13.281 44.215 50.733 0 0 0
7937 1119 3 1.6 13.281 47.138 54.867 0 0 0
7939 1120 3 1.6 13.281 47.138 57.967 0 0 0
7644 8440 1 -0.8 52.496 24.481 58.483 0 0 0
920 1122 3 1.6 15.81 48.599 1.133 0 0 0
922 1123 3 1.6 15.81 48.599 4.233 0 0 0
1065 1124 3 1.6 15.81 51.522 5.267 0 0 0
2018 1125 3 1.6 13.281 50.06 9.4 0 0 0
2022 1126 3 1.6 15.81 51.522 8.367 0 0 0
2906 1127 3 1.6 13.281 50.06 12.5 0 0 0
2789 1128 3 1.6 15.81 48.599 13.533 0 0 0
2791 1129 3 1.6 15.81 48.599 16.633 0 0 0
2916 1130 3 1.6 15.81 51.522 17.667 0 0 0
3511 1131 3 1.6 13.281 50.06 21.8 0 0 0
3515 1132 3 1.6 15.81 51.522 20.767 0 0 0
4074 1133 3 1.6 13.281 50.06 24.9 0 0 0
6401 10139 3 1.6 28.461 9.135 53.833 0 0 0
5034 10138 3 1.6 30.99 10.596 37.3 0 0 0
4592 1136 3 1.6 15.81 51.522 30.067 0 0 0
3987 10137 3 1.6 28.461 9.135 29.033 0 0 0
4594 1138 3 1.6 15.81 51.522 33.167 0 0 0
5135 1139 3 1.6 13.281 50.06 37.3 0 0 0
3990 10136 3 1.6 30.99 10.596 24.9 0 0 0
5098 1141 3 1.6 15.81 48.599 41.433 0 0 0
5856 1142 3 1.6 15.81 51.522 42.467 0 0 0
5851 1143 3 1.6 13.281 50.06 46.6 0 0 0
5858 1144 3 1.6 15.81 51.522 45.567 0 0 0
6918 1145 3 1.6 13.281 50.06 49.7 0 0 0
6817 1146 3 1.6 15.81 48.599 50.733 0 0 0
6819 1147 3 1.6 15.81 48.599 53.833 0 0 0
8054 1148 3 1.6 15.81 51.522 54.867 0 0 0
8049 1149 3 1.6 13.281 50.06 59 0 0 0
8056 1150 3 1.6 15.81 51.522 57.967 0 0 0
1057 1151 3 1.6 13.281 52.985 1.133 0 0 0
7718 8439 1 -0.8 51.23 26.675 58.483 0 0 0
1059 1153 3 1.6 13.281 52.985 4.233 0 0 0
1237 1154 3 1.6 13.281 55.908 5.267 0 0 0
2129 1155 3 1.6 13.281 55.908 8.367 0 0 0
2024 1156 3 1.6 15.81 54.446 9.4 0 0 0
2908 1157 3 1.6 13.281 52.985 13.533 0 0 0
2917 1158 3 1.6 15.81 54.446 12.5 0 0 0
2910 1159 3 1.6 13.281 52.985 16.633 0 0 0
3088 1160 3 1.6 13.281 55.908 17.667 0 0 0
3622 1161 3 1.6 13.281 55.908 20.767 0 0 0
3517 1162 3 1.6 15.81 54.446 21.8 0 0 0
4076 1163 3 1.6 13.281 52.985 25.933 0 0 0
4082 1164 3 1.6 15.81 54.446 24.9 0 0 0
4078 1165 3 1.6 13.281 52.985 29.033 0 0 0
4704 1166 3 1.6 13.281 55.908 30.067 0 0 0
4706 1167 3 1.6 13.281 55.908 33.167 0 0 0
4596 1168 3 1.6 15.81 54.446 34.2 0 0 0
5137 1169 3 1.6 13.281 52.985 38.333 0 0 0
5142 1170 3 1.6 15.81 54.446 37.3 0 0 0
5139 1171 3 1.6 13.281 52.985 41.433 0 0 0
6007 1172 3 1.6 13.281 55.908 42.467 0 0 0
6009 1173 3 1.6 13.281 55.908 45.567 0 0 0
5860 1174 3 1.6 15.81 54.446 46.6 0 0 0
6920 1175 3 1.6 13.281 52.985 50.733 0 0 0
6926 1176 3 1.6 15.81 54.446 49.7 0 0 0
6922 1177 3 1.6 13.281 52.985 53.833 0 0 0
8205 1178 3 1.6 13.281 55.908 54.867 0 0 0
8207 1179 3 1.6 13.281 55.908 57.967 0 0 0
8058 1180 3 1.6 15.81 54.446 59 0 0 0
7716 8438 1 -0.8 51.23 25.212 56.417 0 0 0
1244 1182 3 1.6 15.81 57.369 1.133 0 0 0
1246 1183 3 1.6 15.81 57.369 4.233 0 0 0
1248 1184 3 1.6 15.81 60.292 5.267 0 0 0
2131 1185 3 1.6 13.281 58.83 9.4 0 0 0
2136 1186 3 1.6 15.81 60.292 8.367 0 0 0
3089 1187 3 1.6 13.281 58.83 12.5 0 0 0
3095 1188 3 1.6 15.81 57.369 13.533 0 0 0
3097 1189 3 1.6 15.81 57.369 16.633 0 0 0
3099 1190 3 1.6 15.81 60.292 17.667 0 0 0
3624 1191 3 1.6 13.281 58.83 21.8 0 0 0
3629 1192 3 1.6 15.81 60.292 20.767 0 0 0
4215 1193 3 1.6 13.281 58.83 24.9 0 0 0
4221 1194 3 1.6 15.81 57.369 25.933 0 0 0
4223 1195 3 1.6 15.81 57.369 29.033 0 0 0
4712 1196 3 1.6 15.81 60.292 30.067 0 0 0
4708 1197 3 1.6 13.281 58.83 34.2 0 0 0
4714 1198 3 1.6 15.81 60.292 33.167 0 0 0
5249 1199 3 1.6 13.281 58.83 37.3 0 0 0
5253 1200 3 1.6 15.81 57.369 38.333 0 0 0
5255 1201 3 1.6 15.81 57.369 41.433 0 0 0
6017 1202 3 1.6 15.81 60.292 42.467 0 0 0
6011 1203 3 1.6 13.281 58.83 46.6 0 0 0
6019 1204 3 1.6 15.81 60.292 45.567 0 0 0
7054 1205 3 1.6 13.281 58.83 49.7 0 0 0
7058 1206 3 1.6 15.81 57.369 50.733 0 0 0
7060 1207 3 1.6 15.81 57.369 53.833 0 0 0
8215 1208 3 1.6 15.81 60.292 54.867 0 0 0
8209 1209 3 1.6 13.281 58.83 59 0 0 0
8217 1210 3 1.6 15.81 60.292 57.967 0 0 0
64 1211 3 1.6 18.341 0.365 1.133 0 0 0
66 1212 3 1.6 18.341 0.365 4.233 0 0 0
68 1213 3 1.6 18.341 3.288 5.267 0 0 0
1413 1214 3 1.6 18.341 3.288 8.367 0 0 0
2297 1215 3 1.6 18.341 0.365 13.533 0 0 0
2299 1216 3 1.6 18.341 0.365 16.633 0 0 0
2301 1217 3 1.6 18.341 3.288 17.667 0 0 0
3264 1218 3 1.6 18.341 3.288 20.767 0 0 0
3787 1219 3 1.6 18.341 0.365 25.933 0 0 0
3789 1220 3 1.6 18.341 0.365 29.033 0 0 0
4374 1221 3 1.6 18.341 3.288 30.067 0 0 0
4376 1222 3 1.6 18.341 3.288 33.167 0 0 0
4875 1223 3 1.6 18.341 0.365 38.333 0 0 0
4877 1224 3 1.6 18.341 0.365 41.433 0 0 0
5369 1225 3 1.6 18.341 3.288 42.467 0 0 0
5371 1226 3 1.6 18.341 3.288 45.567 0 0 0
6222 1227 3 1.6 18.341 0.365 50.733 0 0 0
6224 1228 3 1.6 18.341 0.365 53.833 0 0 0
7183 1229 3 1.6 18.341 3.288 54.867 0 0 0
7185 1230 3 1.6 18.341 3.288 57.967 0 0 0
7720 8437 1 -0.8 52.496 25.942 54.35 0 0 0
1415 1232 3 1.6 18.341 6.21 9.4 0 0 0
2302 1233 3 1.6 18.341 6.21 12.5 0 0 0
3266 1234 3 1.6 18.341 6.21 21.8 0 0 0
3791 1235 3 1.6 18.341 6.21 24.9 0 0 0
4378 1236 3 1.6 18.341 6.21 34.2 0 0 0
4878 1237 3 1.6 18.341 6.21 37.3 0 0 0
5373 1238 3 1.6 18.341 6.21 46.6 0 0 0
6226 1239 3 1.6 18.341 6.21 49.7 0 0 0
7187 1240 3 1.6 18.341 6.21 59 0 0 0
262 1241 3 1.6 18.341 9.135 1.133 0 0 0
264 1242 3 1.6 18.341 9.135 4.233 0 0 0
2495 1243 3 1.6 18.341 9.135 13.533 0 0 0
2497 1244 3 1.6 18.341 9.135 16.633 0 0 0
3965 1245 3 1.6 18.341 9.135 25.933 0 0 0
3967 1246 3 1.6 18.341 9.135 29.033 0 0 0
5013 1247 3 1.6 18.341 9.135 38.333 0 0 0
5015 1248 3 1.6 18.341 9.135 41.433 0 0 0
6381 1249 3 1.6 18.341 9.135 50.733 0 0 0
6383 1250 3 1.6 18.341 9.135 53.833 0 0 0
266 1251 3 1.6 18.341 12.058 5.267 0 0 0
1539 1252 3 1.6 18.341 12.058 8.367 0 0 0
2499 1253 3 1.6 18.341 12.058 17.667 0 0 0
3390 1254 3 1.6 18.341 12.058 20.767 0 0 0
2525 10135 2 0.4 28.667 11.747 16.633 0 0 0
2524 10135 1 -0.8 28.59 10.77 16.633 0 0 0
5534 1257 3 1.6 18.341 12.058 42.467 0 0 0
5536 1258 3 1.6 18.341 12.058 45.567 0 0 0
7348 1259 3 1.6 18.341 12.058 54.867 0 0 0
7350 1260 3 1.6 18.341 12.058 57.967 0 0 0
7714 8436 1 -0.8 49.967 25.942 54.35 0 0 0
2027 1262 3 1.6 18.341 50.06 9.4 0 0 0
2921 1263 3 1.6 18.341 50.06 12.5 0 0 0
3520 1264 3 1.6 18.341 50.06 21.8 0 0 0
4085 1265 3 1.6 18.341 50.06 24.9 0 0 0
2523 10135 3 1.6 28.461 9.135 16.633 0 0 0
5145 1267 3 1.6 18.341 50.06 37.3 0 0 0
5863 1268 3 1.6 18.341 50.06 46.6 0 0 0
6930 1269 3 1.6 18.341 50.06 49.7 0 0 0
8061 1270 3 1.6 18.341 50.06 59 0 0 0
1072 1271 3 1.6 18.341 52.985 1.133 0 0 0
1074 1272 3 1.6 18.341 52.985 4.233 0 0 0
1252 1273 3 1.6 18.341 55.908 5.267 0 0 0
2140 1274 3 1.6 18.341 55.908 8.367 0 0 0
2923 1275 3 1.6 18.341 52.985 13.533 0 0 0
2925 1276 3 1.6 18.341 52.985 16.633 0 0 0
3103 1277 3 1.6 18.341 55.908 17.667 0 0 0
3633 1278 3 1.6 18.341 55.908 20.767 0 0 0
4087 1279 3 1.6 18.341 52.985 25.933 0 0 0
4089 1280 3 1.6 18.341 52.985 29.033 0 0 0
4717 1281 3 1.6 18.341 55.908 30.067 0 0 0
4719 1282 3 1.6 18.341 55.908 33.167 0 0 0
5147 1283 3 1.6 18.341 52.985 38.333 0 0 0
5149 1284 3 1.6 18.341 52.985 41.433 0 0 0
6024 1285 3 1.6 18.341 55.908 42.467 0 0 0
6026 1286 3 1.6 18.341 55.908 45.567 0 0 0
6932 1287 3 1.6 18.341 52.985 50.733 0 0 0
6934 1288 3 1.6 18.341 52.985 53.833 0 0 0
8222 1289 3 1.6 18.341 55.908 54.867 0 0 0
8224 1290 3 1.6 18.341 55.908 57.967 0 0 0
6644 8435 1 -0.8 48.701 26.675 52.283 0 0 0
2142 1292 3 1.6 18.341 58.83 9.4 0 0 0
3104 1293 3 1.6 18.341 58.83 12.5 0 0 0
3635 1294 3 1.6 18.341 58.83 21.8 0 0 0
4228 1295 3 1.6 18.341 58.83 24.9 0 0 0
4721 1296 3 1.6 18.341 58.83 34.2 0 0 0
5257 1297 3 1.6 18.341 58.83 37.3 0 0 0
6028 1298 3 1.6 18.341 58.83 46.6 0 0 0
7063 1299 3 1.6 18.341 58.83 49.7 0 0 0
8226 1300 3 1.6 18.341 58.83 59 0 0 0
82 1301 3 1.6 23.401 0.365 1.133 0 0 0
6646 8434 1 -0.8 49.967 27.406 50.217 0 0 0
84 1303 3 1.6 23.401 0.365 4.233 0 0 0
86 1304 3 1.6 23.401 3.288 5.267 0 0 0
1423 1305 3 1.6 23.401 3.288 8.367 0 0 0
1419 1306 3 1.6 20.87 1.826 9.4 0 0 0
2315 1307 3 1.6 23.401 0.365 13.533 0 0 0
2306 1308 3 1.6 20.87 1.826 12.5 0 0 0
2317 1309 3 1.6 23.401 0.365 16.633 0 0 0
2319 1310 3 1.6 23.401 3.288 17.667 0 0 0
3274 1311 3 1.6 23.401 3.288 20.767 0 0 0
3270 1312 3 1.6 20.87 1.826 21.8 0 0 0
3804 1313 3 1.6 23.401 0.365 25.933 0 0 0
3795 1314 3 1.6 20.87 1.826 24.9 0 0 0
3806 1315 3 1.6 23.401 0.365 29.033 0 0 0
4385 1316 3 1.6 23.401 3.288 30.067 0 0 0
4387 1317 3 1.6 23.401 3.288 33.167 0 0 0
4382 1318 3 1.6 20.87 1.826 34.2 0 0 0
4888 1319 3 1.6 23.401 0.365 38.333 0 0 0
4881 1320 3 1.6 20.87 1.826 37.3 0 0 0
4890 1321 3 1.6 23.401 0.365 41.433 0 0 0
5382 1322 3 1.6 23.401 3.288 42.467 0 0 0
5384 1323 3 1.6 23.401 3.288 45.567 0 0 0
5377 1324 3 1.6 20.87 1.826 46.6 0 0 0
6237 1325 3 1.6 23.401 0.365 50.733 0 0 0
6230 1326 3 1.6 20.87 1.826 49.7 0 0 0
6239 1327 3 1.6 23.401 0.365 53.833 0 0 0
7196 1328 3 1.6 23.401 3.288 54.867 0 0 0
7198 1329 3 1.6 23.401 3.288 57.967 0 0 0
7191 1330 3 1.6 20.87 1.826 59 0 0 0
6702 8575 1 -0.8 52.496 36.176 50.217 0 0 0
75 1332 3 1.6 20.87 4.749 1.133 0 0 0
77 1333 3 1.6 20.87 4.749 4.233 0 0 0
269 1334 3 1.6 20.87 7.672 5.267 0 0 0
1425 1335 3 1.6 23.401 6.21 9.4 0 0 0
1543 1336 3 1.6 20.87 7.672 8.367 0 0 0
2320 1337 3 1.6 23.401 6.21 12.5 0 0 0
2308 1338 3 1.6 20.87 4.749 13.533 0 0 0
2310 1339 3 1.6 20.87 4.749 16.633 0 0 0
2502 1340 3 1.6 20.87 7.672 17.667 0 0 0
3276 1341 3 1.6 23.401 6.21 21.8 0 0 0
3394 1342 3 1.6 20.87 7.672 20.767 0 0 0
3808 1343 3 1.6 23.401 6.21 24.9 0 0 0
3797 1344 3 1.6 20.87 4.749 25.933 0 0 0
3799 1345 3 1.6 20.87 4.749 29.033 0 0 0
4501 1346 3 1.6 20.87 7.672 30.067 0 0 0
4389 1347 3 1.6 23.401 6.21 34.2 0 0 0
4503 1348 3 1.6 20.87 7.672 33.167 0 0 0
4891 1349 3 1.6 23.401 6.21 37.3 0 0 0
4883 1350 3 1.6 20.87 4.749 38.333 0 0 0
4885 1351 3 1.6 20.87 4.749 41.433 0 0 0
5540 1352 3 1.6 20.87 7.672 42.467 0 0 0
5386 1353 3 1.6 23.401 6.21 46.6 0 0 0
5542 1354 3 1.6 20.87 7.672 45.567 0 0 0
6241 1355 3 1.6 23.401 6.21 49.7 0 0 0
6232 1356 3 1.6 20.87 4.749 50.733 0 0 0
6234 1357 3 1.6 20.87 4.749 53.833 0 0 0
7354 1358 3 1.6 20.87 7.672 54.867 0 0 0
7200 1359 3 1.6 23.401 6.21 59 0 0 0
7356 1360 3 1.6 20.87 7.672 57.967 0 0 0
275 1361 3 1.6 23.401 9.135 1.133 0 0 0
6759 8576 1 -0.8 49.967 40.56 50.217 0 0 0
277 1363 3 1.6 23.401 9.135 4.233 0 0 0
1545 1364 3 1.6 20.87 10.596 9.4 0 0 0
2508 1365 3 1.6 23.401 9.135 13.533 0 0 0
2503 1366 3 1.6 20.87 10.596 12.5 0 0 0
2510 1367 3 1.6 23.401 9.135 16.633 0 0 0
3396 1368 3 1.6 20.87 10.596 21.8 0 0 0
3975 1369 3 1.6 23.401 9.135 25.933 0 0 0
3971 1370 3 1.6 20.87 10.596 24.9 0 0 0
3977 1371 3 1.6 23.401 9.135 29.033 0 0 0
4505 1372 3 1.6 20.87 10.596 34.2 0 0 0
5021 1373 3 1.6 23.401 9.135 38.333 0 0 0
5017 1374 3 1.6 20.87 10.596 37.3 0 0 0
5023 1375 3 1.6 23.401 9.135 41.433 0 0 0
5544 1376 3 1.6 20.87 10.596 46.6 0 0 0
6390 1377 3 1.6 23.401 9.135 50.733 0 0 0
6386 1378 3 1.6 20.87 10.596 49.7 0 0 0
6392 1379 3 1.6 23.401 9.135 53.833 0 0 0
7358 1380 3 1.6 20.87 10.596 59 0 0 0
1080 1381 3 1.6 20.87 51.522 5.267 0 0 0
2031 1382 3 1.6 20.87 51.522 8.367 0 0 0
2931 1383 3 1.6 20.87 51.522 17.667 0 0 0
3524 1384 3 1.6 20.87 51.522 20.767 0 0 0
4601 1385 3 1.6 20.87 51.522 30.067 0 0 0
4603 1386 3 1.6 20.87 51.522 33.167 0 0 0
5868 1387 3 1.6 20.87 51.522 42.467 0 0 0
5870 1388 3 1.6 20.87 51.522 45.567 0 0 0
8066 1389 3 1.6 20.87 51.522 54.867 0 0 0
8068 1390 3 1.6 20.87 51.522 57.967 0 0 0
1087 1391 3 1.6 23.401 52.985 1.133 0 0 0
6765 8577 1 -0.8 52.496 40.56 50.217 0 0 0
1089 1393 3 1.6 23.401 52.985 4.233 0 0 0
1267 1394 3 1.6 23.401 55.908 5.267 0 0 0
2151 1395 3 1.6 23.401 55.908 8.367 0 0 0
2033 1396 3 1.6 20.87 54.446 9.4 0 0 0
2938 1397 3 1.6 23.401 52.985 13.533 0 0 0
2932 1398 3 1.6 20.87 54.446 12.5 0 0 0
2940 1399 3 1.6 23.401 52.985 16.633 0 0 0
3118 1400 3 1.6 23.401 55.908 17.667 0 0 0
3644 1401 3 1.6 23.401 55.908 20.767 0 0 0
3526 1402 3 1.6 20.87 54.446 21.8 0 0 0
4098 1403 3 1.6 23.401 52.985 25.933 0 0 0
4093 1404 3 1.6 20.87 54.446 24.9 0 0 0
4100 1405 3 1.6 23.401 52.985 29.033 0 0 0
4730 1406 3 1.6 23.401 55.908 30.067 0 0 0
4732 1407 3 1.6 23.401 55.908 33.167 0 0 0
4605 1408 3 1.6 20.87 54.446 34.2 0 0 0
5157 1409 3 1.6 23.401 52.985 38.333 0 0 0
5152 1410 3 1.6 20.87 54.446 37.3 0 0 0
5159 1411 3 1.6 23.401 52.985 41.433 0 0 0
6041 1412 3 1.6 23.401 55.908 42.467 0 0 0
6043 1413 3 1.6 23.401 55.908 45.567 0 0 0
5872 1414 3 1.6 20.87 54.446 46.6 0 0 0
6944 1415 3 1.6 23.401 52.985 50.733 0 0 0
6938 1416 3 1.6 20.87 54.446 49.7 0 0 0
6946 1417 3 1.6 23.401 52.985 53.833 0 0 0
8239 1418 3 1.6 23.401 55.908 54.867 0 0 0
8241 1419 3 1.6 23.401 55.908 57.967 0 0 0
8070 1420 3 1.6 20.87 54.446 59 0 0 0
6763 8578 1 -0.8 51.23 39.829 52.283 0 0 0
1259 1422 3 1.6 20.87 57.369 1.133 0 0 0
1261 1423 3 1.6 20.87 57.369 4.233 0 0 0
1263 1424 3 1.6 20.87 60.292 5.267 0 0 0
2153 1425 3 1.6 23.401 58.83 9.4 0 0 0
2147 1426 3 1.6 20.87 60.292 8.367 0 0 0
3119 1427 3 1.6 23.401 58.83 12.5 0 0 0
3110 1428 3 1.6 20.87 57.369 13.533 0 0 0
3112 1429 3 1.6 20.87 57.369 16.633 0 0 0
3114 1430 3 1.6 20.87 60.292 17.667 0 0 0
3646 1431 3 1.6 23.401 58.83 21.8 0 0 0
3640 1432 3 1.6 20.87 60.292 20.767 0 0 0
4241 1433 3 1.6 23.401 58.83 24.9 0 0 0
4234 1434 3 1.6 20.87 57.369 25.933 0 0 0
4236 1435 3 1.6 20.87 57.369 29.033 0 0 0
4725 1436 3 1.6 20.87 60.292 30.067 0 0 0
4734 1437 3 1.6 23.401 58.83 34.2 0 0 0
4727 1438 3 1.6 20.87 60.292 33.167 0 0 0
5265 1439 3 1.6 23.401 58.83 37.3 0 0 0
5261 1440 3 1.6 20.87 57.369 38.333 0 0 0
5263 1441 3 1.6 20.87 57.369 41.433 0 0 0
6034 1442 3 1.6 20.87 60.292 42.467 0 0 0
6045 1443 3 1.6 23.401 58.83 46.6 0 0 0
6036 1444 3 1.6 20.87 60.292 45.567 0 0 0
7072 1445 3 1.6 23.401 58.83 49.7 0 0 0
7067 1446 3 1.6 20.87 57.369 50.733 0 0 0
7069 1447 3 1.6 20.87 57.369 53.833 0 0 0
8232 1448 3 1.6 20.87 60.292 54.867 0 0 0
8243 1449 3 1.6 23.401 58.83 59 0 0 0
8234 1450 3 1.6 20.87 60.292 57.967 0 0 0
7869 8579 1 -0.8 49.967 39.098 54.35 0 0 0
1429 1452 3 1.6 25.93 1.826 9.4 0 0 0
2324 1453 3 1.6 25.93 1.826 12.5 0 0 0
3280 1454 3 1.6 25.93 1.826 21.8 0 0 0
3812 1455 3 1.6 25.93 1.826 24.9 0 0 0
4393 1456 3 1.6 25.93 1.826 34.2 0 0 0
4894 1457 3 1.6 25.93 1.826 37.3 0 0 0
5390 1458 3 1.6 25.93 1.826 46.6 0 0 0
6245 1459 3 1.6 25.93 1.826 49.7 0 0 0
7204 1460 3 1.6 25.93 1.826 59 0 0 0
93 1461 3 1.6 25.93 4.749 1.133 0 0 0
95 1462 3 1.6 25.93 4.749 4.233 0 0 0
282 1463 3 1.6 25.93 7.672 5.267 0 0 0
1554 1464 3 1.6 25.93 7.672 8.367 0 0 0
2326 1465 3 1.6 25.93 4.749 13.533 0 0 0
2328 1466 3 1.6 25.93 4.749 16.633 0 0 0
2515 1467 3 1.6 25.93 7.672 17.667 0 0 0
3405 1468 3 1.6 25.93 7.672 20.767 0 0 0
3814 1469 3 1.6 25.93 4.749 25.933 0 0 0
3816 1470 3 1.6 25.93 4.749 29.033 0 0 0
4509 1471 3 1.6 25.93 7.672 30.067 0 0 0
4511 1472 3 1.6 25.93 7.672 33.167 0 0 0
4896 1473 3 1.6 25.93 4.749 38.333 0 0 0
4898 1474 3 1.6 25.93 4.749 41.433 0 0 0
5555 1475 3 1.6 25.93 7.672 42.467 0 0 0
5557 1476 3 1.6 25.93 7.672 45.567 0 0 0
6247 1477 3 1.6 25.93 4.749 50.733 0 0 0
6249 1478 3 1.6 25.93 4.749 53.833 0 0 0
7369 1479 3 1.6 25.93 7.672 54.867 0 0 0
7371 1480 3 1.6 25.93 7.672 57.967 0 0 0
2040 1481 3 1.6 25.93 51.522 8.367 0 0 0
3533 1482 3 1.6 25.93 51.522 20.767 0 0 0
4612 1483 3 1.6 25.93 51.522 33.167 0 0 0
5881 1484 3 1.6 25.93 51.522 45.567 0 0 0
8080 1485 3 1.6 25.93 51.522 57.967 0 0 0
7864 8580 1 -0.8 48.701 38.368 56.417 0 0 0
2042 1487 3 1.6 25.93 54.446 9.4 0 0 0
2945 1488 3 1.6 25.93 54.446 12.5 0 0 0
3535 1489 3 1.6 25.93 54.446 21.8 0 0 0
4104 1490 3 1.6 25.93 54.446 24.9 0 0 0
4614 1491 3 1.6 25.93 54.446 34.2 0 0 0
5161 1492 3 1.6 25.93 54.446 37.3 0 0 0
5883 1493 3 1.6 25.93 54.446 46.6 0 0 0
6949 1494 3 1.6 25.93 54.446 49.7 0 0 0
8082 1495 3 1.6 25.93 54.446 59 0 0 0
1274 1496 3 1.6 25.93 57.369 1.133 0 0 0
1276 1497 3 1.6 25.93 57.369 4.233 0 0 0
1278 1498 3 1.6 25.93 60.292 5.267 0 0 0
2158 1499 3 1.6 25.93 60.292 8.367 0 0 0
3125 1500 3 1.6 25.93 57.369 13.533 0 0 0
3127 1501 3 1.6 25.93 57.369 16.633 0 0 0
3129 1502 3 1.6 25.93 60.292 17.667 0 0 0
3651 1503 3 1.6 25.93 60.292 20.767 0 0 0
4247 1504 3 1.6 25.93 57.369 25.933 0 0 0
4249 1505 3 1.6 25.93 57.369 29.033 0 0 0
4738 1506 3 1.6 25.93 60.292 30.067 0 0 0
4740 1507 3 1.6 25.93 60.292 33.167 0 0 0
5269 1508 3 1.6 25.93 57.369 38.333 0 0 0
5271 1509 3 1.6 25.93 57.369 41.433 0 0 0
6051 1510 3 1.6 25.93 60.292 42.467 0 0 0
6053 1511 3 1.6 25.93 60.292 45.567 0 0 0
7076 1512 3 1.6 25.93 57.369 50.733 0 0 0
7078 1513 3 1.6 25.93 57.369 53.833 0 0 0
8249 1514 3 1.6 25.93 60.292 54.867 0 0 0
8251 1515 3 1.6 25.93 60.292 57.967 0 0 0
100 1516 3 1.6 28.461 0.365 1.133 0 0 0
7872 8581 1 -0.8 51.23 41.29 54.35 0 0 0
102 1518 3 1.6 28.461 0.365 4.233 0 0 0
104 1519 3 1.6 28.461 3.288 5.267 0 0 0
1433 1520 3 1.6 28.461 3.288 8.367 0 0 0
1439 1521 3 1.6 30.99 1.826 9.4 0 0 0
2333 1522 3 1.6 28.461 0.365 13.533 0 0 0
2342 1523 3 1.6 30.99 1.826 12.5 0 0 0
2335 1524 3 1.6 28.461 0.365 16.633 0 0 0
2337 1525 3 1.6 28.461 3.288 17.667 0 0 0
3284 1526 3 1.6 28.461 3.288 20.767 0 0 0
3290 1527 3 1.6 30.99 1.826 21.8 0 0 0
3821 1528 3 1.6 28.461 0.365 25.933 0 0 0
3829 1529 3 1.6 30.99 1.826 24.9 0 0 0
3823 1530 3 1.6 28.461 0.365 29.033 0 0 0
4396 1531 3 1.6 28.461 3.288 30.067 0 0 0
4398 1532 3 1.6 28.461 3.288 33.167 0 0 0
4404 1533 3 1.6 30.99 1.826 34.2 0 0 0
4901 1534 3 1.6 28.461 0.365 38.333 0 0 0
4907 1535 3 1.6 30.99 1.826 37.3 0 0 0
4903 1536 3 1.6 28.461 0.365 41.433 0 0 0
5395 1537 3 1.6 28.461 3.288 42.467 0 0 0
5397 1538 3 1.6 28.461 3.288 45.567 0 0 0
5403 1539 3 1.6 30.99 1.826 46.6 0 0 0
6252 1540 3 1.6 28.461 0.365 50.733 0 0 0
6260 1541 3 1.6 30.99 1.826 49.7 0 0 0
6254 1542 3 1.6 28.461 0.365 53.833 0 0 0
7209 1543 3 1.6 28.461 3.288 54.867 0 0 0
7211 1544 3 1.6 28.461 3.288 57.967 0 0 0
7217 1545 3 1.6 30.99 1.826 59 0 0 0
7877 8582 1 -0.8 52.496 39.098 54.35 0 0 0
111 1547 3 1.6 30.99 4.749 1.133 0 0 0
113 1548 3 1.6 30.99 4.749 4.233 0 0 0
296 1549 3 1.6 30.99 7.672 5.267 0 0 0
1435 1550 3 1.6 28.461 6.21 9.4 0 0 0
1563 1551 3 1.6 30.99 7.672 8.367 0 0 0
2338 1552 3 1.6 28.461 6.21 12.5 0 0 0
2344 1553 3 1.6 30.99 4.749 13.533 0 0 0
2346 1554 3 1.6 30.99 4.749 16.633 0 0 0
2529 1555 3 1.6 30.99 7.672 17.667 0 0 0
3286 1556 3 1.6 28.461 6.21 21.8 0 0 0
3415 1557 3 1.6 30.99 7.672 20.767 0 0 0
3825 1558 3 1.6 28.461 6.21 24.9 0 0 0
3831 1559 3 1.6 30.99 4.749 25.933 0 0 0
3833 1560 3 1.6 30.99 4.749 29.033 0 0 0
4517 1561 3 1.6 30.99 7.672 30.067 0 0 0
4400 1562 3 1.6 28.461 6.21 34.2 0 0 0
4519 1563 3 1.6 30.99 7.672 33.167 0 0 0
4904 1564 3 1.6 28.461 6.21 37.3 0 0 0
4909 1565 3 1.6 30.99 4.749 38.333 0 0 0
4911 1566 3 1.6 30.99 4.749 41.433 0 0 0
5567 1567 3 1.6 30.99 7.672 42.467 0 0 0
5399 1568 3 1.6 28.461 6.21 46.6 0 0 0
5569 1569 3 1.6 30.99 7.672 45.567 0 0 0
6256 1570 3 1.6 28.461 6.21 49.7 0 0 0
6262 1571 3 1.6 30.99 4.749 50.733 0 0 0
6264 1572 3 1.6 30.99 4.749 53.833 0 0 0
7380 1573 3 1.6 30.99 7.672 54.867 0 0 0
7213 1574 3 1.6 28.461 6.21 59 0 0 0
7382 1575 3 1.6 30.99 7.672 57.967 0 0 0
288 1576 3 1.6 28.461 9.135 1.133 0 0 0
2521 1577 3 1.6 28.461 9.135 13.533 0 0 0
3985 1578 3 1.6 28.461 9.135 25.933 0 0 0
5029 1579 3 1.6 28.461 9.135 38.333 0 0 0
6399 1580 3 1.6 28.461 9.135 50.733 0 0 0
2049 1581 3 1.6 30.99 51.522 8.367 0 0 0
3542 1582 3 1.6 30.99 51.522 20.767 0 0 0
4621 1583 3 1.6 30.99 51.522 33.167 0 0 0
5896 1584 3 1.6 30.99 51.522 45.567 0 0 0
8094 1585 3 1.6 30.99 51.522 57.967 0 0 0
1101 1586 3 1.6 28.461 52.985 1.133 0 0 0
7866 8583 1 -0.8 48.701 39.829 58.483 0 0 0
1103 1588 3 1.6 28.461 52.985 4.233 0 0 0
1282 1589 3 1.6 28.461 55.908 5.267 0 0 0
2162 1590 3 1.6 28.461 55.908 8.367 0 0 0
2051 1591 3 1.6 30.99 54.446 9.4 0 0 0
2952 1592 3 1.6 28.461 52.985 13.533 0 0 0
2962 1593 3 1.6 30.99 54.446 12.5 0 0 0
2954 1594 3 1.6 28.461 52.985 16.633 0 0 0
3133 1595 3 1.6 28.461 55.908 17.667 0 0 0
3655 1596 3 1.6 28.461 55.908 20.767 0 0 0
3544 1597 3 1.6 30.99 54.446 21.8 0 0 0
4109 1598 3 1.6 28.461 52.985 25.933 0 0 0
4115 1599 3 1.6 30.99 54.446 24.9 0 0 0
4111 1600 3 1.6 28.461 52.985 29.033 0 0 0
4743 1601 3 1.6 28.461 55.908 30.067 0 0 0
4745 1602 3 1.6 28.461 55.908 33.167 0 0 0
4623 1603 3 1.6 30.99 54.446 34.2 0 0 0
5165 1604 3 1.6 28.461 52.985 38.333 0 0 0
5169 1605 3 1.6 30.99 54.446 37.3 0 0 0
5167 1606 3 1.6 28.461 52.985 41.433 0 0 0
6058 1607 3 1.6 28.461 55.908 42.467 0 0 0
6060 1608 3 1.6 28.461 55.908 45.567 0 0 0
5898 1609 3 1.6 30.99 54.446 46.6 0 0 0
6954 1610 3 1.6 28.461 52.985 50.733 0 0 0
6960 1611 3 1.6 30.99 54.446 49.7 0 0 0
6956 1612 3 1.6 28.461 52.985 53.833 0 0 0
8256 1613 3 1.6 28.461 55.908 54.867 0 0 0
8258 1614 3 1.6 28.461 55.908 57.967 0 0 0
8096 1615 3 1.6 30.99 54.446 59 0 0 0
7868 8584 1 -0.8 49.967 37.637 58.483 0 0 0
1289 1617 3 1.6 30.99 57.369 1.133 0 0 0
1291 1618 3 1.6 30.99 57.369 4.233 0 0 0
1293 1619 3 1.6 30.99 60.292 5.267 0 0 0
2164 1620 3 1.6 28.461 58.83 9.4 0 0 0
2169 1621 3 1.6 30.99 60.292 8.367 0 0 0
3134 1622 3 1.6 28.461 58.83 12.5 0 0 0
3140 1623 3 1.6 30.99 57.369 13.533 0 0 0
3142 1624 3 1.6 30.99 57.369 16.633 0 0 0
3144 1625 3 1.6 30.99 60.292 17.667 0 0 0
3657 1626 3 1.6 28.461 58.83 21.8 0 0 0
3662 1627 3 1.6 30.99 60.292 20.767 0 0 0
4254 1628 3 1.6 28.461 58.83 24.9 0 0 0
4260 1629 3 1.6 30.99 57.369 25.933 0 0 0
4262 1630 3 1.6 30.99 57.369 29.033 0 0 0
4751 1631 3 1.6 30.99 60.292 30.067 0 0 0
4747 1632 3 1.6 28.461 58.83 34.2 0 0 0
4753 1633 3 1.6 30.99 60.292 33.167 0 0 0
5273 1634 3 1.6 28.461 58.83 37.3 0 0 0
5277 1635 3 1.6 30.99 57.369 38.333 0 0 0
5279 1636 3 1.6 30.99 57.369 41.433 0 0 0
6068 1637 3 1.6 30.99 60.292 42.467 0 0 0
6062 1638 3 1.6 28.461 58.83 46.6 0 0 0
6070 1639 3 1.6 30.99 60.292 45.567 0 0 0
7081 1640 3 1.6 28.461 58.83 49.7 0 0 0
7085 1641 3 1.6 30.99 57.369 50.733 0 0 0
7087 1642 3 1.6 30.99 57.369 53.833 0 0 0
8266 1643 3 1.6 30.99 60.292 54.867 0 0 0
8260 1644 3 1.6 28.461 58.83 59 0 0 0
8268 1645 3 1.6 30.99 60.292 57.967 0 0 0
118 1646 3 1.6 33.521 0.365 1.133 0 0 0
120 1647 3 1.6 33.521 0.365 4.233 0 0 0
122 1648 3 1.6 33.521 3.288 5.267 0 0 0
1443 1649 3 1.6 33.521 3.288 8.367 0 0 0
2351 1650 3 1.6 33.521 0.365 13.533 0 0 0
2353 1651 3 1.6 33.521 0.365 16.633 0 0 0
2355 1652 3 1.6 33.521 3.288 17.667 0 0 0
3294 1653 3 1.6 33.521 3.288 20.767 0 0 0
3838 1654 3 1.6 33.521 0.365 25.933 0 0 0
3840 1655 3 1.6 33.521 0.365 29.033 0 0 0
4407 1656 3 1.6 33.521 3.288 30.067 0 0 0
4409 1657 3 1.6 33.521 3.288 33.167 0 0 0
4914 1658 3 1.6 33.521 0.365 38.333 0 0 0
4916 1659 3 1.6 33.521 0.365 41.433 0 0 0
5408 1660 3 1.6 33.521 3.288 42.467 0 0 0
5410 1661 3 1.6 33.521 3.288 45.567 0 0 0
6267 1662 3 1.6 33.521 0.365 50.733 0 0 0
6269 1663 3 1.6 33.521 0.365 53.833 0 0 0
7222 1664 3 1.6 33.521 3.288 54.867 0 0 0
7224 1665 3 1.6 33.521 3.288 57.967 0 0 0
7876 8585 1 -0.8 52.496 37.637 58.483 0 0 0
1445 1667 3 1.6 33.521 6.21 9.4 0 0 0
2356 1668 3 1.6 33.521 6.21 12.5 0 0 0
3296 1669 3 1.6 33.521 6.21 21.8 0 0 0
3842 1670 3 1.6 33.521 6.21 24.9 0 0 0
4411 1671 3 1.6 33.521 6.21 34.2 0 0 0
4917 1672 3 1.6 33.521 6.21 37.3 0 0 0
5412 1673 3 1.6 33.521 6.21 46.6 0 0 0
6271 1674 3 1.6 33.521 6.21 49.7 0 0 0
7226 1675 3 1.6 33.521 6.21 59 0 0 0
303 1676 3 1.6 33.521 9.135 1.133 0 0 0
2536 1677 3 1.6 33.521 9.135 13.533 0 0 0
3994 1678 3 1.6 33.521 9.135 25.933 0 0 0
5039 1679 3 1.6 33.521 9.135 38.333 0 0 0
6413 1680 3 1.6 33.521 9.135 50.733 0 0 0
1116 1681 3 1.6 33.521 52.985 1.133 0 0 0
1118 1682 3 1.6 33.521 52.985 4.233 0 0 0
1297 1683 3 1.6 33.521 55.908 5.267 0 0 0
2173 1684 3 1.6 33.521 55.908 8.367 0 0 0
2967 1685 3 1.6 33.521 52.985 13.533 0 0 0
2969 1686 3 1.6 33.521 52.985 16.633 0 0 0
3148 1687 3 1.6 33.521 55.908 17.667 0 0 0
3666 1688 3 1.6 33.521 55.908 20.767 0 0 0
4120 1689 3 1.6 33.521 52.985 25.933 0 0 0
4122 1690 3 1.6 33.521 52.985 29.033 0 0 0
4756 1691 3 1.6 33.521 55.908 30.067 0 0 0
4758 1692 3 1.6 33.521 55.908 33.167 0 0 0
5173 1693 3 1.6 33.521 52.985 38.333 0 0 0
5175 1694 3 1.6 33.521 52.985 41.433 0 0 0
6075 1695 3 1.6 33.521 55.908 42.467 0 0 0
6077 1696 3 1.6 33.521 55.908 45.567 0 0 0
6965 1697 3 1.6 33.521 52.985 50.733 0 0 0
6967 1698 3 1.6 33.521 52.985 53.833 0 0 0
8273 1699 3 1.6 33.521 55.908 54.867 0 0 0
8275 1700 3 1.6 33.521 55.908 57.967 0 0 0
836 8586 1 -0.8 48.701 41.29 0 0 0 1
2175 1702 3 1.6 33.521 58.83 9.4 0 0 0
3149 1703 3 1.6 33.521 58.83 12.5 0 0 0
3668 1704 3 1.6 33.521 58.83 21.8 0 0 0
4267 1705 3 1.6 33.521 58.83 24.9 0 0 0
4760 1706 3 1.6 33.521 58.83 34.2 0 0 0
5281 1707 3 1.6 33.521 58.83 37.3 0 0 0
6079 1708 3 1.6 33.521 58.83 46.6 0 0 0
7090 1709 3 1.6 33.521 58.83 49.7 0 0 0
8277 1710 3 1.6 33.521 58.83 59 0 0 0
136 1711 3 1.6 38.581 0.365 1.133 0 0 0
837 8587 1 -0.8 48.701 42.752 0.617 0 0 0
138 1713 3 1.6 38.581 0.365 4.233 0 0 0
140 1714 3 1.6 38.581 3.288 5.267 0 0 0
1453 1715 3 1.6 38.581 3.288 8.367 0 0 0
1449 1716 3 1.6 36.05 1.826 9.4 0 0 0
2369 1717 3 1.6 38.581 0.365 13.533 0 0 0
2360 1718 3 1.6 36.05 1.826 12.5 0 0 0
2371 1719 3 1.6 38.581 0.365 16.633 0 0 0
2373 1720 3 1.6 38.581 3.288 17.667 0 0 0
3304 1721 3 1.6 38.581 3.288 20.767 0 0 0
3300 1722 3 1.6 36.05 1.826 21.8 0 0 0
3855 1723 3 1.6 38.581 0.365 25.933 0 0 0
3846 1724 3 1.6 36.05 1.826 24.9 0 0 0
3857 1725 3 1.6 38.581 0.365 29.033 0 0 0
4418 1726 3 1.6 38.581 3.288 30.067 0 0 0
4420 1727 3 1.6 38.581 3.288 33.167 0 0 0
4415 1728 3 1.6 36.05 1.826 34.2 0 0 0
4927 1729 3 1.6 38.581 0.365 38.333 0 0 0
4920 1730 3 1.6 36.05 1.826 37.3 0 0 0
4929 1731 3 1.6 38.581 0.365 41.433 0 0 0
5421 1732 3 1.6 38.581 3.288 42.467 0 0 0
5423 1733 3 1.6 38.581 3.288 45.567 0 0 0
5416 1734 3 1.6 36.05 1.826 46.6 0 0 0
6282 1735 3 1.6 38.581 0.365 50.733 0 0 0
6275 1736 3 1.6 36.05 1.826 49.7 0 0 0
6284 1737 3 1.6 38.581 0.365 53.833 0 0 0
7235 1738 3 1.6 38.581 3.288 54.867 0 0 0
7237 1739 3 1.6 38.581 3.288 57.967 0 0 0
7230 1740 3 1.6 36.05 1.826 59 0 0 0
984 8588 1 -0.8 49.967 43.482 4.75 0 0 0
129 1742 3 1.6 36.05 4.749 1.133 0 0 0
131 1743 3 1.6 36.05 4.749 4.233 0 0 0
309 1744 3 1.6 36.05 7.672 5.267 0 0 0
1455 1745 3 1.6 38.581 6.21 9.4 0 0 0
1572 1746 3 1.6 36.05 7.672 8.367 0 0 0
2374 1747 3 1.6 38.581 6.21 12.5 0 0 0
2362 1748 3 1.6 36.05 4.749 13.533 0 0 0
2364 1749 3 1.6 36.05 4.749 16.633 0 0 0
2542 1750 3 1.6 36.05 7.672 17.667 0 0 0
3306 1751 3 1.6 38.581 6.21 21.8 0 0 0
3425 1752 3 1.6 36.05 7.672 20.767 0 0 0
3859 1753 3 1.6 38.581 6.21 24.9 0 0 0
3848 1754 3 1.6 36.05 4.749 25.933 0 0 0
3850 1755 3 1.6 36.05 4.749 29.033 0 0 0
4525 1756 3 1.6 36.05 7.672 30.067 0 0 0
4422 1757 3 1.6 38.581 6.21 34.2 0 0 0
4527 1758 3 1.6 36.05 7.672 33.167 0 0 0
4930 1759 3 1.6 38.581 6.21 37.3 0 0 0
4922 1760 3 1.6 36.05 4.749 38.333 0 0 0
4924 1761 3 1.6 36.05 4.749 41.433 0 0 0
5579 1762 3 1.6 36.05 7.672 42.467 0 0 0
5425 1763 3 1.6 38.581 6.21 46.6 0 0 0
5581 1764 3 1.6 36.05 7.672 45.567 0 0 0
6286 1765 3 1.6 38.581 6.21 49.7 0 0 0
6277 1766 3 1.6 36.05 4.749 50.733 0 0 0
6279 1767 3 1.6 36.05 4.749 53.833 0 0 0
7391 1768 3 1.6 36.05 7.672 54.867 0 0 0
7239 1769 3 1.6 38.581 6.21 59 0 0 0
7393 1770 3 1.6 36.05 7.672 57.967 0 0 0
314 1771 3 1.6 38.581 9.135 1.133 0 0 0
316 1772 3 1.6 38.581 9.135 4.233 0 0 0
2547 1773 3 1.6 38.581 9.135 13.533 0 0 0
2549 1774 3 1.6 38.581 9.135 16.633 0 0 0
4003 1775 3 1.6 38.581 9.135 25.933 0 0 0
4005 1776 3 1.6 38.581 9.135 29.033 0 0 0
5046 1777 3 1.6 38.581 9.135 38.333 0 0 0
5048 1778 3 1.6 38.581 9.135 41.433 0 0 0
6422 1779 3 1.6 38.581 9.135 50.733 0 0 0
6424 1780 3 1.6 38.581 9.135 53.833 0 0 0
1898 8589 1 -0.8 51.23 42.752 6.817 0 0 0
1124 1782 3 1.6 36.05 51.522 5.267 0 0 0
2058 1783 3 1.6 36.05 51.522 8.367 0 0 0
2980 1784 3 1.6 38.581 50.06 12.5 0 0 0
2975 1785 3 1.6 36.05 51.522 17.667 0 0 0
3551 1786 3 1.6 36.05 51.522 20.767 0 0 0
4129 1787 3 1.6 38.581 50.06 24.9 0 0 0
4628 1788 3 1.6 36.05 51.522 30.067 0 0 0
4630 1789 3 1.6 36.05 51.522 33.167 0 0 0
5181 1790 3 1.6 38.581 50.06 37.3 0 0 0
5906 1791 3 1.6 36.05 51.522 42.467 0 0 0
5908 1792 3 1.6 36.05 51.522 45.567 0 0 0
6975 1793 3 1.6 38.581 50.06 49.7 0 0 0
8104 1794 3 1.6 36.05 51.522 54.867 0 0 0
8106 1795 3 1.6 36.05 51.522 57.967 0 0 0
1131 1796 3 1.6 38.581 52.985 1.133 0 0 0
992 8590 1 -0.8 52.496 43.482 4.75 0 0 0
1133 1798 3 1.6 38.581 52.985 4.233 0 0 0
1312 1799 3 1.6 38.581 55.908 5.267 0 0 0
2184 1800 3 1.6 38.581 55.908 8.367 0 0 0
2060 1801 3 1.6 36.05 54.446 9.4 0 0 0
2982 1802 3 1.6 38.581 52.985 13.533 0 0 0
2976 1803 3 1.6 36.05 54.446 12.5 0 0 0
2984 1804 3 1.6 38.581 52.985 16.633 0 0 0
3163 1805 3 1.6 38.581 55.908 17.667 0 0 0
3677 1806 3 1.6 38.581 55.908 20.767 0 0 0
3553 1807 3 1.6 36.05 54.446 21.8 0 0 0
4131 1808 3 1.6 38.581 52.985 25.933 0 0 0
4126 1809 3 1.6 36.05 54.446 24.9 0 0 0
4133 1810 3 1.6 38.581 52.985 29.033 0 0 0
4769 1811 3 1.6 38.581 55.908 30.067 0 0 0
4771 1812 3 1.6 38.581 55.908 33.167 0 0 0
4632 1813 3 1.6 36.05 54.446 34.2 0 0 0
5183 1814 3 1.6 38.581 52.985 38.333 0 0 0
5178 1815 3 1.6 36.05 54.446 37.3 0 0 0
5185 1816 3 1.6 38.581 52.985 41.433 0 0 0
6092 1817 3 1.6 38.581 55.908 42.467 0 0 0
6094 1818 3 1.6 38.581 55.908 45.567 0 0 0
5910 1819 3 1.6 36.05 54.446 46.6 0 0 0
6977 1820 3 1.6 38.581 52.985 50.733 0 0 0
6971 1821 3 1.6 36.05 54.446 49.7 0 0 0
6979 1822 3 1.6 38.581 52.985 53.833 0 0 0
8290 1823 3 1.6 38.581 55.908 54.867 0 0 0
8292 1824 3 1.6 38.581 55.908 57.967 0 0 0
8108 1825 3 1.6 36.05 54.446 59 0 0 0
1893 8591 1 -0.8 48.701 41.29 10.95 0 0 0
1304 1827 3 1.6 36.05 57.369 1.133 0 0 0
1306 1828 3 1.6 36.05 57.369 4.233 0 0 0
1308 1829 3 1.6 36.05 60.292 5.267 0 0 0
2186 1830 3 1.6 38.581 58.83 9.4 0 0 0
2180 1831 3 1.6 36.05 60.292 8.367 0 0 0
3164 1832 3 1.6 38.581 58.83 12.5 0 0 0
3155 1833 3 1.6 36.05 57.369 13.533 0 0 0
3157 1834 3 1.6 36.05 57.369 16.633 0 0 0
3159 1835 3 1.6 36.05 60.292 17.667 0 0 0
3679 1836 3 1.6 38.581 58.83 21.8 0 0 0
3673 1837 3 1.6 36.05 60.292 20.767 0 0 0
4280 1838 3 1.6 38.581 58.83 24.9 0 0 0
4273 1839 3 1.6 36.05 57.369 25.933 0 0 0
4275 1840 3 1.6 36.05 57.369 29.033 0 0 0
4764 1841 3 1.6 36.05 60.292 30.067 0 0 0
4773 1842 3 1.6 38.581 58.83 34.2 0 0 0
4766 1843 3 1.6 36.05 60.292 33.167 0 0 0
5289 1844 3 1.6 38.581 58.83 37.3 0 0 0
5285 1845 3 1.6 36.05 57.369 38.333 0 0 0
5287 1846 3 1.6 36.05 57.369 41.433 0 0 0
6085 1847 3 1.6 36.05 60.292 42.467 0 0 0
6096 1848 3 1.6 38.581 58.83 46.6 0 0 0
6087 1849 3 1.6 36.05 60.292 45.567 0 0 0
7099 1850 3 1.6 38.581 58.83 49.7 0 0 0
7094 1851 3 1.6 36.05 57.369 50.733 0 0 0
7096 1852 3 1.6 36.05 57.369 53.833 0 0 0
8283 1853 3 1.6 36.05 60.292 54.867 0 0 0
8294 1854 3 1.6 38.581 58.83 59 0 0 0
8285 1855 3 1.6 36.05 60.292 57.967 0 0 0
154 1856 3 1.6 43.641 0.365 1.133 0 0 0
1895 8592 1 -0.8 49.967 42.021 8.883 0 0 0
156 1858 3 1.6 43.641 0.365 4.233 0 0 0
158 1859 3 1.6 43.641 3.288 5.267 0 0 0
1463 1860 3 1.6 43.641 3.288 8.367 0 0 0
1459 1861 3 1.6 41.11 1.826 9.4 0 0 0
2387 1862 3 1.6 43.641 0.365 13.533 0 0 0
2378 1863 3 1.6 41.11 1.826 12.5 0 0 0
2389 1864 3 1.6 43.641 0.365 16.633 0 0 0
2391 1865 3 1.6 43.641 3.288 17.667 0 0 0
3314 1866 3 1.6 43.641 3.288 20.767 0 0 0
3310 1867 3 1.6 41.11 1.826 21.8 0 0 0
3872 1868 3 1.6 43.641 0.365 25.933 0 0 0
3863 1869 3 1.6 41.11 1.826 24.9 0 0 0
3874 1870 3 1.6 43.641 0.365 29.033 0 0 0
4429 1871 3 1.6 43.641 3.288 30.067 0 0 0
4431 1872 3 1.6 43.641 3.288 33.167 0 0 0
4426 1873 3 1.6 41.11 1.826 34.2 0 0 0
4940 1874 3 1.6 43.641 0.365 38.333 0 0 0
4933 1875 3 1.6 41.11 1.826 37.3 0 0 0
4942 1876 3 1.6 43.641 0.365 41.433 0 0 0
5434 1877 3 1.6 43.641 3.288 42.467 0 0 0
5436 1878 3 1.6 43.641 3.288 45.567 0 0 0
5429 1879 3 1.6 41.11 1.826 46.6 0 0 0
6297 1880 3 1.6 43.641 0.365 50.733 0 0 0
6290 1881 3 1.6 41.11 1.826 49.7 0 0 0
6299 1882 3 1.6 43.641 0.365 53.833 0 0 0
7248 1883 3 1.6 43.641 3.288 54.867 0 0 0
7250 1884 3 1.6 43.641 3.288 57.967 0 0 0
7243 1885 3 1.6 41.11 1.826 59 0 0 0
1978 8593 1 -0.8 51.23 44.215 8.883 0 0 0
147 1887 3 1.6 41.11 4.749 1.133 0 0 0
149 1888 3 1.6 41.11 4.749 4.233 0 0 0
321 1889 3 1.6 41.11 7.672 5.267 0 0 0
1465 1890 3 1.6 43.641 6.21 9.4 0 0 0
1583 1891 3 1.6 41.11 7.672 8.367 0 0 0
2392 1892 3 1.6 43.641 6.21 12.5 0 0 0
2380 1893 3 1.6 41.11 4.749 13.533 0 0 0
2382 1894 3 1.6 41.11 4.749 16.633 0 0 0
2554 1895 3 1.6 41.11 7.672 17.667 0 0 0
3316 1896 3 1.6 43.641 6.21 21.8 0 0 0
3436 1897 3 1.6 41.11 7.672 20.767 0 0 0
3876 1898 3 1.6 43.641 6.21 24.9 0 0 0
3865 1899 3 1.6 41.11 4.749 25.933 0 0 0
3867 1900 3 1.6 41.11 4.749 29.033 0 0 0
4533 1901 3 1.6 41.11 7.672 30.067 0 0 0
4433 1902 3 1.6 43.641 6.21 34.2 0 0 0
4535 1903 3 1.6 41.11 7.672 33.167 0 0 0
4943 1904 3 1.6 43.641 6.21 37.3 0 0 0
4935 1905 3 1.6 41.11 4.749 38.333 0 0 0
4937 1906 3 1.6 41.11 4.749 41.433 0 0 0
5594 1907 3 1.6 41.11 7.672 42.467 0 0 0
5438 1908 3 1.6 43.641 6.21 46.6 0 0 0
5596 1909 3 1.6 41.11 7.672 45.567 0 0 0
6301 1910 3 1.6 43.641 6.21 49.7 0 0 0
6292 1911 3 1.6 41.11 4.749 50.733 0 0 0
6294 1912 3 1.6 41.11 4.749 53.833 0 0 0
7406 1913 3 1.6 41.11 7.672 54.867 0 0 0
7252 1914 3 1.6 43.641 6.21 59 0 0 0
7408 1915 3 1.6 41.11 7.672 57.967 0 0 0
327 1916 3 1.6 43.641 9.135 1.133 0 0 0
1901 8594 1 -0.8 52.496 42.021 8.883 0 0 0
329 1918 3 1.6 43.641 9.135 4.233 0 0 0
1585 1919 3 1.6 41.11 10.596 9.4 0 0 0
2560 1920 3 1.6 43.641 9.135 13.533 0 0 0
2555 1921 3 1.6 41.11 10.596 12.5 0 0 0
2562 1922 3 1.6 43.641 9.135 16.633 0 0 0
3438 1923 3 1.6 41.11 10.596 21.8 0 0 0
4013 1924 3 1.6 43.641 9.135 25.933 0 0 0
4009 1925 3 1.6 41.11 10.596 24.9 0 0 0
4015 1926 3 1.6 43.641 9.135 29.033 0 0 0
4537 1927 3 1.6 41.11 10.596 34.2 0 0 0
5054 1928 3 1.6 43.641 9.135 38.333 0 0 0
5050 1929 3 1.6 41.11 10.596 37.3 0 0 0
5056 1930 3 1.6 43.641 9.135 41.433 0 0 0
5598 1931 3 1.6 41.11 10.596 46.6 0 0 0
6431 1932 3 1.6 43.641 9.135 50.733 0 0 0
6427 1933 3 1.6 41.11 10.596 49.7 0 0 0
6433 1934 3 1.6 43.641 9.135 53.833 0 0 0
7410 1935 3 1.6 41.11 10.596 59 0 0 0
331 1936 3 1.6 43.641 12.058 5.267 0 0 0
1590 1937 3 1.6 43.641 12.058 8.367 0 0 0
2564 1938 3 1.6 43.641 12.058 17.667 0 0 0
3443 1939 3 1.6 43.641 12.058 20.767 0 0 0
2661 10134 2 0.4 30.88 13.214 12.5 0 0 0
2528 10134 1 -0.8 30.921 12.235 12.5 0 0 0
5603 1942 3 1.6 43.641 12.058 42.467 0 0 0
5605 1943 3 1.6 43.641 12.058 45.567 0 0 0
7415 1944 3 1.6 43.641 12.058 54.867 0 0 0
7417 1945 3 1.6 43.641 12.058 57.967 0 0 0
967 1946 3 1.6 43.641 47.138 5.267 0 0 0
2831 1947 3 1.6 43.641 47.138 17.667 0 0 0
2530 10134 3 1.6 30.99 10.596 12.5 0 0 0
5783 1949 3 1.6 43.641 47.138 42.467 0 0 0
7971 1950 3 1.6 43.641 47.138 54.867 0 0 0
2746 8595 1 -0.8 48.701 42.752 13.017 0 0 0
1139 1952 3 1.6 41.11 51.522 5.267 0 0 0
2072 1953 3 1.6 43.641 50.06 9.4 0 0 0
2067 1954 3 1.6 41.11 51.522 8.367 0 0 0
2995 1955 3 1.6 43.641 50.06 12.5 0 0 0
2990 1956 3 1.6 41.11 51.522 17.667 0 0 0
3565 1957 3 1.6 43.641 50.06 21.8 0 0 0
3560 1958 3 1.6 41.11 51.522 20.767 0 0 0
4140 1959 3 1.6 43.641 50.06 24.9 0 0 0
4637 1960 3 1.6 41.11 51.522 30.067 0 0 0
292 10133 2 0.4 28.667 11.747 4.233 0 0 0
4639 1962 3 1.6 41.11 51.522 33.167 0 0 0
5191 1963 3 1.6 43.641 50.06 37.3 0 0 0
5918 1964 3 1.6 41.11 51.522 42.467 0 0 0
5925 1965 3 1.6 43.641 50.06 46.6 0 0 0
5920 1966 3 1.6 41.11 51.522 45.567 0 0 0
6987 1967 3 1.6 43.641 50.06 49.7 0 0 0
8116 1968 3 1.6 41.11 51.522 54.867 0 0 0
8123 1969 3 1.6 43.641 50.06 59 0 0 0
8118 1970 3 1.6 41.11 51.522 57.967 0 0 0
1146 1971 3 1.6 43.641 52.985 1.133 0 0 0
1745 8412 1 -0.8 52.496 24.481 8.883 0 0 0
1148 1973 3 1.6 43.641 52.985 4.233 0 0 0
1327 1974 3 1.6 43.641 55.908 5.267 0 0 0
2195 1975 3 1.6 43.641 55.908 8.367 0 0 0
2069 1976 3 1.6 41.11 54.446 9.4 0 0 0
2997 1977 3 1.6 43.641 52.985 13.533 0 0 0
2991 1978 3 1.6 41.11 54.446 12.5 0 0 0
2999 1979 3 1.6 43.641 52.985 16.633 0 0 0
3178 1980 3 1.6 43.641 55.908 17.667 0 0 0
3688 1981 3 1.6 43.641 55.908 20.767 0 0 0
3562 1982 3 1.6 41.11 54.446 21.8 0 0 0
4142 1983 3 1.6 43.641 52.985 25.933 0 0 0
4137 1984 3 1.6 41.11 54.446 24.9 0 0 0
4144 1985 3 1.6 43.641 52.985 29.033 0 0 0
4782 1986 3 1.6 43.641 55.908 30.067 0 0 0
4784 1987 3 1.6 43.641 55.908 33.167 0 0 0
4641 1988 3 1.6 41.11 54.446 34.2 0 0 0
5193 1989 3 1.6 43.641 52.985 38.333 0 0 0
5188 1990 3 1.6 41.11 54.446 37.3 0 0 0
5195 1991 3 1.6 43.641 52.985 41.433 0 0 0
6109 1992 3 1.6 43.641 55.908 42.467 0 0 0
6111 1993 3 1.6 43.641 55.908 45.567 0 0 0
5922 1994 3 1.6 41.11 54.446 46.6 0 0 0
6989 1995 3 1.6 43.641 52.985 50.733 0 0 0
6983 1996 3 1.6 41.11 54.446 49.7 0 0 0
6991 1997 3 1.6 43.641 52.985 53.833 0 0 0
8307 1998 3 1.6 43.641 55.908 54.867 0 0 0
8309 1999 3 1.6 43.641 55.908 57.967 0 0 0
8120 2000 3 1.6 41.11 54.446 59 0 0 0
1793 8411 1 -0.8 51.23 26.675 8.883 0 0 0
1319 2002 3 1.6 41.11 57.369 1.133 0 0 0
1321 2003 3 1.6 41.11 57.369 4.233 0 0 0
1323 2004 3 1.6 41.11 60.292 5.267 0 0 0
2197 2005 3 1.6 43.641 58.83 9.4 0 0 0
2191 2006 3 1.6 41.11 60.292 8.367 0 0 0
3179 2007 3 1.6 43.641 58.83 12.5 0 0 0
3170 2008 3 1.6 41.11 57.369 13.533 0 0 0
3172 2009 3 1.6 41.11 57.369 16.633 0 0 0
3174 2010 3 1.6 41.11 60.292 17.667 0 0 0
3690 2011 3 1.6 43.641 58.83 21.8 0 0 0
3684 2012 3 1.6 41.11 60.292 20.767 0 0 0
4293 2013 3 1.6 43.641 58.83 24.9 0 0 0
4286 2014 3 1.6 41.11 57.369 25.933 0 0 0
4288 2015 3 1.6 41.11 57.369 29.033 0 0 0
4777 2016 3 1.6 41.11 60.292 30.067 0 0 0
4786 2017 3 1.6 43.641 58.83 34.2 0 0 0
4779 2018 3 1.6 41.11 60.292 33.167 0 0 0
5297 2019 3 1.6 43.641 58.83 37.3 0 0 0
5293 2020 3 1.6 41.11 57.369 38.333 0 0 0
5295 2021 3 1.6 41.11 57.369 41.433 0 0 0
6102 2022 3 1.6 41.11 60.292 42.467 0 0 0
6113 2023 3 1.6 43.641 58.83 46.6 0 0 0
6104 2024 3 1.6 41.11 60.292 45.567 0 0 0
7108 2025 3 1.6 43.641 58.83 49.7 0 0 0
7103 2026 3 1.6 41.11 57.369 50.733 0 0 0
7105 2027 3 1.6 41.11 57.369 53.833 0 0 0
8300 2028 3 1.6 41.11 60.292 54.867 0 0 0
8311 2029 3 1.6 43.641 58.83 59 0 0 0
8302 2030 3 1.6 41.11 60.292 57.967 0 0 0
659 8410 1 -0.8 52.496 25.942 4.75 0 0 0
1469 2032 3 1.6 46.17 1.826 9.4 0 0 0
2396 2033 3 1.6 46.17 1.826 12.5 0 0 0
3320 2034 3 1.6 46.17 1.826 21.8 0 0 0
3880 2035 3 1.6 46.17 1.826 24.9 0 0 0
4437 2036 3 1.6 46.17 1.826 34.2 0 0 0
4946 2037 3 1.6 46.17 1.826 37.3 0 0 0
5442 2038 3 1.6 46.17 1.826 46.6 0 0 0
6305 2039 3 1.6 46.17 1.826 49.7 0 0 0
7256 2040 3 1.6 46.17 1.826 59 0 0 0
165 2041 3 1.6 46.17 4.749 1.133 0 0 0
167 2042 3 1.6 46.17 4.749 4.233 0 0 0
334 2043 3 1.6 46.17 7.672 5.267 0 0 0
1594 2044 3 1.6 46.17 7.672 8.367 0 0 0
2398 2045 3 1.6 46.17 4.749 13.533 0 0 0
2400 2046 3 1.6 46.17 4.749 16.633 0 0 0
2567 2047 3 1.6 46.17 7.672 17.667 0 0 0
3447 2048 3 1.6 46.17 7.672 20.767 0 0 0
3882 2049 3 1.6 46.17 4.749 25.933 0 0 0
3884 2050 3 1.6 46.17 4.749 29.033 0 0 0
4541 2051 3 1.6 46.17 7.672 30.067 0 0 0
4543 2052 3 1.6 46.17 7.672 33.167 0 0 0
4948 2053 3 1.6 46.17 4.749 38.333 0 0 0
4950 2054 3 1.6 46.17 4.749 41.433 0 0 0
5609 2055 3 1.6 46.17 7.672 42.467 0 0 0
5611 2056 3 1.6 46.17 7.672 45.567 0 0 0
6307 2057 3 1.6 46.17 4.749 50.733 0 0 0
6309 2058 3 1.6 46.17 4.749 53.833 0 0 0
7421 2059 3 1.6 46.17 7.672 54.867 0 0 0
7423 2060 3 1.6 46.17 7.672 57.967 0 0 0
1791 8409 1 -0.8 51.23 25.212 6.817 0 0 0
1596 2062 3 1.6 46.17 10.596 9.4 0 0 0
2568 2063 3 1.6 46.17 10.596 12.5 0 0 0
3449 2064 3 1.6 46.17 10.596 21.8 0 0 0
4019 2065 3 1.6 46.17 10.596 24.9 0 0 0
4545 2066 3 1.6 46.17 10.596 34.2 0 0 0
5058 2067 3 1.6 46.17 10.596 37.3 0 0 0
5613 2068 3 1.6 46.17 10.596 46.6 0 0 0
6436 2069 3 1.6 46.17 10.596 49.7 0 0 0
7425 2070 3 1.6 46.17 10.596 59 0 0 0
467 2071 3 1.6 46.17 13.519 1.133 0 0 0
469 2072 3 1.6 46.17 13.519 4.233 0 0 0
2680 2073 3 1.6 46.17 13.519 13.533 0 0 0
2682 2074 3 1.6 46.17 13.519 16.633 0 0 0
291 10133 1 -0.8 28.59 10.77 4.233 0 0 0
290 10133 3 1.6 28.461 9.135 4.233 0 0 0
446 10132 2 0.4 30.88 13.214 0.1 0 0 0
5088 2078 3 1.6 46.17 13.519 41.433 0 0 0
6526 2079 3 1.6 46.17 13.519 50.733 0 0 0
6528 2080 3 1.6 46.17 13.519 53.833 0 0 0
1675 2081 3 1.6 46.17 16.442 8.367 0 0 0
295 10132 1 -0.8 30.921 12.235 0.1 0 0 0
654 8408 1 -0.8 49.967 25.942 4.75 0 0 0
5706 2084 3 1.6 46.17 16.442 45.567 0 0 0
7546 2085 3 1.6 46.17 16.442 57.967 0 0 0
652 8407 1 -0.8 48.701 26.675 2.683 0 0 0
1971 2087 3 1.6 46.17 45.676 9.4 0 0 0
2834 2088 3 1.6 46.17 45.676 12.5 0 0 0
5885 10131 2 0.4 26.447 48.953 42.467 0 0 0
5884 10131 1 -0.8 26.254 49.914 42.467 0 0 0
5879 10131 3 1.6 25.93 51.522 42.467 0 0 0
4610 10130 3 1.6 25.93 51.522 30.067 0 0 0
5790 2093 3 1.6 46.17 45.676 46.6 0 0 0
6857 2094 3 1.6 46.17 45.676 49.7 0 0 0
7979 2095 3 1.6 46.17 45.676 59 0 0 0
973 2096 3 1.6 46.17 48.599 1.133 0 0 0
975 2097 3 1.6 46.17 48.599 4.233 0 0 0
1154 2098 3 1.6 46.17 51.522 5.267 0 0 0
2076 2099 3 1.6 46.17 51.522 8.367 0 0 0
2836 2100 3 1.6 46.17 48.599 13.533 0 0 0
2838 2101 3 1.6 46.17 48.599 16.633 0 0 0
3005 2102 3 1.6 46.17 51.522 17.667 0 0 0
3569 2103 3 1.6 46.17 51.522 20.767 0 0 0
2947 10129 2 0.4 26.447 48.953 17.667 0 0 0
2946 10129 1 -0.8 26.254 49.914 17.667 0 0 0
4646 2106 3 1.6 46.17 51.522 30.067 0 0 0
4648 2107 3 1.6 46.17 51.522 33.167 0 0 0
2944 10129 3 1.6 25.93 51.522 17.667 0 0 0
5107 2109 3 1.6 46.17 48.599 41.433 0 0 0
5930 2110 3 1.6 46.17 51.522 42.467 0 0 0
5932 2111 3 1.6 46.17 51.522 45.567 0 0 0
6859 2112 3 1.6 46.17 48.599 50.733 0 0 0
6861 2113 3 1.6 46.17 48.599 53.833 0 0 0
8128 2114 3 1.6 46.17 51.522 54.867 0 0 0
8130 2115 3 1.6 46.17 51.522 57.967 0 0 0
655 8406 1 -0.8 49.967 27.406 0.617 0 0 0
2078 2117 3 1.6 46.17 54.446 9.4 0 0 0
3006 2118 3 1.6 46.17 54.446 12.5 0 0 0
3571 2119 3 1.6 46.17 54.446 21.8 0 0 0
4148 2120 3 1.6 46.17 54.446 24.9 0 0 0
4650 2121 3 1.6 46.17 54.446 34.2 0 0 0
5198 2122 3 1.6 46.17 54.446 37.3 0 0 0
5934 2123 3 1.6 46.17 54.446 46.6 0 0 0
6995 2124 3 1.6 46.17 54.446 49.7 0 0 0
8132 2125 3 1.6 46.17 54.446 59 0 0 0
1334 2126 3 1.6 46.17 57.369 1.133 0 0 0
1336 2127 3 1.6 46.17 57.369 4.233 0 0 0
1338 2128 3 1.6 46.17 60.292 5.267 0 0 0
2202 2129 3 1.6 46.17 60.292 8.367 0 0 0
3185 2130 3 1.6 46.17 57.369 13.533 0 0 0
3187 2131 3 1.6 46.17 57.369 16.633 0 0 0
3189 2132 3 1.6 46.17 60.292 17.667 0 0 0
3695 2133 3 1.6 46.17 60.292 20.767 0 0 0
4299 2134 3 1.6 46.17 57.369 25.933 0 0 0
4301 2135 3 1.6 46.17 57.369 29.033 0 0 0
4790 2136 3 1.6 46.17 60.292 30.067 0 0 0
4792 2137 3 1.6 46.17 60.292 33.167 0 0 0
5301 2138 3 1.6 46.17 57.369 38.333 0 0 0
5303 2139 3 1.6 46.17 57.369 41.433 0 0 0
6119 2140 3 1.6 46.17 60.292 42.467 0 0 0
6121 2141 3 1.6 46.17 60.292 45.567 0 0 0
7112 2142 3 1.6 46.17 57.369 50.733 0 0 0
7114 2143 3 1.6 46.17 57.369 53.833 0 0 0
8317 2144 3 1.6 46.17 60.292 54.867 0 0 0
8319 2145 3 1.6 46.17 60.292 57.967 0 0 0
172 2146 3 1.6 48.701 0.365 1.133 0 0 0
7635 8405 1 -0.8 48.701 22.289 58.483 0 0 0
174 2148 3 1.6 48.701 0.365 4.233 0 0 0
176 2149 3 1.6 48.701 3.288 5.267 0 0 0
1473 2150 3 1.6 48.701 3.288 8.367 0 0 0
1479 2151 3 1.6 51.23 1.826 9.4 0 0 0
2405 2152 3 1.6 48.701 0.365 13.533 0 0 0
2414 2153 3 1.6 51.23 1.826 12.5 0 0 0
2407 2154 3 1.6 48.701 0.365 16.633 0 0 0
2409 2155 3 1.6 48.701 3.288 17.667 0 0 0
3324 2156 3 1.6 48.701 3.288 20.767 0 0 0
3330 2157 3 1.6 51.23 1.826 21.8 0 0 0
3889 2158 3 1.6 48.701 0.365 25.933 0 0 0
3897 2159 3 1.6 51.23 1.826 24.9 0 0 0
3891 2160 3 1.6 48.701 0.365 29.033 0 0 0
4440 2161 3 1.6 48.701 3.288 30.067 0 0 0
4442 2162 3 1.6 48.701 3.288 33.167 0 0 0
4448 2163 3 1.6 51.23 1.826 34.2 0 0 0
4953 2164 3 1.6 48.701 0.365 38.333 0 0 0
4959 2165 3 1.6 51.23 1.826 37.3 0 0 0
4955 2166 3 1.6 48.701 0.365 41.433 0 0 0
5447 2167 3 1.6 48.701 3.288 42.467 0 0 0
5449 2168 3 1.6 48.701 3.288 45.567 0 0 0
5455 2169 3 1.6 51.23 1.826 46.6 0 0 0
6312 2170 3 1.6 48.701 0.365 50.733 0 0 0
6320 2171 3 1.6 51.23 1.826 49.7 0 0 0
6314 2172 3 1.6 48.701 0.365 53.833 0 0 0
7261 2173 3 1.6 48.701 3.288 54.867 0 0 0
7263 2174 3 1.6 48.701 3.288 57.967 0 0 0
7269 2175 3 1.6 51.23 1.826 59 0 0 0
7639 8404 1 -0.8 49.967 24.481 58.483 0 0 0
183 2177 3 1.6 51.23 4.749 1.133 0 0 0
185 2178 3 1.6 51.23 4.749 4.233 0 0 0
347 2179 3 1.6 51.23 7.672 5.267 0 0 0
1475 2180 3 1.6 48.701 6.21 9.4 0 0 0
1605 2181 3 1.6 51.23 7.672 8.367 0 0 0
2410 2182 3 1.6 48.701 6.21 12.5 0 0 0
2416 2183 3 1.6 51.23 4.749 13.533 0 0 0
2418 2184 3 1.6 51.23 4.749 16.633 0 0 0
2580 2185 3 1.6 51.23 7.672 17.667 0 0 0
3326 2186 3 1.6 48.701 6.21 21.8 0 0 0
3458 2187 3 1.6 51.23 7.672 20.767 0 0 0
3893 2188 3 1.6 48.701 6.21 24.9 0 0 0
3899 2189 3 1.6 51.23 4.749 25.933 0 0 0
3901 2190 3 1.6 51.23 4.749 29.033 0 0 0
4549 2191 3 1.6 51.23 7.672 30.067 0 0 0
4444 2192 3 1.6 48.701 6.21 34.2 0 0 0
4551 2193 3 1.6 51.23 7.672 33.167 0 0 0
4956 2194 3 1.6 48.701 6.21 37.3 0 0 0
4961 2195 3 1.6 51.23 4.749 38.333 0 0 0
4963 2196 3 1.6 51.23 4.749 41.433 0 0 0
5624 2197 3 1.6 51.23 7.672 42.467 0 0 0
5451 2198 3 1.6 48.701 6.21 46.6 0 0 0
5626 2199 3 1.6 51.23 7.672 45.567 0 0 0
6316 2200 3 1.6 48.701 6.21 49.7 0 0 0
6322 2201 3 1.6 51.23 4.749 50.733 0 0 0
6324 2202 3 1.6 51.23 4.749 53.833 0 0 0
7436 2203 3 1.6 51.23 7.672 54.867 0 0 0
7265 2204 3 1.6 48.701 6.21 59 0 0 0
7438 2205 3 1.6 51.23 7.672 57.967 0 0 0
340 2206 3 1.6 48.701 9.135 1.133 0 0 0
7643 8403 1 -0.8 52.496 21.558 54.35 0 0 0
342 2208 3 1.6 48.701 9.135 4.233 0 0 0
1607 2209 3 1.6 51.23 10.596 9.4 0 0 0
2573 2210 3 1.6 48.701 9.135 13.533 0 0 0
2581 2211 3 1.6 51.23 10.596 12.5 0 0 0
2575 2212 3 1.6 48.701 9.135 16.633 0 0 0
3460 2213 3 1.6 51.23 10.596 21.8 0 0 0
4023 2214 3 1.6 48.701 9.135 25.933 0 0 0
4029 2215 3 1.6 51.23 10.596 24.9 0 0 0
4025 2216 3 1.6 48.701 9.135 29.033 0 0 0
4553 2217 3 1.6 51.23 10.596 34.2 0 0 0
5062 2218 3 1.6 48.701 9.135 38.333 0 0 0
5066 2219 3 1.6 51.23 10.596 37.3 0 0 0
5064 2220 3 1.6 48.701 9.135 41.433 0 0 0
5628 2221 3 1.6 51.23 10.596 46.6 0 0 0
6440 2222 3 1.6 48.701 9.135 50.733 0 0 0
6445 2223 3 1.6 51.23 10.596 49.7 0 0 0
6442 2224 3 1.6 48.701 9.135 53.833 0 0 0
7440 2225 3 1.6 51.23 10.596 59 0 0 0
7641 8402 1 -0.8 51.23 23.75 54.35 0 0 0
483 2227 3 1.6 51.23 13.519 1.133 0 0 0
344 2228 3 1.6 48.701 12.058 5.267 0 0 0
485 2229 3 1.6 51.23 13.519 4.233 0 0 0
1679 2230 3 1.6 48.701 14.98 9.4 0 0 0
1601 2231 3 1.6 48.701 12.058 8.367 0 0 0
2686 2232 3 1.6 48.701 14.98 12.5 0 0 0
2691 2233 3 1.6 51.23 13.519 13.533 0 0 0
2577 2234 3 1.6 48.701 12.058 17.667 0 0 0
2693 2235 3 1.6 51.23 13.519 16.633 0 0 0
1096 10128 2 0.4 26.447 48.953 5.267 0 0 0
3454 2237 3 1.6 48.701 12.058 20.767 0 0 0
1095 10128 1 -0.8 26.254 49.914 5.267 0 0 0
1093 10128 3 1.6 25.93 51.522 5.267 0 0 0
7525 10127 2 0.4 26.471 13.16 59 0 0 0
7374 10127 1 -0.8 26.269 12.201 59 0 0 0
7373 10127 3 1.6 25.93 10.596 59 0 0 0
6511 10126 2 0.4 26.471 13.16 49.7 0 0 0
6396 10126 1 -0.8 26.269 12.201 49.7 0 0 0
6395 10126 3 1.6 25.93 10.596 49.7 0 0 0
5618 2246 3 1.6 48.701 12.058 42.467 0 0 0
5089 2247 3 1.6 51.23 13.519 41.433 0 0 0
5711 2248 3 1.6 48.701 14.98 46.6 0 0 0
5620 2249 3 1.6 48.701 12.058 45.567 0 0 0
6531 2250 3 1.6 48.701 14.98 49.7 0 0 0
6537 2251 3 1.6 51.23 13.519 50.733 0 0 0
7430 2252 3 1.6 48.701 12.058 54.867 0 0 0
6539 2253 3 1.6 51.23 13.519 53.833 0 0 0
7552 2254 3 1.6 48.701 14.98 59 0 0 0
7432 2255 3 1.6 48.701 12.058 57.967 0 0 0
477 2256 3 1.6 48.701 17.905 1.133 0 0 0
7633 8401 1 -0.8 48.701 20.828 56.417 0 0 0
487 2258 3 1.6 51.23 16.442 5.267 0 0 0
479 2259 3 1.6 48.701 17.905 4.233 0 0 0
1683 2260 3 1.6 51.23 16.442 8.367 0 0 0
1742 2261 3 1.6 51.23 19.366 9.4 0 0 0
2688 2262 3 1.6 48.701 17.905 13.533 0 0 0
2728 2263 3 1.6 51.23 19.366 12.5 0 0 0
5025 10125 3 1.6 25.93 10.596 37.3 0 0 0
4513 10124 3 1.6 25.93 10.596 34.2 0 0 0
3981 10123 3 1.6 25.93 10.596 24.9 0 0 0
3409 10122 1 -0.8 26.269 12.201 21.8 0 0 0
3407 10122 3 1.6 25.93 10.596 21.8 0 0 0
1662 10121 2 0.4 26.471 13.16 9.4 0 0 0
1558 10121 1 -0.8 26.269 12.201 9.4 0 0 0
1556 10121 3 1.6 25.93 10.596 9.4 0 0 0
445 10120 2 0.4 26.471 13.16 0.1 0 0 0
284 10120 1 -0.8 26.269 12.201 0.1 0 0 0
7638 8400 1 -0.8 49.967 21.558 54.35 0 0 0
5155 10119 3 1.6 23.401 50.06 37.3 0 0 0
938 10118 2 0.4 24.258 47.585 0.1 0 0 0
937 10118 1 -0.8 23.938 48.511 0.1 0 0 0
5714 2278 3 1.6 51.23 16.442 45.567 0 0 0
6607 8399 1 -0.8 51.23 22.289 52.283 0 0 0
6533 2280 3 1.6 48.701 17.905 50.733 0 0 0
6604 2281 3 1.6 51.23 19.366 49.7 0 0 0
7557 2282 3 1.6 51.23 16.442 54.867 0 0 0
6535 2283 3 1.6 48.701 17.905 53.833 0 0 0
7559 2284 3 1.6 51.23 16.442 57.967 0 0 0
7640 2285 3 1.6 51.23 19.366 59 0 0 0
578 2286 3 1.6 51.23 22.289 1.133 0 0 0
580 2287 3 1.6 51.23 22.289 4.233 0 0 0
1736 2288 3 1.6 48.701 20.828 8.367 0 0 0
7958 10117 2 0.4 24.258 47.585 59 0 0 0
7957 10117 1 -0.8 23.938 48.511 59 0 0 0
8073 10117 3 1.6 23.401 50.06 59 0 0 0
6828 10116 2 0.4 22.069 46.269 53.833 0 0 0
6826 10116 1 -0.8 21.62 47.141 53.833 0 0 0
6824 10116 3 1.6 20.87 48.599 53.833 0 0 0
6827 10115 2 0.4 22.069 46.269 50.733 0 0 0
6825 10115 1 -0.8 21.62 47.141 50.733 0 0 0
6822 10115 3 1.6 20.87 48.599 50.733 0 0 0
6606 2298 3 1.6 51.23 22.289 50.733 0 0 0
6608 2299 3 1.6 51.23 22.289 53.833 0 0 0
7634 2300 3 1.6 48.701 20.828 57.967 0 0 0
656 2301 3 1.6 51.23 25.212 5.267 0 0 0
1792 2302 3 1.6 51.23 25.212 8.367 0 0 0
5773 10114 2 0.4 24.258 47.585 46.6 0 0 0
5772 10114 1 -0.8 23.938 48.511 46.6 0 0 0
5875 10114 3 1.6 23.401 50.06 46.6 0 0 0
5100 10113 3 1.6 20.87 48.599 41.433 0 0 0
3529 10109 3 1.6 23.401 50.06 21.8 0 0 0
2803 10108 2 0.4 22.069 46.269 16.633 0 0 0
7715 2309 3 1.6 51.23 25.212 54.867 0 0 0
7717 2310 3 1.6 51.23 25.212 57.967 0 0 0
6610 8398 1 -0.8 52.496 23.02 50.217 0 0 0
2801 10108 1 -0.8 21.62 47.141 16.633 0 0 0
2799 10108 3 1.6 20.87 48.599 16.633 0 0 0
2802 10107 2 0.4 22.069 46.269 13.533 0 0 0
2800 10107 1 -0.8 21.62 47.141 13.533 0 0 0
750 2316 3 1.6 51.23 33.982 5.267 0 0 0
2797 10107 3 1.6 20.87 48.599 13.533 0 0 0
1957 10106 2 0.4 24.258 47.585 9.4 0 0 0
1956 10106 1 -0.8 23.938 48.511 9.4 0 0 0
7783 2320 3 1.6 51.23 33.982 54.867 0 0 0
6602 8397 1 -0.8 49.967 23.02 50.217 0 0 0
842 2322 3 1.6 51.23 39.829 1.133 0 0 0
844 2323 3 1.6 51.23 39.829 4.233 0 0 0
1896 2324 3 1.6 51.23 36.906 9.4 0 0 0
2036 10106 3 1.6 23.401 50.06 9.4 0 0 0
936 10105 2 0.4 22.069 46.269 4.233 0 0 0
934 10105 1 -0.8 21.62 47.141 4.233 0 0 0
932 10105 3 1.6 20.87 48.599 4.233 0 0 0
935 10104 2 0.4 22.069 46.269 1.133 0 0 0
933 10104 1 -0.8 21.62 47.141 1.133 0 0 0
930 10104 3 1.6 20.87 48.599 1.133 0 0 0
7524 10103 2 0.4 24.298 14.519 57.967 0 0 0
7523 10103 1 -0.8 23.963 13.599 57.967 0 0 0
7365 10103 3 1.6 23.401 12.058 57.967 0 0 0
6510 10102 2 0.4 22.122 15.821 53.833 0 0 0
6508 10102 1 -0.8 21.654 14.96 53.833 0 0 0
6760 2337 3 1.6 51.23 36.906 49.7 0 0 0
6762 2338 3 1.6 51.23 39.829 50.733 0 0 0
6764 2339 3 1.6 51.23 39.829 53.833 0 0 0
7871 2340 3 1.6 51.23 36.906 59 0 0 0
846 2341 3 1.6 51.23 42.752 5.267 0 0 0
1892 2342 3 1.6 48.701 41.29 9.4 0 0 0
1899 2343 3 1.6 51.23 42.752 8.367 0 0 0
6506 10102 3 1.6 20.87 13.519 53.833 0 0 0
6509 10101 2 0.4 22.122 15.821 50.733 0 0 0
6507 10101 1 -0.8 21.654 14.96 50.733 0 0 0
6504 10101 3 1.6 20.87 13.519 50.733 0 0 0
5691 10100 2 0.4 24.298 14.519 45.567 0 0 0
5689 10100 1 -0.8 23.963 13.599 45.567 0 0 0
5551 10100 3 1.6 23.401 12.058 45.567 0 0 0
5086 10099 3 1.6 20.87 13.519 41.433 0 0 0
5690 10098 2 0.4 24.298 14.519 42.467 0 0 0
7873 2353 3 1.6 51.23 42.752 54.867 0 0 0
7867 2354 3 1.6 48.701 41.29 59 0 0 0
7875 2355 3 1.6 51.23 42.752 57.967 0 0 0
979 2356 3 1.6 48.701 44.215 1.133 0 0 0
6642 8396 1 -0.8 48.701 25.212 50.217 0 0 0
981 2358 3 1.6 48.701 44.215 4.233 0 0 0
983 2359 3 1.6 48.701 47.138 5.267 0 0 0
1975 2360 3 1.6 48.701 47.138 8.367 0 0 0
1979 2361 3 1.6 51.23 45.676 9.4 0 0 0
2841 2362 3 1.6 48.701 44.215 13.533 0 0 0
2846 2363 3 1.6 51.23 45.676 12.5 0 0 0
5688 10098 1 -0.8 23.963 13.599 42.467 0 0 0
2843 2365 3 1.6 48.701 47.138 17.667 0 0 0
5549 10098 3 1.6 23.401 12.058 42.467 0 0 0
2656 10093 2 0.4 22.122 15.821 16.633 0 0 0
2654 10093 1 -0.8 21.654 14.96 16.633 0 0 0
2652 10093 3 1.6 20.87 13.519 16.633 0 0 0
2659 10092 2 0.4 24.298 14.519 17.667 0 0 0
2658 10092 1 -0.8 23.963 13.599 17.667 0 0 0
2512 10092 3 1.6 23.401 12.058 17.667 0 0 0
2655 10091 2 0.4 22.122 15.821 13.533 0 0 0
2653 10091 1 -0.8 21.654 14.96 13.533 0 0 0
2650 10091 3 1.6 20.87 13.519 13.533 0 0 0
441 10090 2 0.4 22.122 15.821 4.233 0 0 0
5793 2377 3 1.6 48.701 47.138 42.467 0 0 0
5795 2378 3 1.6 48.701 47.138 45.567 0 0 0
5800 2379 3 1.6 51.23 45.676 46.6 0 0 0
6863 2380 3 1.6 48.701 44.215 50.733 0 0 0
6868 2381 3 1.6 51.23 45.676 49.7 0 0 0
6865 2382 3 1.6 48.701 44.215 53.833 0 0 0
7984 2383 3 1.6 48.701 47.138 54.867 0 0 0
7986 2384 3 1.6 48.701 47.138 57.967 0 0 0
7992 2385 3 1.6 51.23 45.676 59 0 0 0
6756 8616 1 -0.8 48.701 41.29 48.15 0 0 0
989 2387 3 1.6 51.23 48.599 1.133 0 0 0
991 2388 3 1.6 51.23 48.599 4.233 0 0 0
1169 2389 3 1.6 51.23 51.522 5.267 0 0 0
2081 2390 3 1.6 48.701 50.06 9.4 0 0 0
2085 2391 3 1.6 51.23 51.522 8.367 0 0 0
3010 2392 3 1.6 48.701 50.06 12.5 0 0 0
2848 2393 3 1.6 51.23 48.599 13.533 0 0 0
2850 2394 3 1.6 51.23 48.599 16.633 0 0 0
3020 2395 3 1.6 51.23 51.522 17.667 0 0 0
3574 2396 3 1.6 48.701 50.06 21.8 0 0 0
3578 2397 3 1.6 51.23 51.522 20.767 0 0 0
4151 2398 3 1.6 48.701 50.06 24.9 0 0 0
439 10090 1 -0.8 21.654 14.96 4.233 0 0 0
437 10090 3 1.6 20.87 13.519 4.233 0 0 0
4655 2401 3 1.6 51.23 51.522 30.067 0 0 0
444 10089 2 0.4 24.298 14.519 5.267 0 0 0
4657 2403 3 1.6 51.23 51.522 33.167 0 0 0
5201 2404 3 1.6 48.701 50.06 37.3 0 0 0
443 10089 1 -0.8 23.963 13.599 5.267 0 0 0
5109 2406 3 1.6 51.23 48.599 41.433 0 0 0
5942 2407 3 1.6 51.23 51.522 42.467 0 0 0
5937 2408 3 1.6 48.701 50.06 46.6 0 0 0
5944 2409 3 1.6 51.23 51.522 45.567 0 0 0
6999 2410 3 1.6 48.701 50.06 49.7 0 0 0
6870 2411 3 1.6 51.23 48.599 50.733 0 0 0
6872 2412 3 1.6 51.23 48.599 53.833 0 0 0
8140 2413 3 1.6 51.23 51.522 54.867 0 0 0
8135 2414 3 1.6 48.701 50.06 59 0 0 0
8142 2415 3 1.6 51.23 51.522 57.967 0 0 0
1161 2416 3 1.6 48.701 52.985 1.133 0 0 0
5799 8617 1 -0.8 51.23 44.215 46.083 0 0 0
1163 2418 3 1.6 48.701 52.985 4.233 0 0 0
1342 2419 3 1.6 48.701 55.908 5.267 0 0 0
2206 2420 3 1.6 48.701 55.908 8.367 0 0 0
2087 2421 3 1.6 51.23 54.446 9.4 0 0 0
3012 2422 3 1.6 48.701 52.985 13.533 0 0 0
3021 2423 3 1.6 51.23 54.446 12.5 0 0 0
3014 2424 3 1.6 48.701 52.985 16.633 0 0 0
3193 2425 3 1.6 48.701 55.908 17.667 0 0 0
3699 2426 3 1.6 48.701 55.908 20.767 0 0 0
3580 2427 3 1.6 51.23 54.446 21.8 0 0 0
4153 2428 3 1.6 48.701 52.985 25.933 0 0 0
4159 2429 3 1.6 51.23 54.446 24.9 0 0 0
4155 2430 3 1.6 48.701 52.985 29.033 0 0 0
4795 2431 3 1.6 48.701 55.908 30.067 0 0 0
4797 2432 3 1.6 48.701 55.908 33.167 0 0 0
4659 2433 3 1.6 51.23 54.446 34.2 0 0 0
5203 2434 3 1.6 48.701 52.985 38.333 0 0 0
5208 2435 3 1.6 51.23 54.446 37.3 0 0 0
5205 2436 3 1.6 48.701 52.985 41.433 0 0 0
6126 2437 3 1.6 48.701 55.908 42.467 0 0 0
6128 2438 3 1.6 48.701 55.908 45.567 0 0 0
5946 2439 3 1.6 51.23 54.446 46.6 0 0 0
7001 2440 3 1.6 48.701 52.985 50.733 0 0 0
7007 2441 3 1.6 51.23 54.446 49.7 0 0 0
7003 2442 3 1.6 48.701 52.985 53.833 0 0 0
8324 2443 3 1.6 48.701 55.908 54.867 0 0 0
8326 2444 3 1.6 48.701 55.908 57.967 0 0 0
8144 2445 3 1.6 51.23 54.446 59 0 0 0
6758 8619 1 -0.8 48.701 42.752 50.217 0 0 0
1349 2447 3 1.6 51.23 57.369 1.133 0 0 0
1351 2448 3 1.6 51.23 57.369 4.233 0 0 0
1353 2449 3 1.6 51.23 60.292 5.267 0 0 0
2208 2450 3 1.6 48.701 58.83 9.4 0 0 0
2213 2451 3 1.6 51.23 60.292 8.367 0 0 0
3194 2452 3 1.6 48.701 58.83 12.5 0 0 0
3200 2453 3 1.6 51.23 57.369 13.533 0 0 0
3202 2454 3 1.6 51.23 57.369 16.633 0 0 0
3204 2455 3 1.6 51.23 60.292 17.667 0 0 0
3701 2456 3 1.6 48.701 58.83 21.8 0 0 0
3706 2457 3 1.6 51.23 60.292 20.767 0 0 0
4306 2458 3 1.6 48.701 58.83 24.9 0 0 0
4312 2459 3 1.6 51.23 57.369 25.933 0 0 0
4314 2460 3 1.6 51.23 57.369 29.033 0 0 0
4803 2461 3 1.6 51.23 60.292 30.067 0 0 0
4799 2462 3 1.6 48.701 58.83 34.2 0 0 0
4805 2463 3 1.6 51.23 60.292 33.167 0 0 0
5305 2464 3 1.6 48.701 58.83 37.3 0 0 0
5309 2465 3 1.6 51.23 57.369 38.333 0 0 0
5311 2466 3 1.6 51.23 57.369 41.433 0 0 0
6136 2467 3 1.6 51.23 60.292 42.467 0 0 0
6130 2468 3 1.6 48.701 58.83 46.6 0 0 0
6138 2469 3 1.6 51.23 60.292 45.567 0 0 0
7117 2470 3 1.6 48.701 58.83 49.7 0 0 0
7121 2471 3 1.6 51.23 57.369 50.733 0 0 0
7123 2472 3 1.6 51.23 57.369 53.833 0 0 0
8334 2473 3 1.6 51.23 60.292 54.867 0 0 0
8328 2474 3 1.6 48.701 58.83 59 0 0 0
8336 2475 3 1.6 51.23 60.292 57.967 0 0 0
190 2476 3 1.6 53.761 0.365 1.133 0 0 0
192 2477 3 1.6 53.761 0.365 4.233 0 0 0
194 2478 3 1.6 53.761 3.288 5.267 0 0 0
1483 2479 3 1.6 53.761 3.288 8.367 0 0 0
2423 2480 3 1.6 53.761 0.365 13.533 0 0 0
2425 2481 3 1.6 53.761 0.365 16.633 0 0 0
2427 2482 3 1.6 53.761 3.288 17.667 0 0 0
3334 2483 3 1.6 53.761 3.288 20.767 0 0 0
3906 2484 3 1.6 53.761 0.365 25.933 0 0 0
3908 2485 3 1.6 53.761 0.365 29.033 0 0 0
4451 2486 3 1.6 53.761 3.288 30.067 0 0 0
4453 2487 3 1.6 53.761 3.288 33.167 0 0 0
4966 2488 3 1.6 53.761 0.365 38.333 0 0 0
4968 2489 3 1.6 53.761 0.365 41.433 0 0 0
5460 2490 3 1.6 53.761 3.288 42.467 0 0 0
5462 2491 3 1.6 53.761 3.288 45.567 0 0 0
6327 2492 3 1.6 53.761 0.365 50.733 0 0 0
6329 2493 3 1.6 53.761 0.365 53.833 0 0 0
7274 2494 3 1.6 53.761 3.288 54.867 0 0 0
7276 2495 3 1.6 53.761 3.288 57.967 0 0 0
7988 8620 1 -0.8 49.967 43.482 54.35 0 0 0
1485 2497 3 1.6 53.761 6.21 9.4 0 0 0
2428 2498 3 1.6 53.761 6.21 12.5 0 0 0
3336 2499 3 1.6 53.761 6.21 21.8 0 0 0
3910 2500 3 1.6 53.761 6.21 24.9 0 0 0
4455 2501 3 1.6 53.761 6.21 34.2 0 0 0
4969 2502 3 1.6 53.761 6.21 37.3 0 0 0
5464 2503 3 1.6 53.761 6.21 46.6 0 0 0
6331 2504 3 1.6 53.761 6.21 49.7 0 0 0
7278 2505 3 1.6 53.761 6.21 59 0 0 0
353 2506 3 1.6 53.761 9.135 1.133 0 0 0
355 2507 3 1.6 53.761 9.135 4.233 0 0 0
2586 2508 3 1.6 53.761 9.135 13.533 0 0 0
2588 2509 3 1.6 53.761 9.135 16.633 0 0 0
4033 2510 3 1.6 53.761 9.135 25.933 0 0 0
4035 2511 3 1.6 53.761 9.135 29.033 0 0 0
5070 2512 3 1.6 53.761 9.135 38.333 0 0 0
5072 2513 3 1.6 53.761 9.135 41.433 0 0 0
6449 2514 3 1.6 53.761 9.135 50.733 0 0 0
6451 2515 3 1.6 53.761 9.135 53.833 0 0 0
7993 8621 1 -0.8 52.496 43.482 54.35 0 0 0
357 2517 3 1.6 53.761 12.058 5.267 0 0 0
1687 2518 3 1.6 53.761 14.98 9.4 0 0 0
1612 2519 3 1.6 53.761 12.058 8.367 0 0 0
2697 2520 3 1.6 53.761 14.98 12.5 0 0 0
2590 2521 3 1.6 53.761 12.058 17.667 0 0 0
279 10089 3 1.6 23.401 12.058 5.267 0 0 0
3465 2523 3 1.6 53.761 12.058 20.767 0 0 0
440 10088 2 0.4 22.122 15.821 1.133 0 0 0
438 10088 1 -0.8 21.654 14.96 1.133 0 0 0
435 10088 3 1.6 20.87 13.519 1.133 0 0 0
7956 10087 2 0.4 19.862 45.004 57.967 0 0 0
7953 10087 1 -0.8 19.293 45.802 57.967 0 0 0
5633 2529 3 1.6 53.761 12.058 42.467 0 0 0
5719 2530 3 1.6 53.761 14.98 46.6 0 0 0
5635 2531 3 1.6 53.761 12.058 45.567 0 0 0
6542 2532 3 1.6 53.761 14.98 49.7 0 0 0
7445 2533 3 1.6 53.761 12.058 54.867 0 0 0
7565 2534 3 1.6 53.761 14.98 59 0 0 0
7447 2535 3 1.6 53.761 12.058 57.967 0 0 0
493 2536 3 1.6 53.761 17.905 1.133 0 0 0
495 2537 3 1.6 53.761 17.905 4.233 0 0 0
2699 2538 3 1.6 53.761 17.905 13.533 0 0 0
7950 10087 3 1.6 18.341 47.138 57.967 0 0 0
7955 10086 2 0.4 19.862 45.004 54.867 0 0 0
7952 10086 1 -0.8 19.293 45.802 54.867 0 0 0
7948 10086 3 1.6 18.341 47.138 54.867 0 0 0
5771 10085 2 0.4 19.862 45.004 45.567 0 0 0
6544 2544 3 1.6 53.761 17.905 50.733 0 0 0
6546 2545 3 1.6 53.761 17.905 53.833 0 0 0
7874 8622 1 -0.8 51.23 42.752 56.417 0 0 0
586 2547 3 1.6 53.761 20.828 5.267 0 0 0
1749 2548 3 1.6 53.761 23.75 9.4 0 0 0
1747 2549 3 1.6 53.761 20.828 8.367 0 0 0
5769 10085 1 -0.8 19.293 45.802 45.567 0 0 0
5767 10085 3 1.6 18.341 47.138 45.567 0 0 0
5765 10084 3 1.6 18.341 47.138 42.467 0 0 0
929 10082 2 0.4 19.862 45.004 5.267 0 0 0
927 10082 1 -0.8 19.293 45.802 5.267 0 0 0
926 10082 3 1.6 18.341 47.138 5.267 0 0 0
7519 10081 2 0.4 19.923 17.069 59 0 0 0
7517 10081 1 -0.8 19.331 16.288 59 0 0 0
7516 10081 3 1.6 18.341 14.98 59 0 0 0
6503 10080 2 0.4 19.923 17.069 49.7 0 0 0
6501 10080 1 -0.8 19.331 16.288 49.7 0 0 0
6500 10080 3 1.6 18.341 14.98 49.7 0 0 0
6611 2562 3 1.6 53.761 23.75 49.7 0 0 0
7646 2563 3 1.6 53.761 20.828 54.867 0 0 0
7650 2564 3 1.6 53.761 23.75 59 0 0 0
7648 2565 3 1.6 53.761 20.828 57.967 0 0 0
663 2566 3 1.6 53.761 26.675 1.133 0 0 0
665 2567 3 1.6 53.761 26.675 4.233 0 0 0
5686 10079 2 0.4 19.923 17.069 46.6 0 0 0
5684 10079 1 -0.8 19.331 16.288 46.6 0 0 0
5683 10079 3 1.6 18.341 14.98 46.6 0 0 0
2649 10075 2 0.4 19.923 17.069 12.5 0 0 0
2646 10075 1 -0.8 19.331 16.288 12.5 0 0 0
2645 10075 3 1.6 18.341 14.98 12.5 0 0 0
6649 2574 3 1.6 53.761 26.675 50.733 0 0 0
6651 2575 3 1.6 53.761 26.675 53.833 0 0 0
667 2576 3 1.6 53.761 29.598 5.267 0 0 0
1797 2577 3 1.6 53.761 29.598 8.367 0 0 0
1659 10074 2 0.4 19.923 17.069 9.4 0 0 0
1658 10074 1 -0.8 19.331 16.288 9.4 0 0 0
1656 10074 3 1.6 18.341 14.98 9.4 0 0 0
434 10073 2 0.4 19.923 17.069 0.1 0 0 0
431 10073 1 -0.8 19.331 16.288 0.1 0 0 0
7870 8623 1 -0.8 49.967 42.021 58.483 0 0 0
7724 2584 3 1.6 53.761 29.598 54.867 0 0 0
7726 2585 3 1.6 53.761 29.598 57.967 0 0 0
7991 8624 1 -0.8 51.23 44.215 58.483 0 0 0
756 2587 3 1.6 53.761 35.445 1.133 0 0 0
758 2588 3 1.6 53.761 35.445 4.233 0 0 0
1835 2589 3 1.6 53.761 32.52 9.4 0 0 0
2794 10070 2 0.4 17.614 43.776 12.5 0 0 0
2792 10070 1 -0.8 16.939 44.487 12.5 0 0 0
2787 10070 3 1.6 15.81 45.676 12.5 0 0 0
5764 10069 2 0.4 17.614 43.776 46.6 0 0 0
5761 10069 1 -0.8 16.939 44.487 46.6 0 0 0
5760 10069 3 1.6 15.81 45.676 46.6 0 0 0
821 10065 2 0.4 15.318 42.567 4.233 0 0 0
917 10065 1 -0.8 14.556 43.184 4.233 0 0 0
912 10065 3 1.6 13.281 44.215 4.233 0 0 0
6749 10064 2 0.4 15.492 39.885 49.7 0 0 0
6748 10064 1 -0.8 14.665 40.411 49.7 0 0 0
6746 10064 3 1.6 13.281 41.29 49.7 0 0 0
2741 10061 2 0.4 15.492 39.885 12.5 0 0 0
6704 2603 3 1.6 53.761 35.445 50.733 0 0 0
6706 2604 3 1.6 53.761 35.445 53.833 0 0 0
7790 2605 3 1.6 53.761 32.52 59 0 0 0
850 2606 3 1.6 53.761 38.368 5.267 0 0 0
1903 2607 3 1.6 53.761 38.368 8.367 0 0 0
2740 10061 1 -0.8 14.665 40.411 12.5 0 0 0
2738 10061 3 1.6 13.281 41.29 12.5 0 0 0
822 10060 2 0.4 15.492 39.885 0.1 0 0 0
820 10060 1 -0.8 14.665 40.411 0.1 0 0 0
7878 8625 1 -0.8 52.496 42.021 58.483 0 0 0
7622 10059 2 0.4 15.55 22.138 54.867 0 0 0
7880 2614 3 1.6 53.761 38.368 54.867 0 0 0
7882 2615 3 1.6 53.761 38.368 57.967 0 0 0
985 8626 1 -0.8 49.967 44.946 0.617 0 0 0
1905 2617 3 1.6 53.761 41.29 9.4 0 0 0
2747 2618 3 1.6 53.761 41.29 12.5 0 0 0
7619 10059 1 -0.8 14.701 21.648 54.867 0 0 0
7615 10059 3 1.6 13.281 20.828 54.867 0 0 0
560 10055 2 0.4 15.55 22.138 5.267 0 0 0
558 10055 1 -0.8 14.701 21.648 5.267 0 0 0
556 10055 3 1.6 13.281 20.828 5.267 0 0 0
6767 2624 3 1.6 53.761 41.29 49.7 0 0 0
7884 2625 3 1.6 53.761 41.29 59 0 0 0
995 2626 3 1.6 53.761 44.215 1.133 0 0 0
997 2627 3 1.6 53.761 44.215 4.233 0 0 0
999 2628 3 1.6 53.761 47.138 5.267 0 0 0
1983 2629 3 1.6 53.761 47.138 8.367 0 0 0
2853 2630 3 1.6 53.761 44.215 13.533 0 0 0
7514 10054 2 0.4 17.676 18.281 57.967 0 0 0
2855 2632 3 1.6 53.761 47.138 17.667 0 0 0
7511 10054 1 -0.8 16.978 17.593 57.967 0 0 0
7508 10054 3 1.6 15.81 16.442 57.967 0 0 0
6591 10053 2 0.4 15.376 19.478 50.733 0 0 0
6590 10053 1 -0.8 14.592 18.89 50.733 0 0 0
6491 10053 3 1.6 13.281 17.905 50.733 0 0 0
5679 10052 1 -0.8 16.978 17.593 45.567 0 0 0
5678 10052 3 1.6 15.81 16.442 45.567 0 0 0
5803 2640 3 1.6 53.761 47.138 42.467 0 0 0
5805 2641 3 1.6 53.761 47.138 45.567 0 0 0
6874 2642 3 1.6 53.761 44.215 50.733 0 0 0
6876 2643 3 1.6 53.761 44.215 53.833 0 0 0
7997 2644 3 1.6 53.761 47.138 54.867 0 0 0
7999 2645 3 1.6 53.761 47.138 57.967 0 0 0
980 8627 1 -0.8 48.701 44.215 2.683 0 0 0
2090 2647 3 1.6 53.761 50.06 9.4 0 0 0
3025 2648 3 1.6 53.761 50.06 12.5 0 0 0
3583 2649 3 1.6 53.761 50.06 21.8 0 0 0
4162 2650 3 1.6 53.761 50.06 24.9 0 0 0
2722 10048 2 0.4 15.376 19.478 13.533 0 0 0
5211 2652 3 1.6 53.761 50.06 37.3 0 0 0
5949 2653 3 1.6 53.761 50.06 46.6 0 0 0
7011 2654 3 1.6 53.761 50.06 49.7 0 0 0
8147 2655 3 1.6 53.761 50.06 59 0 0 0
1176 2656 3 1.6 53.761 52.985 1.133 0 0 0
1178 2657 3 1.6 53.761 52.985 4.233 0 0 0
1357 2658 3 1.6 53.761 55.908 5.267 0 0 0
2217 2659 3 1.6 53.761 55.908 8.367 0 0 0
3027 2660 3 1.6 53.761 52.985 13.533 0 0 0
3029 2661 3 1.6 53.761 52.985 16.633 0 0 0
3208 2662 3 1.6 53.761 55.908 17.667 0 0 0
3710 2663 3 1.6 53.761 55.908 20.767 0 0 0
4164 2664 3 1.6 53.761 52.985 25.933 0 0 0
4166 2665 3 1.6 53.761 52.985 29.033 0 0 0
4808 2666 3 1.6 53.761 55.908 30.067 0 0 0
4810 2667 3 1.6 53.761 55.908 33.167 0 0 0
5213 2668 3 1.6 53.761 52.985 38.333 0 0 0
5215 2669 3 1.6 53.761 52.985 41.433 0 0 0
6143 2670 3 1.6 53.761 55.908 42.467 0 0 0
6145 2671 3 1.6 53.761 55.908 45.567 0 0 0
7013 2672 3 1.6 53.761 52.985 50.733 0 0 0
7015 2673 3 1.6 53.761 52.985 53.833 0 0 0
8341 2674 3 1.6 53.761 55.908 54.867 0 0 0
8343 2675 3 1.6 53.761 55.908 57.967 0 0 0
987 8628 1 -0.8 51.23 45.676 0 0 0 1
2219 2677 3 1.6 53.761 58.83 9.4 0 0 0
3209 2678 3 1.6 53.761 58.83 12.5 0 0 0
3712 2679 3 1.6 53.761 58.83 21.8 0 0 0
4319 2680 3 1.6 53.761 58.83 24.9 0 0 0
4812 2681 3 1.6 53.761 58.83 34.2 0 0 0
5313 2682 3 1.6 53.761 58.83 37.3 0 0 0
6147 2683 3 1.6 53.761 58.83 46.6 0 0 0
7126 2684 3 1.6 53.761 58.83 49.7 0 0 0
8345 2685 3 1.6 53.761 58.83 59 0 0 0
208 2686 3 1.6 58.821 0.365 1.133 0 0 0
988 8629 1 -0.8 51.23 47.138 0.617 0 0 0
210 2688 3 1.6 58.821 0.365 4.233 0 0 0
212 2689 3 1.6 58.821 3.288 5.267 0 0 0
1493 2690 3 1.6 58.821 3.288 8.367 0 0 0
1489 2691 3 1.6 56.29 1.826 9.4 0 0 0
2441 2692 3 1.6 58.821 0.365 13.533 0 0 0
2432 2693 3 1.6 56.29 1.826 12.5 0 0 0
2443 2694 3 1.6 58.821 0.365 16.633 0 0 0
2445 2695 3 1.6 58.821 3.288 17.667 0 0 0
3344 2696 3 1.6 58.821 3.288 20.767 0 0 0
3340 2697 3 1.6 56.29 1.826 21.8 0 0 0
3923 2698 3 1.6 58.821 0.365 25.933 0 0 0
3914 2699 3 1.6 56.29 1.826 24.9 0 0 0
3925 2700 3 1.6 58.821 0.365 29.033 0 0 0
4462 2701 3 1.6 58.821 3.288 30.067 0 0 0
4464 2702 3 1.6 58.821 3.288 33.167 0 0 0
4459 2703 3 1.6 56.29 1.826 34.2 0 0 0
4979 2704 3 1.6 58.821 0.365 38.333 0 0 0
4972 2705 3 1.6 56.29 1.826 37.3 0 0 0
4981 2706 3 1.6 58.821 0.365 41.433 0 0 0
5473 2707 3 1.6 58.821 3.288 42.467 0 0 0
5475 2708 3 1.6 58.821 3.288 45.567 0 0 0
5468 2709 3 1.6 56.29 1.826 46.6 0 0 0
6342 2710 3 1.6 58.821 0.365 50.733 0 0 0
6335 2711 3 1.6 56.29 1.826 49.7 0 0 0
6344 2712 3 1.6 58.821 0.365 53.833 0 0 0
7287 2713 3 1.6 58.821 3.288 54.867 0 0 0
7289 2714 3 1.6 58.821 3.288 57.967 0 0 0
7282 2715 3 1.6 56.29 1.826 59 0 0 0
993 8630 1 -0.8 52.496 44.946 0.617 0 0 0
201 2717 3 1.6 56.29 4.749 1.133 0 0 0
203 2718 3 1.6 56.29 4.749 4.233 0 0 0
360 2719 3 1.6 56.29 7.672 5.267 0 0 0
1495 2720 3 1.6 58.821 6.21 9.4 0 0 0
1616 2721 3 1.6 56.29 7.672 8.367 0 0 0
2446 2722 3 1.6 58.821 6.21 12.5 0 0 0
2434 2723 3 1.6 56.29 4.749 13.533 0 0 0
2436 2724 3 1.6 56.29 4.749 16.633 0 0 0
2593 2725 3 1.6 56.29 7.672 17.667 0 0 0
3346 2726 3 1.6 58.821 6.21 21.8 0 0 0
3469 2727 3 1.6 56.29 7.672 20.767 0 0 0
3927 2728 3 1.6 58.821 6.21 24.9 0 0 0
3916 2729 3 1.6 56.29 4.749 25.933 0 0 0
3918 2730 3 1.6 56.29 4.749 29.033 0 0 0
4557 2731 3 1.6 56.29 7.672 30.067 0 0 0
4466 2732 3 1.6 58.821 6.21 34.2 0 0 0
4559 2733 3 1.6 56.29 7.672 33.167 0 0 0
4982 2734 3 1.6 58.821 6.21 37.3 0 0 0
4974 2735 3 1.6 56.29 4.749 38.333 0 0 0
4976 2736 3 1.6 56.29 4.749 41.433 0 0 0
5639 2737 3 1.6 56.29 7.672 42.467 0 0 0
5477 2738 3 1.6 58.821 6.21 46.6 0 0 0
5641 2739 3 1.6 56.29 7.672 45.567 0 0 0
6346 2740 3 1.6 58.821 6.21 49.7 0 0 0
6337 2741 3 1.6 56.29 4.749 50.733 0 0 0
6339 2742 3 1.6 56.29 4.749 53.833 0 0 0
7451 2743 3 1.6 56.29 7.672 54.867 0 0 0
7291 2744 3 1.6 58.821 6.21 59 0 0 0
7453 2745 3 1.6 56.29 7.672 57.967 0 0 0
366 2746 3 1.6 58.821 9.135 1.133 0 0 0
982 8631 1 -0.8 48.701 45.676 4.75 0 0 0
368 2748 3 1.6 58.821 9.135 4.233 0 0 0
1618 2749 3 1.6 56.29 10.596 9.4 0 0 0
2599 2750 3 1.6 58.821 9.135 13.533 0 0 0
2594 2751 3 1.6 56.29 10.596 12.5 0 0 0
2601 2752 3 1.6 58.821 9.135 16.633 0 0 0
3471 2753 3 1.6 56.29 10.596 21.8 0 0 0
4043 2754 3 1.6 58.821 9.135 25.933 0 0 0
4039 2755 3 1.6 56.29 10.596 24.9 0 0 0
4045 2756 3 1.6 58.821 9.135 29.033 0 0 0
4561 2757 3 1.6 56.29 10.596 34.2 0 0 0
5078 2758 3 1.6 58.821 9.135 38.333 0 0 0
5074 2759 3 1.6 56.29 10.596 37.3 0 0 0
5080 2760 3 1.6 58.821 9.135 41.433 0 0 0
5643 2761 3 1.6 56.29 10.596 46.6 0 0 0
6458 2762 3 1.6 58.821 9.135 50.733 0 0 0
6454 2763 3 1.6 56.29 10.596 49.7 0 0 0
6460 2764 3 1.6 58.821 9.135 53.833 0 0 0
7455 2765 3 1.6 56.29 10.596 59 0 0 0
986 8632 1 -0.8 49.967 47.868 4.75 0 0 0
499 2767 3 1.6 56.29 13.519 1.133 0 0 0
370 2768 3 1.6 58.821 12.058 5.267 0 0 0
501 2769 3 1.6 56.29 13.519 4.233 0 0 0
1695 2770 3 1.6 58.821 14.98 9.4 0 0 0
1623 2771 3 1.6 58.821 12.058 8.367 0 0 0
2708 2772 3 1.6 58.821 14.98 12.5 0 0 0
2702 2773 3 1.6 56.29 13.519 13.533 0 0 0
2603 2774 3 1.6 58.821 12.058 17.667 0 0 0
2704 2775 3 1.6 56.29 13.519 16.633 0 0 0
2721 10048 1 -0.8 14.592 18.89 13.533 0 0 0
3476 2777 3 1.6 58.821 12.058 20.767 0 0 0
2636 10048 3 1.6 13.281 17.905 13.533 0 0 0
429 10047 2 0.4 17.676 18.281 5.267 0 0 0
426 10047 1 -0.8 16.978 17.593 5.267 0 0 0
425 10047 3 1.6 15.81 16.442 5.267 0 0 0
559 10046 2 0.4 15.376 19.478 1.133 0 0 0
557 10046 1 -0.8 14.592 18.89 1.133 0 0 0
415 10046 3 1.6 13.281 17.905 1.133 0 0 0
6744 10045 2 0.4 13.115 38.701 53.833 0 0 0
5648 2786 3 1.6 58.821 12.058 42.467 0 0 0
5090 2787 3 1.6 56.29 13.519 41.433 0 0 0
5727 2788 3 1.6 58.821 14.98 46.6 0 0 0
5650 2789 3 1.6 58.821 12.058 45.567 0 0 0
6553 2790 3 1.6 58.821 14.98 49.7 0 0 0
6548 2791 3 1.6 56.29 13.519 50.733 0 0 0
7460 2792 3 1.6 58.821 12.058 54.867 0 0 0
6550 2793 3 1.6 56.29 13.519 53.833 0 0 0
7578 2794 3 1.6 58.821 14.98 59 0 0 0
7462 2795 3 1.6 58.821 12.058 57.967 0 0 0
509 2796 3 1.6 58.821 17.905 1.133 0 0 0
1974 8633 1 -0.8 48.701 47.138 6.817 0 0 0
503 2798 3 1.6 56.29 16.442 5.267 0 0 0
511 2799 3 1.6 58.821 17.905 4.233 0 0 0
1691 2800 3 1.6 56.29 16.442 8.367 0 0 0
1753 2801 3 1.6 56.29 19.366 9.4 0 0 0
2710 2802 3 1.6 58.821 17.905 13.533 0 0 0
2731 2803 3 1.6 56.29 19.366 12.5 0 0 0
6743 10045 1 -0.8 12.23 39.123 53.833 0 0 0
6741 10045 3 1.6 10.75 39.829 53.833 0 0 0
6684 10044 2 0.4 13.241 36.093 49.7 0 0 0
6680 10044 1 -0.8 12.309 36.397 49.7 0 0 0
6737 10044 3 1.6 10.75 36.906 49.7 0 0 0
1826 10036 2 0.4 13.241 36.093 9.4 0 0 0
1824 10036 1 -0.8 12.309 36.397 9.4 0 0 0
1870 10036 3 1.6 10.75 36.906 9.4 0 0 0
817 10035 2 0.4 13.115 38.701 4.233 0 0 0
816 10035 1 -0.8 12.23 39.123 4.233 0 0 0
812 10035 3 1.6 10.75 39.829 4.233 0 0 0
7778 10034 2 0.4 13.33 33.528 57.967 0 0 0
7774 10034 1 -0.8 12.365 33.698 57.967 0 0 0
7770 10034 3 1.6 10.75 33.982 57.967 0 0 0
5722 2818 3 1.6 56.29 16.442 45.567 0 0 0
7777 10033 2 0.4 13.33 33.528 54.867 0 0 0
6555 2820 3 1.6 58.821 17.905 50.733 0 0 0
6615 2821 3 1.6 56.29 19.366 49.7 0 0 0
7570 2822 3 1.6 56.29 16.442 54.867 0 0 0
6557 2823 3 1.6 58.821 17.905 53.833 0 0 0
7572 2824 3 1.6 56.29 16.442 57.967 0 0 0
7654 2825 3 1.6 56.29 19.366 59 0 0 0
1976 8634 1 -0.8 48.701 48.599 8.883 0 0 0
593 2827 3 1.6 56.29 22.289 1.133 0 0 0
601 2828 3 1.6 58.821 20.828 5.267 0 0 0
595 2829 3 1.6 56.29 22.289 4.233 0 0 0
1760 2830 3 1.6 58.821 23.75 9.4 0 0 0
1758 2831 3 1.6 58.821 20.828 8.367 0 0 0
7773 10033 1 -0.8 12.365 33.698 54.867 0 0 0
7768 10033 3 1.6 10.75 33.982 54.867 0 0 0
1827 10030 2 0.4 13.33 33.528 8.367 0 0 0
1825 10030 1 -0.8 12.365 33.698 8.367 0 0 0
1822 10030 3 1.6 10.75 33.982 8.367 0 0 0
729 10029 2 0.4 13.33 33.528 5.267 0 0 0
725 10029 1 -0.8 12.365 33.698 5.267 0 0 0
722 10029 3 1.6 10.75 33.982 5.267 0 0 0
7708 10028 2 0.4 13.35 28.463 59 0 0 0
7705 10028 1 -0.8 12.377 28.341 59 0 0 0
7702 10028 3 1.6 10.75 28.136 59 0 0 0
1787 10017 2 0.4 13.35 28.463 9.4 0 0 0
1785 10017 1 -0.8 12.377 28.341 9.4 0 0 0
1783 10017 3 1.6 10.75 28.136 9.4 0 0 0
730 10016 2 0.4 13.369 30.993 4.233 0 0 0
726 10016 1 -0.8 12.389 31.018 4.233 0 0 0
720 10016 3 1.6 10.75 31.059 4.233 0 0 0
642 10015 2 0.4 13.35 28.463 0.1 0 0 0
6622 2850 3 1.6 58.821 23.75 49.7 0 0 0
6617 2851 3 1.6 56.29 22.289 50.733 0 0 0
7660 2852 3 1.6 58.821 20.828 54.867 0 0 0
6619 2853 3 1.6 56.29 22.289 53.833 0 0 0
7664 2854 3 1.6 58.821 23.75 59 0 0 0
7662 2855 3 1.6 58.821 20.828 57.967 0 0 0
678 2856 3 1.6 58.821 26.675 1.133 0 0 0
671 2857 3 1.6 56.29 25.212 5.267 0 0 0
680 2858 3 1.6 58.821 26.675 4.233 0 0 0
1800 2859 3 1.6 56.29 25.212 8.367 0 0 0
640 10015 1 -0.8 12.377 28.341 0.1 0 0 0
1977 8635 1 -0.8 49.967 46.407 8.883 0 0 0
7707 10014 2 0.4 13.275 25.91 54.867 0 0 0
7704 10014 1 -0.8 12.331 25.649 54.867 0 0 0
7698 10014 3 1.6 10.75 25.212 54.867 0 0 0
641 10008 2 0.4 13.275 25.91 5.267 0 0 0
639 10008 1 -0.8 12.331 25.649 5.267 0 0 0
636 10008 3 1.6 10.75 25.212 5.267 0 0 0
6589 10007 2 0.4 13.16 23.318 50.733 0 0 0
6588 10007 1 -0.8 12.258 22.933 50.733 0 0 0
6584 10007 3 1.6 10.75 22.289 50.733 0 0 0
554 10003 2 0.4 13.16 23.318 1.133 0 0 0
6655 2872 3 1.6 58.821 26.675 50.733 0 0 0
7730 2873 3 1.6 56.29 25.212 54.867 0 0 0
6657 2874 3 1.6 58.821 26.675 53.833 0 0 0
7732 2875 3 1.6 56.29 25.212 57.967 0 0 0
1980 8636 1 -0.8 51.23 45.676 10.95 0 0 0
762 2877 3 1.6 56.29 31.059 1.133 0 0 0
682 2878 3 1.6 58.821 29.598 5.267 0 0 0
764 2879 3 1.6 56.29 31.059 4.233 0 0 0
1805 2880 3 1.6 58.821 29.598 8.367 0 0 0
1802 2881 3 1.6 56.29 28.136 9.4 0 0 0
553 10003 1 -0.8 12.258 22.933 1.133 0 0 0
547 10003 3 1.6 10.75 22.289 1.133 0 0 0
728 10002 2 0.4 13.241 36.093 0.1 0 0 0
723 10002 1 -0.8 12.309 36.397 0.1 0 0 0
1981 8637 1 -0.8 52.496 46.407 8.883 0 0 0
7947 10001 2 0.4 17.614 43.776 59 0 0 0
7944 10001 1 -0.8 16.939 44.487 59 0 0 0
7943 10001 3 1.6 15.81 45.676 59 0 0 0
3419 10000 1 -0.8 32.099 11.804 21.849 0 0 0
3412 10000 2 0.4 29.945 12.414 21.759 0 0 0
3413 10000 1 -0.8 30.922 12.205 21.8 0 0 0
3417 10000 3 1.6 30.99 10.596 21.8 0 0 0
5163 9998 3 1.6 28.461 50.06 37.3 0 0 0
5693 9996 2 0.4 32.057 12.783 46.649 0 0 0
5572 9996 1 -0.8 32.099 11.804 46.649 0 0 0
5565 9996 2 0.4 29.945 12.414 46.559 0 0 0
5566 9996 1 -0.8 30.922 12.205 46.6 0 0 0
5571 9996 3 1.6 30.99 10.596 46.6 0 0 0
1728 9995 2 0.4 15.424 21.396 7.363 0 0 0
6708 2901 3 1.6 56.29 31.059 50.733 0 0 0
7739 2902 3 1.6 58.821 29.598 54.867 0 0 0
6710 2903 3 1.6 56.29 31.059 53.833 0 0 0
7741 2904 3 1.6 58.821 29.598 57.967 0 0 0
7734 2905 3 1.6 56.29 28.136 59 0 0 0
2844 8638 1 -0.8 49.967 44.946 13.017 0 0 0
772 2907 3 1.6 58.821 35.445 1.133 0 0 0
766 2908 3 1.6 56.29 33.982 5.267 0 0 0
774 2909 3 1.6 58.821 35.445 4.233 0 0 0
1842 2910 3 1.6 58.821 32.52 9.4 0 0 0
1838 2911 3 1.6 56.29 33.982 8.367 0 0 0
1725 9995 1 -0.8 14.575 20.906 7.363 0 0 0
1726 9995 2 0.4 14.65 22.178 9.205 0 0 0
1727 9995 1 -0.8 14.675 21.633 8.367 0 0 0
1724 9995 3 1.6 13.281 20.828 8.367 0 0 0
7963 9991 2 0.4 36.432 46.223 54.194 0 0 0
7964 9991 1 -0.8 36.737 47.154 54.194 0 0 0
6836 9991 2 0.4 34.597 47.117 53.532 0 0 0
6839 9991 1 -0.8 35.549 47.069 53.833 0 0 0
6842 9991 3 1.6 36.05 48.599 53.833 0 0 0
5103 9988 1 -0.8 36.737 47.154 41.794 0 0 0
5102 9988 3 1.6 36.05 48.599 41.433 0 0 0
2795 9987 3 1.6 18.341 47.138 17.667 0 0 0
1954 9983 2 0.4 18.779 45.165 8.929 0 0 0
1955 9983 1 -0.8 19.276 45.827 8.367 0 0 0
1952 9983 3 1.6 18.341 47.138 8.367 0 0 0
2820 9982 2 0.4 39.437 47.439 16.13 0 0 0
2823 9982 1 -0.8 40.273 47.223 16.633 0 0 0
2826 9982 3 1.6 41.11 48.599 16.633 0 0 0
741 9981 2 0.4 49.37 31.038 3.265 0 0 0
6713 2931 3 1.6 58.821 35.445 50.733 0 0 0
7794 2932 3 1.6 56.29 33.982 54.867 0 0 0
6715 2933 3 1.6 58.821 35.445 53.833 0 0 0
7801 2934 3 1.6 58.821 32.52 59 0 0 0
7796 2935 3 1.6 56.29 33.982 57.967 0 0 0
2842 8639 1 -0.8 48.701 44.215 15.083 0 0 0
857 2937 3 1.6 56.29 39.829 1.133 0 0 0
865 2938 3 1.6 58.821 38.368 5.267 0 0 0
859 2939 3 1.6 56.29 39.829 4.233 0 0 0
1916 2940 3 1.6 58.821 38.368 8.367 0 0 0
1909 2941 3 1.6 56.29 36.906 9.4 0 0 0
743 9981 1 -0.8 49.62 31.022 4.233 0 0 0
748 9981 3 1.6 51.23 31.059 4.233 0 0 0
2660 9980 2 0.4 25.387 12.612 12.7 0 0 0
2517 9980 1 -0.8 26.263 12.172 12.5 0 0 0
2516 9980 3 1.6 25.93 10.596 12.5 0 0 0
3421 9979 2 0.4 34.632 12.117 21.526 0 0 0
3423 9979 1 -0.8 35.594 12.14 21.8 0 0 0
3427 9979 3 1.6 36.05 10.596 21.8 0 0 0
3401 9978 3 1.6 23.401 12.058 20.767 0 0 0
8077 9977 2 0.4 25.367 49.511 55.058 0 0 0
8083 9977 1 -0.8 26.248 49.943 54.867 0 0 0
8078 9977 3 1.6 25.93 51.522 54.867 0 0 0
7775 9976 2 0.4 12.425 36.043 59.92 0 0 0
7772 9976 1 -0.8 12.28 36.407 59 0 0 0
7838 9976 3 1.6 10.75 36.906 59 0 0 0
7624 9974 2 0.4 44.327 19.978 58.207 0 0 0
7625 9974 1 -0.8 44.851 20.289 59 0 0 0
7626 9974 3 1.6 46.17 19.366 59 0 0 0
6770 2960 3 1.6 56.29 36.906 49.7 0 0 0
6772 2961 3 1.6 56.29 39.829 50.733 0 0 0
7897 2962 3 1.6 58.821 38.368 54.867 0 0 0
6774 2963 3 1.6 56.29 39.829 53.833 0 0 0
7899 2964 3 1.6 58.821 38.368 57.967 0 0 0
7888 2965 3 1.6 56.29 36.906 59 0 0 0
2847 8640 1 -0.8 51.23 47.138 13.017 0 0 0
861 2967 3 1.6 56.29 42.752 5.267 0 0 0
1918 2968 3 1.6 58.821 41.29 9.4 0 0 0
1912 2969 3 1.6 56.29 42.752 8.367 0 0 0
2749 2970 3 1.6 58.821 41.29 12.5 0 0 0
1948 9973 2 0.4 16.582 43.844 10.066 0 0 0
1949 9973 1 -0.8 16.918 44.509 9.4 0 0 0
1946 9973 3 1.6 15.81 45.676 9.4 0 0 0
5694 9972 2 0.4 37.008 13.385 45.165 0 0 0
5697 9972 1 -0.8 37.914 13.523 45.567 0 0 0
5590 9972 3 1.6 38.581 12.058 45.567 0 0 0
5692 9971 2 0.4 25.387 12.612 46.8 0 0 0
5560 9971 1 -0.8 26.263 12.172 46.6 0 0 0
5559 9971 3 1.6 25.93 10.596 46.6 0 0 0
5699 9969 2 0.4 41.87 15.908 45.966 0 0 0
5701 9969 1 -0.8 42.588 16.198 46.6 0 0 0
6777 2982 3 1.6 58.821 41.29 49.7 0 0 0
7890 2983 3 1.6 56.29 42.752 54.867 0 0 0
7901 2984 3 1.6 58.821 41.29 59 0 0 0
7892 2985 3 1.6 56.29 42.752 57.967 0 0 0
1011 2986 3 1.6 58.821 44.215 1.133 0 0 0
2851 8641 1 -0.8 52.496 44.946 13.017 0 0 0
1013 2988 3 1.6 58.821 44.215 4.233 0 0 0
1015 2989 3 1.6 58.821 47.138 5.267 0 0 0
1991 2990 3 1.6 58.821 47.138 8.367 0 0 0
1987 2991 3 1.6 56.29 45.676 9.4 0 0 0
2865 2992 3 1.6 58.821 44.215 13.533 0 0 0
2858 2993 3 1.6 56.29 45.676 12.5 0 0 0
5703 9969 3 1.6 43.641 14.98 46.6 0 0 0
2867 2995 3 1.6 58.821 47.138 17.667 0 0 0
6683 9968 2 0.4 12.609 30.988 51.701 0 0 0
6681 9968 1 -0.8 12.359 31.019 50.733 0 0 0
6677 9968 3 1.6 10.75 31.059 50.733 0 0 0
1668 9966 2 0.4 41.87 15.908 8.766 0 0 0
1669 9966 1 -0.8 42.588 16.198 9.4 0 0 0
1671 9966 3 1.6 43.641 14.98 9.4 0 0 0
4118 9963 3 1.6 33.521 50.06 24.9 0 0 0
1652 9961 2 0.4 16.658 18.232 9.056 0 0 0
1653 9961 1 -0.8 16.957 17.572 8.367 0 0 0
1651 9961 3 1.6 15.81 16.442 8.367 0 0 0
4096 9959 3 1.6 23.401 50.06 24.9 0 0 0
5813 3007 3 1.6 58.821 47.138 42.467 0 0 0
5815 3008 3 1.6 58.821 47.138 45.567 0 0 0
5810 3009 3 1.6 56.29 45.676 46.6 0 0 0
6885 3010 3 1.6 58.821 44.215 50.733 0 0 0
6879 3011 3 1.6 56.29 45.676 49.7 0 0 0
6887 3012 3 1.6 58.821 44.215 53.833 0 0 0
8010 3013 3 1.6 58.821 47.138 54.867 0 0 0
8012 3014 3 1.6 58.821 47.138 57.967 0 0 0
8005 3015 3 1.6 56.29 45.676 59 0 0 0
2845 8643 1 -0.8 49.967 47.868 17.15 0 0 0
1005 3017 3 1.6 56.29 48.599 1.133 0 0 0
1007 3018 3 1.6 56.29 48.599 4.233 0 0 0
1184 3019 3 1.6 56.29 51.522 5.267 0 0 0
2099 3020 3 1.6 58.821 50.06 9.4 0 0 0
2094 3021 3 1.6 56.29 51.522 8.367 0 0 0
3040 3022 3 1.6 58.821 50.06 12.5 0 0 0
2860 3023 3 1.6 56.29 48.599 13.533 0 0 0
2862 3024 3 1.6 56.29 48.599 16.633 0 0 0
3035 3025 3 1.6 56.29 51.522 17.667 0 0 0
3592 3026 3 1.6 58.821 50.06 21.8 0 0 0
3587 3027 3 1.6 56.29 51.522 20.767 0 0 0
4173 3028 3 1.6 58.821 50.06 24.9 0 0 0
727 9958 2 0.4 12.609 30.988 2.101 0 0 0
724 9958 1 -0.8 12.359 31.019 1.133 0 0 0
4664 3031 3 1.6 56.29 51.522 30.067 0 0 0
718 9958 3 1.6 10.75 31.059 1.133 0 0 0
4666 3033 3 1.6 56.29 51.522 33.167 0 0 0
5221 3034 3 1.6 58.821 50.06 37.3 0 0 0
5043 9956 3 1.6 36.05 10.596 37.3 0 0 0
5111 3036 3 1.6 56.29 48.599 41.433 0 0 0
5954 3037 3 1.6 56.29 51.522 42.467 0 0 0
5961 3038 3 1.6 58.821 50.06 46.6 0 0 0
5956 3039 3 1.6 56.29 51.522 45.567 0 0 0
7023 3040 3 1.6 58.821 50.06 49.7 0 0 0
6881 3041 3 1.6 56.29 48.599 50.733 0 0 0
6883 3042 3 1.6 56.29 48.599 53.833 0 0 0
8152 3043 3 1.6 56.29 51.522 54.867 0 0 0
8159 3044 3 1.6 58.821 50.06 59 0 0 0
8154 3045 3 1.6 56.29 51.522 57.967 0 0 0
1191 3046 3 1.6 58.821 52.985 1.133 0 0 0
3484 8645 1 -0.8 48.701 48.599 21.283 0 0 0
1193 3048 3 1.6 58.821 52.985 4.233 0 0 0
1372 3049 3 1.6 58.821 55.908 5.267 0 0 0
2228 3050 3 1.6 58.821 55.908 8.367 0 0 0
2096 3051 3 1.6 56.29 54.446 9.4 0 0 0
3042 3052 3 1.6 58.821 52.985 13.533 0 0 0
3036 3053 3 1.6 56.29 54.446 12.5 0 0 0
3044 3054 3 1.6 58.821 52.985 16.633 0 0 0
3223 3055 3 1.6 58.821 55.908 17.667 0 0 0
3721 3056 3 1.6 58.821 55.908 20.767 0 0 0
3589 3057 3 1.6 56.29 54.446 21.8 0 0 0
4175 3058 3 1.6 58.821 52.985 25.933 0 0 0
4170 3059 3 1.6 56.29 54.446 24.9 0 0 0
4177 3060 3 1.6 58.821 52.985 29.033 0 0 0
4821 3061 3 1.6 58.821 55.908 30.067 0 0 0
4823 3062 3 1.6 58.821 55.908 33.167 0 0 0
4668 3063 3 1.6 56.29 54.446 34.2 0 0 0
5223 3064 3 1.6 58.821 52.985 38.333 0 0 0
5218 3065 3 1.6 56.29 54.446 37.3 0 0 0
5225 3066 3 1.6 58.821 52.985 41.433 0 0 0
6160 3067 3 1.6 58.821 55.908 42.467 0 0 0
6162 3068 3 1.6 58.821 55.908 45.567 0 0 0
5958 3069 3 1.6 56.29 54.446 46.6 0 0 0
7025 3070 3 1.6 58.821 52.985 50.733 0 0 0
7019 3071 3 1.6 56.29 54.446 49.7 0 0 0
7027 3072 3 1.6 58.821 52.985 53.833 0 0 0
8358 3073 3 1.6 58.821 55.908 54.867 0 0 0
8360 3074 3 1.6 58.821 55.908 57.967 0 0 0
8156 3075 3 1.6 56.29 54.446 59 0 0 0
5798 8665 1 -0.8 49.967 47.868 41.95 0 0 0
1364 3077 3 1.6 56.29 57.369 1.133 0 0 0
1366 3078 3 1.6 56.29 57.369 4.233 0 0 0
1368 3079 3 1.6 56.29 60.292 5.267 0 0 0
2230 3080 3 1.6 58.821 58.83 9.4 0 0 0
2224 3081 3 1.6 56.29 60.292 8.367 0 0 0
3224 3082 3 1.6 58.821 58.83 12.5 0 0 0
3215 3083 3 1.6 56.29 57.369 13.533 0 0 0
3217 3084 3 1.6 56.29 57.369 16.633 0 0 0
3219 3085 3 1.6 56.29 60.292 17.667 0 0 0
3723 3086 3 1.6 58.821 58.83 21.8 0 0 0
3717 3087 3 1.6 56.29 60.292 20.767 0 0 0
4332 3088 3 1.6 58.821 58.83 24.9 0 0 0
4325 3089 3 1.6 56.29 57.369 25.933 0 0 0
4327 3090 3 1.6 56.29 57.369 29.033 0 0 0
4816 3091 3 1.6 56.29 60.292 30.067 0 0 0
4825 3092 3 1.6 58.821 58.83 34.2 0 0 0
4818 3093 3 1.6 56.29 60.292 33.167 0 0 0
5321 3094 3 1.6 58.821 58.83 37.3 0 0 0
5317 3095 3 1.6 56.29 57.369 38.333 0 0 0
5319 3096 3 1.6 56.29 57.369 41.433 0 0 0
6153 3097 3 1.6 56.29 60.292 42.467 0 0 0
6164 3098 3 1.6 58.821 58.83 46.6 0 0 0
6155 3099 3 1.6 56.29 60.292 45.567 0 0 0
7135 3100 3 1.6 58.821 58.83 49.7 0 0 0
7130 3101 3 1.6 56.29 57.369 50.733 0 0 0
7132 3102 3 1.6 56.29 57.369 53.833 0 0 0
8351 3103 3 1.6 56.29 60.292 54.867 0 0 0
8362 3104 3 1.6 58.821 58.83 59 0 0 0
8353 3105 3 1.6 56.29 60.292 57.967 0 0 0
7 3106 1 -0.8 1.896 1.096 0.617 0 0 0
11 3107 1 -0.8 3.161 0.365 2.683 0 0 0
16 3108 1 -0.8 4.427 1.096 0.617 0 0 0
1209 3109 1 -0.8 3.161 60.292 0.617 0 0 0
1 3110 1 -0.8 0.63 1.826 0 0 0 1
214 3111 1 -0.8 60.087 1.096 0.617 0 0 0
2 3112 1 -0.8 0.63 3.288 0.617 0 0 0
13 3113 1 -0.8 3.161 1.826 4.75 0 0 0
1206 3114 1 -0.8 1.896 61.022 4.75 0 0 0
1212 3115 1 -0.8 4.427 61.022 4.75 0 0 0
8 3116 1 -0.8 1.896 4.018 4.75 0 0 0
17 3117 1 -0.8 4.427 4.018 4.75 0 0 0
1382 3118 1 -0.8 3.161 3.288 6.817 0 0 0
1384 3119 1 -0.8 3.161 4.749 8.883 0 0 0
1381 3120 1 -0.8 1.896 2.557 8.883 0 0 0
1387 3121 1 -0.8 4.427 2.557 8.883 0 0 0
1497 3122 1 -0.8 60.087 2.557 8.883 0 0 0
1380 3123 1 -0.8 0.63 1.826 10.95 0 0 0
1378 3124 1 -0.8 0.63 0.365 8.883 0 0 0
2240 3125 1 -0.8 1.896 1.096 13.017 0 0 0
2244 3126 1 -0.8 3.161 0.365 15.083 0 0 0
2249 3127 1 -0.8 4.427 1.096 13.017 0 0 0
3060 3128 1 -0.8 3.161 60.292 13.017 0 0 0
2447 3129 1 -0.8 60.087 1.096 13.017 0 0 0
2235 3130 1 -0.8 0.63 3.288 13.017 0 0 0
2246 3131 1 -0.8 3.161 1.826 17.15 0 0 0
3057 3132 1 -0.8 1.896 61.022 17.15 0 0 0
3063 3133 1 -0.8 4.427 61.022 17.15 0 0 0
2241 3134 1 -0.8 1.896 4.018 17.15 0 0 0
2250 3135 1 -0.8 4.427 4.018 17.15 0 0 0
3233 3136 1 -0.8 3.161 3.288 19.217 0 0 0
3235 3137 1 -0.8 3.161 4.749 21.283 0 0 0
3232 3138 1 -0.8 1.896 2.557 21.283 0 0 0
3238 3139 1 -0.8 4.427 2.557 21.283 0 0 0
3348 3140 1 -0.8 60.087 2.557 21.283 0 0 0
3229 3141 1 -0.8 0.63 0.365 21.283 0 0 0
3231 3142 1 -0.8 0.63 1.826 23.35 0 0 0
3733 3143 1 -0.8 1.896 1.096 25.417 0 0 0
3741 3144 1 -0.8 4.427 1.096 25.417 0 0 0
4190 3145 1 -0.8 3.161 60.292 25.417 0 0 0
3737 3146 1 -0.8 3.161 0.365 27.483 0 0 0
3928 3147 1 -0.8 60.087 1.096 25.417 0 0 0
3728 3148 1 -0.8 0.63 3.288 25.417 0 0 0
3739 3149 1 -0.8 3.161 1.826 29.55 0 0 0
4188 3150 1 -0.8 1.896 61.022 29.55 0 0 0
4193 3151 1 -0.8 4.427 61.022 29.55 0 0 0
3734 3152 1 -0.8 1.896 4.018 29.55 0 0 0
3742 3153 1 -0.8 4.427 4.018 29.55 0 0 0
4342 3154 1 -0.8 3.161 3.288 31.617 0 0 0
4344 3155 1 -0.8 3.161 4.749 33.683 0 0 0
4340 3156 1 -0.8 1.896 2.557 33.683 0 0 0
4347 3157 1 -0.8 4.427 2.557 33.683 0 0 0
4468 3158 1 -0.8 60.087 2.557 33.683 0 0 0
4337 3159 1 -0.8 0.63 0.365 33.683 0 0 0
4339 3160 1 -0.8 0.63 1.826 35.75 0 0 0
4834 3161 1 -0.8 1.896 1.096 37.817 0 0 0
4840 3162 1 -0.8 4.427 1.096 37.817 0 0 0
5234 3163 1 -0.8 3.161 60.292 37.817 0 0 0
4837 3164 1 -0.8 3.161 0.365 39.883 0 0 0
4983 3165 1 -0.8 60.087 1.096 37.817 0 0 0
4830 3166 1 -0.8 0.63 3.288 37.817 0 0 0
5329 3167 1 -0.8 3.161 1.826 41.95 0 0 0
5972 3168 1 -0.8 1.896 61.022 41.95 0 0 0
5981 3169 1 -0.8 4.427 61.022 41.95 0 0 0
5328 3170 1 -0.8 1.896 4.018 41.95 0 0 0
5336 3171 1 -0.8 4.427 4.018 41.95 0 0 0
5331 3172 1 -0.8 3.161 3.288 44.017 0 0 0
5333 3173 1 -0.8 3.161 4.749 46.083 0 0 0
5327 3174 1 -0.8 1.896 2.557 46.083 0 0 0
5335 3175 1 -0.8 4.427 2.557 46.083 0 0 0
5478 3176 1 -0.8 60.087 2.557 46.083 0 0 0
5324 3177 1 -0.8 0.63 0.365 46.083 0 0 0
6169 3178 1 -0.8 0.63 1.826 48.15 0 0 0
6175 3179 1 -0.8 1.896 1.096 50.217 0 0 0
6182 3180 1 -0.8 4.427 1.096 50.217 0 0 0
7037 3181 1 -0.8 3.161 60.292 50.217 0 0 0
6178 3182 1 -0.8 3.161 0.365 52.283 0 0 0
6347 3183 1 -0.8 60.087 1.096 50.217 0 0 0
6171 3184 1 -0.8 0.63 3.288 50.217 0 0 0
7143 3185 1 -0.8 3.161 1.826 54.35 0 0 0
8170 3186 1 -0.8 1.896 61.022 54.35 0 0 0
8179 3187 1 -0.8 4.427 61.022 54.35 0 0 0
7142 3188 1 -0.8 1.896 4.018 54.35 0 0 0
7150 3189 1 -0.8 4.427 4.018 54.35 0 0 0
7145 3190 1 -0.8 3.161 3.288 56.417 0 0 0
7147 3191 1 -0.8 3.161 4.749 58.483 0 0 0
7141 3192 1 -0.8 1.896 2.557 58.483 0 0 0
7149 3193 1 -0.8 4.427 2.557 58.483 0 0 0
7292 3194 1 -0.8 60.087 2.557 58.483 0 0 0
7138 3195 1 -0.8 0.63 0.365 58.483 0 0 0
15 3196 1 -0.8 3.161 6.21 0 0 0 1
9 3197 1 -0.8 1.896 5.48 0.617 0 0 0
222 3198 1 -0.8 3.161 7.672 0.617 0 0 0
18 3199 1 -0.8 4.427 5.48 0.617 0 0 0
216 3200 1 -0.8 60.087 5.48 0.617 0 0 0
4 3201 1 -0.8 0.63 4.749 2.683 0 0 0
215 3202 1 -0.8 60.087 4.018 4.75 0 0 0
6 3203 1 -0.8 0.63 6.21 4.75 0 0 0
371 3204 1 -0.8 60.087 8.402 4.75 0 0 0
220 3205 1 -0.8 1.896 8.402 4.75 0 0 0
1498 3206 1 -0.8 0.63 7.672 6.817 0 0 0
1386 3207 1 -0.8 3.161 6.21 10.95 0 0 0
1503 3208 1 -0.8 1.896 6.941 8.883 0 0 0
1507 3209 1 -0.8 4.427 6.941 8.883 0 0 0
1500 3210 1 -0.8 0.63 9.135 8.883 0 0 0
1624 3211 1 -0.8 60.087 6.941 8.883 0 0 0
2242 3212 1 -0.8 1.896 5.48 13.017 0 0 0
2455 3213 1 -0.8 3.161 7.672 13.017 0 0 0
2251 3214 1 -0.8 4.427 5.48 13.017 0 0 0
2449 3215 1 -0.8 60.087 5.48 13.017 0 0 0
2237 3216 1 -0.8 0.63 4.749 15.083 0 0 0
2448 3217 1 -0.8 60.087 4.018 17.15 0 0 0
2239 3218 1 -0.8 0.63 6.21 17.15 0 0 0
2604 3219 1 -0.8 60.087 8.402 17.15 0 0 0
2453 3220 1 -0.8 1.896 8.402 17.15 0 0 0
3349 3221 1 -0.8 0.63 7.672 19.217 0 0 0
3354 3222 1 -0.8 1.896 6.941 21.283 0 0 0
3358 3223 1 -0.8 4.427 6.941 21.283 0 0 0
3237 3224 1 -0.8 3.161 6.21 23.35 0 0 0
3351 3225 1 -0.8 0.63 9.135 21.283 0 0 0
3477 3226 1 -0.8 60.087 6.941 21.283 0 0 0
3735 3227 1 -0.8 1.896 5.48 25.417 0 0 0
3934 3228 1 -0.8 3.161 7.672 25.417 0 0 0
3743 3229 1 -0.8 4.427 5.48 25.417 0 0 0
3930 3230 1 -0.8 60.087 5.48 25.417 0 0 0
3730 3231 1 -0.8 0.63 4.749 27.483 0 0 0
3929 3232 1 -0.8 60.087 4.018 29.55 0 0 0
3732 3233 1 -0.8 0.63 6.21 29.55 0 0 0
4047 3234 1 -0.8 60.087 8.402 29.55 0 0 0
3932 3235 1 -0.8 1.896 8.402 29.55 0 0 0
4470 3236 1 -0.8 0.63 7.672 31.617 0 0 0
4475 3237 1 -0.8 1.896 6.941 33.683 0 0 0
4476 3238 1 -0.8 4.427 6.941 33.683 0 0 0
4346 3239 1 -0.8 3.161 6.21 35.75 0 0 0
4472 3240 1 -0.8 0.63 9.135 33.683 0 0 0
4564 3241 1 -0.8 60.087 6.941 33.683 0 0 0
4835 3242 1 -0.8 1.896 5.48 37.817 0 0 0
4988 3243 1 -0.8 3.161 7.672 37.817 0 0 0
4841 3244 1 -0.8 4.427 5.48 37.817 0 0 0
4984 3245 1 -0.8 60.087 5.48 37.817 0 0 0
4832 3246 1 -0.8 0.63 4.749 39.883 0 0 0
5479 3247 1 -0.8 60.087 4.018 41.95 0 0 0
5326 3248 1 -0.8 0.63 6.21 41.95 0 0 0
5652 3249 1 -0.8 60.087 8.402 41.95 0 0 0
5486 3250 1 -0.8 1.896 8.402 41.95 0 0 0
5481 3251 1 -0.8 0.63 7.672 44.017 0 0 0
5485 3252 1 -0.8 1.896 6.941 46.083 0 0 0
5492 3253 1 -0.8 4.427 6.941 46.083 0 0 0
6180 3254 1 -0.8 3.161 6.21 48.15 0 0 0
5483 3255 1 -0.8 0.63 9.135 46.083 0 0 0
5651 3256 1 -0.8 60.087 6.941 46.083 0 0 0
6176 3257 1 -0.8 1.896 5.48 50.217 0 0 0
6353 3258 1 -0.8 3.161 7.672 50.217 0 0 0
6183 3259 1 -0.8 4.427 5.48 50.217 0 0 0
6348 3260 1 -0.8 60.087 5.48 50.217 0 0 0
6173 3261 1 -0.8 0.63 4.749 52.283 0 0 0
7293 3262 1 -0.8 60.087 4.018 54.35 0 0 0
7140 3263 1 -0.8 0.63 6.21 54.35 0 0 0
7464 3264 1 -0.8 60.087 8.402 54.35 0 0 0
7300 3265 1 -0.8 1.896 8.402 54.35 0 0 0
7295 3266 1 -0.8 0.63 7.672 56.417 0 0 0
7299 3267 1 -0.8 1.896 6.941 58.483 0 0 0
7306 3268 1 -0.8 4.427 6.941 58.483 0 0 0
7297 3269 1 -0.8 0.63 9.135 58.483 0 0 0
7463 3270 1 -0.8 60.087 6.941 58.483 0 0 0
221 3271 1 -0.8 1.896 9.866 0.617 0 0 0
224 3272 1 -0.8 3.161 9.135 2.683 0 0 0
229 3273 1 -0.8 4.427 9.866 0.617 0 0 0
218 3274 1 -0.8 0.63 10.596 0 0 0 1
219 3275 1 -0.8 0.63 12.058 0.617 0 0 0
372 3276 1 -0.8 60.087 9.866 0.617 0 0 0
226 3277 1 -0.8 3.161 10.596 4.75 0 0 0
228 3278 1 -0.8 4.427 8.402 4.75 0 0 0
1625 3279 1 -0.8 60.087 11.327 8.883 0 0 0
1502 3280 1 -0.8 0.63 10.596 10.95 0 0 0
1504 3281 1 -0.8 1.896 11.327 8.883 0 0 0
2454 3282 1 -0.8 1.896 9.866 13.017 0 0 0
2457 3283 1 -0.8 3.161 9.135 15.083 0 0 0
2462 3284 1 -0.8 4.427 9.866 13.017 0 0 0
2452 3285 1 -0.8 0.63 12.058 13.017 0 0 0
2605 3286 1 -0.8 60.087 9.866 13.017 0 0 0
2459 3287 1 -0.8 3.161 10.596 17.15 0 0 0
2461 3288 1 -0.8 4.427 8.402 17.15 0 0 0
3478 3289 1 -0.8 60.087 11.327 21.283 0 0 0
3355 3290 1 -0.8 1.896 11.327 21.283 0 0 0
3353 3291 1 -0.8 0.63 10.596 23.35 0 0 0
3933 3292 1 -0.8 1.896 9.866 25.417 0 0 0
3940 3293 1 -0.8 4.427 9.866 25.417 0 0 0
3936 3294 1 -0.8 3.161 9.135 27.483 0 0 0
6829 9954 2 0.4 23.145 48.003 50.017 0 0 0
4048 3296 1 -0.8 60.087 9.866 25.417 0 0 0
3938 3297 1 -0.8 3.161 10.596 29.55 0 0 0
3939 3298 1 -0.8 4.427 8.402 29.55 0 0 0
6830 9954 1 -0.8 23.928 48.539 49.7 0 0 0
6942 9954 3 1.6 23.401 50.06 49.7 0 0 0
4474 3301 1 -0.8 0.63 10.596 35.75 0 0 0
4987 3302 1 -0.8 1.896 9.866 37.817 0 0 0
4992 3303 1 -0.8 4.427 9.866 37.817 0 0 0
4990 3304 1 -0.8 3.161 9.135 39.883 0 0 0
4986 3305 1 -0.8 0.63 12.058 37.817 0 0 0
5081 3306 1 -0.8 60.087 9.866 37.817 0 0 0
5488 3307 1 -0.8 3.161 10.596 41.95 0 0 0
5493 3308 1 -0.8 4.427 8.402 41.95 0 0 0
5653 3309 1 -0.8 60.087 11.327 46.083 0 0 0
5487 3310 1 -0.8 1.896 11.327 46.083 0 0 0
6349 3311 1 -0.8 0.63 10.596 48.15 0 0 0
6352 3312 1 -0.8 1.896 9.866 50.217 0 0 0
6357 3313 1 -0.8 4.427 9.866 50.217 0 0 0
6355 3314 1 -0.8 3.161 9.135 52.283 0 0 0
6351 3315 1 -0.8 0.63 12.058 50.217 0 0 0
6461 3316 1 -0.8 60.087 9.866 50.217 0 0 0
7302 3317 1 -0.8 3.161 10.596 54.35 0 0 0
7307 3318 1 -0.8 4.427 8.402 54.35 0 0 0
7465 3319 1 -0.8 60.087 11.327 58.483 0 0 0
7301 3320 1 -0.8 1.896 11.327 58.483 0 0 0
381 3321 1 -0.8 3.161 14.98 0 0 0 1
382 3322 1 -0.8 3.161 16.442 0.617 0 0 0
379 3323 1 -0.8 1.896 14.25 0.617 0 0 0
387 3324 1 -0.8 4.427 14.25 0.617 0 0 0
513 3325 1 -0.8 60.087 14.25 0.617 0 0 0
374 3326 1 -0.8 0.63 13.519 2.683 0 0 0
378 3327 1 -0.8 1.896 12.788 4.75 0 0 0
1505 3328 1 -0.8 3.161 12.058 6.817 0 0 0
386 3329 1 -0.8 4.427 12.788 4.75 0 0 0
512 3330 1 -0.8 60.087 12.788 4.75 0 0 0
376 3331 1 -0.8 0.63 14.98 4.75 0 0 0
1632 3332 1 -0.8 3.161 14.98 10.95 0 0 0
1630 3333 1 -0.8 3.161 13.519 8.883 0 0 0
1629 3334 1 -0.8 1.896 15.711 8.883 0 0 0
1633 3335 1 -0.8 4.427 15.711 8.883 0 0 0
1508 3336 1 -0.8 4.427 11.327 8.883 0 0 0
2613 3337 1 -0.8 3.161 16.442 13.017 0 0 0
2611 3338 1 -0.8 1.896 14.25 13.017 0 0 0
2616 3339 1 -0.8 4.427 14.25 13.017 0 0 0
2712 3340 1 -0.8 60.087 14.25 13.017 0 0 0
2607 3341 1 -0.8 0.63 13.519 15.083 0 0 0
2610 3342 1 -0.8 1.896 12.788 17.15 0 0 0
3356 3343 1 -0.8 3.161 12.058 19.217 0 0 0
2615 3344 1 -0.8 4.427 12.788 17.15 0 0 0
2711 3345 1 -0.8 60.087 12.788 17.15 0 0 0
2609 3346 1 -0.8 0.63 14.98 17.15 0 0 0
1786 9951 2 0.4 12.474 25.956 9.3 0 0 0
1784 9951 1 -0.8 12.302 25.641 8.367 0 0 0
1781 9951 3 1.6 10.75 25.212 8.367 0 0 0
7521 9950 2 0.4 23.183 14.117 55.198 0 0 0
3359 3351 1 -0.8 4.427 11.327 21.283 0 0 0
7522 9950 1 -0.8 23.952 13.57 54.867 0 0 0
7363 9950 3 1.6 23.401 12.058 54.867 0 0 0
7959 9949 2 0.4 27.661 48.124 59.083 0 0 0
7960 9949 1 -0.8 28.6 48.456 59 0 0 0
8086 9949 3 1.6 28.461 50.06 59 0 0 0
1666 9947 2 0.4 37.008 13.385 7.965 0 0 0
1667 9947 1 -0.8 37.914 13.523 8.367 0 0 0
1579 9947 3 1.6 38.581 12.058 8.367 0 0 0
7845 9946 2 0.4 14.345 42.572 54.586 0 0 0
6812 9946 1 -0.8 14.533 43.202 53.833 0 0 0
6811 9946 3 1.6 13.281 44.215 53.833 0 0 0
7776 9945 2 0.4 12.609 30.988 54.801 0 0 0
6682 9945 1 -0.8 12.359 31.019 53.833 0 0 0
6679 9945 3 1.6 10.75 31.059 53.833 0 0 0
5027 9944 2 0.4 27.645 11.065 41.509 0 0 0
5032 9944 1 -0.8 28.587 10.74 41.433 0 0 0
5031 9944 3 1.6 28.461 9.135 41.433 0 0 0
7858 9943 2 0.4 46.841 37.993 57.074 0 0 0
7860 9943 1 -0.8 47.217 37.744 57.967 0 0 0
7865 9943 3 1.6 48.701 38.368 57.967 0 0 0
5656 3372 1 -0.8 1.896 12.788 41.95 0 0 0
5660 3373 1 -0.8 4.427 12.788 41.95 0 0 0
5490 3374 1 -0.8 3.161 12.058 44.017 0 0 0
5728 3375 1 -0.8 60.087 12.788 41.95 0 0 0
923 9942 2 0.4 16.582 43.844 0.766 0 0 0
5658 3377 1 -0.8 3.161 13.519 46.083 0 0 0
5657 3378 1 -0.8 1.896 15.711 46.083 0 0 0
5661 3379 1 -0.8 4.427 15.711 46.083 0 0 0
6466 3380 1 -0.8 3.161 14.98 48.15 0 0 0
5494 3381 1 -0.8 4.427 11.327 46.083 0 0 0
6468 3382 1 -0.8 3.161 16.442 50.217 0 0 0
6465 3383 1 -0.8 1.896 14.25 50.217 0 0 0
6472 3384 1 -0.8 4.427 14.25 50.217 0 0 0
6558 3385 1 -0.8 60.087 14.25 50.217 0 0 0
6463 3386 1 -0.8 0.63 13.519 52.283 0 0 0
7471 3387 1 -0.8 1.896 12.788 54.35 0 0 0
7476 3388 1 -0.8 4.427 12.788 54.35 0 0 0
7304 3389 1 -0.8 3.161 12.058 56.417 0 0 0
7579 3390 1 -0.8 60.087 12.788 54.35 0 0 0
7466 3391 1 -0.8 0.63 14.98 54.35 0 0 0
7474 3392 1 -0.8 3.161 13.519 58.483 0 0 0
7472 3393 1 -0.8 1.896 15.711 58.483 0 0 0
7477 3394 1 -0.8 4.427 15.711 58.483 0 0 0
7308 3395 1 -0.8 4.427 11.327 58.483 0 0 0
521 3396 1 -0.8 1.896 18.636 0.617 0 0 0
384 3397 1 -0.8 3.161 17.905 2.683 0 0 0
527 3398 1 -0.8 4.427 18.636 0.617 0 0 0
515 3399 1 -0.8 0.63 19.366 0 0 0 1
516 3400 1 -0.8 0.63 20.828 0.617 0 0 0
603 3401 1 -0.8 60.087 18.636 0.617 0 0 0
514 3402 1 -0.8 60.087 17.172 4.75 0 0 0
380 3403 1 -0.8 1.896 17.172 4.75 0 0 0
1626 3404 1 -0.8 0.63 16.442 6.817 0 0 0
524 3405 1 -0.8 3.161 19.366 4.75 0 0 0
388 3406 1 -0.8 4.427 17.172 4.75 0 0 0
1628 3407 1 -0.8 0.63 17.905 8.883 0 0 0
1697 3408 1 -0.8 60.087 15.711 8.883 0 0 0
1762 3409 1 -0.8 60.087 20.097 8.883 0 0 0
1700 3410 1 -0.8 1.896 20.097 8.883 0 0 0
1699 3411 1 -0.8 0.63 19.366 10.95 0 0 0
2714 3412 1 -0.8 1.896 18.636 13.017 0 0 0
924 9942 1 -0.8 16.918 44.509 0.1 0 0 0
2715 3414 1 -0.8 4.427 18.636 13.017 0 0 0
5794 8666 1 -0.8 48.701 47.138 44.017 0 0 0
2733 3416 1 -0.8 60.087 18.636 13.017 0 0 0
5774 9938 2 0.4 27.661 48.124 46.683 0 0 0
5775 9938 1 -0.8 28.6 48.456 46.6 0 0 0
5888 9938 3 1.6 28.461 50.06 46.6 0 0 0
6520 9937 2 0.4 41.87 15.908 49.066 0 0 0
6522 9937 1 -0.8 42.588 16.198 49.7 0 0 0
6524 9937 3 1.6 43.641 14.98 49.7 0 0 0
5575 9936 2 0.4 34.632 12.117 46.326 0 0 0
5578 9936 1 -0.8 35.594 12.14 46.6 0 0 0
5583 9936 3 1.6 36.05 10.596 46.6 0 0 0
5776 9935 2 0.4 32.264 48.39 46.435 0 0 0
5777 9935 1 -0.8 33.247 48.474 46.6 0 0 0
5901 9935 3 1.6 33.521 50.06 46.6 0 0 0
6820 9934 2 0.4 16.582 43.844 50.366 0 0 0
6821 9934 1 -0.8 16.918 44.509 49.7 0 0 0
6815 9934 3 1.6 15.81 45.676 49.7 0 0 0
6405 9932 2 0.4 29.945 12.414 49.659 0 0 0
6406 9932 1 -0.8 30.922 12.205 49.7 0 0 0
6408 9932 3 1.6 30.99 10.596 49.7 0 0 0
831 9931 2 0.4 46.841 37.993 4.374 0 0 0
832 9931 1 -0.8 47.217 37.744 5.267 0 0 0
835 9931 3 1.6 48.701 38.368 5.267 0 0 0
1886 9929 2 0.4 46.848 40.779 11.662 0 0 0
2744 9929 1 -0.8 47.307 40.485 12.5 0 0 0
2745 9929 3 1.6 48.701 41.29 12.5 0 0 0
8090 9928 2 0.4 29.949 49.702 54.828 0 0 0
8091 9928 1 -0.8 30.925 49.913 54.867 0 0 0
8092 9928 3 1.6 30.99 51.522 54.867 0 0 0
7627 9927 2 0.4 46.845 21.294 54.01 0 0 0
7629 9927 1 -0.8 47.276 21.576 54.867 0 0 0
7632 9927 3 1.6 48.701 20.828 54.867 0 0 0
7509 9925 2 0.4 16.658 18.232 55.556 0 0 0
7510 9925 1 -0.8 16.957 17.572 54.867 0 0 0
7506 9925 3 1.6 15.81 16.442 54.867 0 0 0
3999 9924 3 1.6 36.05 10.596 24.9 0 0 0
7706 9915 2 0.4 12.474 25.956 58.9 0 0 0
5655 3452 1 -0.8 0.63 17.905 46.083 0 0 0
5729 3453 1 -0.8 60.087 15.711 46.083 0 0 0
7703 9915 1 -0.8 12.302 25.641 57.967 0 0 0
7700 9915 3 1.6 10.75 25.212 57.967 0 0 0
6559 3456 1 -0.8 0.63 19.366 48.15 0 0 0
6565 3457 1 -0.8 1.896 18.636 50.217 0 0 0
6568 3458 1 -0.8 4.427 18.636 50.217 0 0 0
6470 3459 1 -0.8 3.161 17.905 52.283 0 0 0
6561 3460 1 -0.8 0.63 20.828 50.217 0 0 0
6623 3461 1 -0.8 60.087 18.636 50.217 0 0 0
7581 3462 1 -0.8 60.087 17.172 54.35 0 0 0
7473 3463 1 -0.8 1.896 17.172 54.35 0 0 0
7468 3464 1 -0.8 0.63 16.442 56.417 0 0 0
7587 3465 1 -0.8 3.161 19.366 54.35 0 0 0
7478 3466 1 -0.8 4.427 17.172 54.35 0 0 0
7470 3467 1 -0.8 0.63 17.905 58.483 0 0 0
7580 3468 1 -0.8 60.087 15.711 58.483 0 0 0
7665 3469 1 -0.8 60.087 20.097 58.483 0 0 0
7584 3470 1 -0.8 1.896 20.097 58.483 0 0 0
526 3471 1 -0.8 3.161 23.75 0 0 0 1
612 3472 1 -0.8 3.161 25.212 0.617 0 0 0
523 3473 1 -0.8 1.896 23.02 0.617 0 0 0
529 3474 1 -0.8 4.427 23.02 0.617 0 0 0
605 3475 1 -0.8 60.087 23.02 0.617 0 0 0
518 3476 1 -0.8 0.63 22.289 2.683 0 0 0
522 3477 1 -0.8 1.896 21.558 4.75 0 0 0
1702 3478 1 -0.8 3.161 20.828 6.817 0 0 0
528 3479 1 -0.8 4.427 21.558 4.75 0 0 0
604 3480 1 -0.8 60.087 21.558 4.75 0 0 0
520 3481 1 -0.8 0.63 23.75 4.75 0 0 0
1701 3482 1 -0.8 1.896 24.481 8.883 0 0 0
1708 3483 1 -0.8 4.427 24.481 8.883 0 0 0
1706 3484 1 -0.8 3.161 23.75 10.95 0 0 0
1704 3485 1 -0.8 3.161 22.289 8.883 0 0 0
1707 3486 1 -0.8 4.427 20.097 8.883 0 0 0
7529 9914 2 0.4 37.008 13.385 54.465 0 0 0
7532 9914 1 -0.8 37.914 13.523 54.867 0 0 0
7400 9914 3 1.6 38.581 12.058 54.867 0 0 0
2804 9913 2 0.4 23.145 48.003 12.817 0 0 0
2805 9913 1 -0.8 23.928 48.539 12.5 0 0 0
2936 9913 3 1.6 23.401 50.06 12.5 0 0 0
1660 9912 2 0.4 23.183 14.117 8.698 0 0 0
1661 9912 1 -0.8 23.952 13.57 8.367 0 0 0
1550 9912 3 1.6 23.401 12.058 8.367 0 0 0
5892 9910 2 0.4 29.949 49.702 42.428 0 0 0
5893 9910 1 -0.8 30.925 49.913 42.467 0 0 0
5894 9910 3 1.6 30.99 51.522 42.467 0 0 0
3538 9908 3 1.6 28.461 50.06 21.8 0 0 0
463 9904 2 0.4 44.351 17.192 4.541 0 0 0
466 9904 1 -0.8 44.962 17.507 5.267 0 0 0
471 9904 3 1.6 46.17 16.442 5.267 0 0 0
2665 9901 2 0.4 39.419 14.644 16.11 0 0 0
2669 9901 1 -0.8 40.239 14.873 16.633 0 0 0
2672 9901 3 1.6 41.11 13.519 16.633 0 0 0
8356 9900 1 -0.8 57.556 59.561 58.483 0 0 0
8352 9899 1 -0.8 56.29 60.292 56.417 0 0 0
8350 9898 1 -0.8 56.29 58.83 54.35 0 0 0
7131 9897 1 -0.8 56.29 57.369 52.283 0 0 0
7133 9896 1 -0.8 57.556 58.1 50.217 0 0 0
7134 9895 1 -0.8 58.821 58.83 48.15 0 0 0
6158 9894 1 -0.8 57.556 59.561 46.083 0 0 0
6154 9893 1 -0.8 56.29 60.292 44.017 0 0 0
6152 9892 1 -0.8 56.29 58.83 41.95 0 0 0
5318 9891 1 -0.8 56.29 57.369 39.883 0 0 0
5320 9890 1 -0.8 57.556 58.1 37.817 0 0 0
4826 9889 1 -0.8 58.821 58.83 35.75 0 0 0
4820 9888 1 -0.8 57.556 59.561 33.683 0 0 0
4817 9887 1 -0.8 56.29 60.292 31.617 0 0 0
4328 9886 1 -0.8 56.29 58.83 29.55 0 0 0
4326 9885 1 -0.8 56.29 57.369 27.483 0 0 0
4330 9884 1 -0.8 57.556 58.1 25.417 0 0 0
3724 9883 1 -0.8 58.821 58.83 23.35 0 0 0
3719 9882 1 -0.8 57.556 59.561 21.283 0 0 0
3716 9881 1 -0.8 56.29 60.292 19.217 0 0 0
3218 9880 1 -0.8 56.29 58.83 17.15 0 0 0
3216 9879 1 -0.8 56.29 57.369 15.083 0 0 0
3221 9878 1 -0.8 57.556 58.1 13.017 0 0 0
2226 9877 1 -0.8 57.556 59.561 8.883 0 0 0
2231 9876 1 -0.8 58.821 58.83 10.95 0 0 0
2223 9875 1 -0.8 56.29 60.292 6.817 0 0 0
6626 3532 1 -0.8 3.161 25.212 50.217 0 0 0
6566 3533 1 -0.8 1.896 23.02 50.217 0 0 0
6569 3534 1 -0.8 4.427 23.02 50.217 0 0 0
6624 3535 1 -0.8 60.087 23.02 50.217 0 0 0
6563 3536 1 -0.8 0.63 22.289 52.283 0 0 0
7585 3537 1 -0.8 1.896 21.558 54.35 0 0 0
7594 3538 1 -0.8 4.427 21.558 54.35 0 0 0
7589 3539 1 -0.8 3.161 20.828 56.417 0 0 0
7666 3540 1 -0.8 60.087 21.558 54.35 0 0 0
7583 3541 1 -0.8 0.63 23.75 54.35 0 0 0
7586 3542 1 -0.8 1.896 24.481 58.483 0 0 0
7595 3543 1 -0.8 4.427 24.481 58.483 0 0 0
7591 3544 1 -0.8 3.161 22.289 58.483 0 0 0
7593 3545 1 -0.8 4.427 20.097 58.483 0 0 0
610 3546 1 -0.8 1.896 27.406 0.617 0 0 0
614 3547 1 -0.8 3.161 26.675 2.683 0 0 0
619 3548 1 -0.8 4.427 27.406 0.617 0 0 0
683 3549 1 -0.8 60.087 25.942 4.75 0 0 0
609 3550 1 -0.8 1.896 25.942 4.75 0 0 0
1764 3551 1 -0.8 0.63 25.212 6.817 0 0 0
616 3552 1 -0.8 3.161 28.136 4.75 0 0 0
618 3553 1 -0.8 4.427 25.942 4.75 0 0 0
1763 3554 1 -0.8 60.087 24.481 8.883 0 0 0
1766 3555 1 -0.8 0.63 26.675 8.883 0 0 0
1367 9874 1 -0.8 56.29 58.83 4.75 0 0 0
1365 9873 1 -0.8 56.29 57.369 2.683 0 0 0
1370 9872 1 -0.8 57.556 58.1 0.617 0 0 0
1373 9871 1 -0.8 58.821 58.83 0 0 0 1
8354 9870 1 -0.8 57.556 55.177 58.483 0 0 0
8361 9869 1 -0.8 58.821 57.369 58.483 0 0 0
8359 9868 1 -0.8 58.821 55.908 56.417 0 0 0
8355 9867 1 -0.8 57.556 56.638 54.35 0 0 0
8160 9866 1 -0.8 58.821 54.446 54.35 0 0 0
7129 9865 1 -0.8 56.29 55.908 50.217 0 0 0
7026 9864 1 -0.8 58.821 52.985 52.283 0 0 0
7021 9863 1 -0.8 57.556 53.716 50.217 0 0 0
7018 9862 1 -0.8 56.29 54.446 48.15 0 0 0
6156 9861 1 -0.8 57.556 55.177 46.083 0 0 0
6163 9860 1 -0.8 58.821 57.369 46.083 0 0 0
6161 9859 1 -0.8 58.821 55.908 44.017 0 0 0
6157 9858 1 -0.8 57.556 56.638 41.95 0 0 0
5962 9857 1 -0.8 58.821 54.446 41.95 0 0 0
5316 9856 1 -0.8 56.29 55.908 37.817 0 0 0
5224 9855 1 -0.8 58.821 52.985 39.883 0 0 0
5220 9854 1 -0.8 57.556 53.716 37.817 0 0 0
4669 9853 1 -0.8 56.29 54.446 35.75 0 0 0
4819 9852 1 -0.8 57.556 55.177 33.683 0 0 0
4824 9851 1 -0.8 58.821 57.369 33.683 0 0 0
4822 9850 1 -0.8 58.821 55.908 31.617 0 0 0
4329 9849 1 -0.8 57.556 56.638 29.55 0 0 0
4178 9848 1 -0.8 58.821 54.446 29.55 0 0 0
4324 9847 1 -0.8 56.29 55.908 25.417 0 0 0
4176 9846 1 -0.8 58.821 52.985 27.483 0 0 0
4172 9845 1 -0.8 57.556 53.716 25.417 0 0 0
6625 3586 1 -0.8 1.896 27.406 50.217 0 0 0
6630 3587 1 -0.8 4.427 27.406 50.217 0 0 0
6628 3588 1 -0.8 3.161 26.675 52.283 0 0 0
7742 3589 1 -0.8 60.087 25.942 54.35 0 0 0
7673 3590 1 -0.8 1.896 25.942 54.35 0 0 0
7669 3591 1 -0.8 0.63 25.212 56.417 0 0 0
7676 3592 1 -0.8 3.161 28.136 54.35 0 0 0
7680 3593 1 -0.8 4.427 25.942 54.35 0 0 0
7667 3594 1 -0.8 60.087 24.481 58.483 0 0 0
7671 3595 1 -0.8 0.63 26.675 58.483 0 0 0
607 3596 1 -0.8 0.63 28.136 0 0 0 1
608 3597 1 -0.8 0.63 29.598 0.617 0 0 0
684 3598 1 -0.8 60.087 27.406 0.617 0 0 0
775 3599 1 -0.8 60.087 31.79 0.617 0 0 0
691 3600 1 -0.8 1.896 31.79 0.617 0 0 0
687 3601 1 -0.8 0.63 31.059 2.683 0 0 0
611 3602 1 -0.8 1.896 30.328 4.75 0 0 0
1769 3603 1 -0.8 3.161 29.598 6.817 0 0 0
620 3604 1 -0.8 4.427 30.328 4.75 0 0 0
689 3605 1 -0.8 0.63 32.52 4.75 0 0 0
685 3606 1 -0.8 60.087 30.328 4.75 0 0 0
1811 3607 1 -0.8 3.161 31.059 8.883 0 0 0
1768 3608 1 -0.8 1.896 28.867 8.883 0 0 0
1771 3609 1 -0.8 4.427 28.867 8.883 0 0 0
1806 3610 1 -0.8 60.087 28.867 8.883 0 0 0
3590 9844 1 -0.8 56.29 54.446 23.35 0 0 0
3718 9843 1 -0.8 57.556 55.177 21.283 0 0 0
3722 9842 1 -0.8 58.821 57.369 21.283 0 0 0
3720 9841 1 -0.8 58.821 55.908 19.217 0 0 0
3220 9840 1 -0.8 57.556 56.638 17.15 0 0 0
3045 9839 1 -0.8 58.821 54.446 17.15 0 0 0
3214 9838 1 -0.8 56.29 55.908 13.017 0 0 0
3043 9837 1 -0.8 58.821 52.985 15.083 0 0 0
3039 9836 1 -0.8 57.556 53.716 13.017 0 0 0
2097 9835 1 -0.8 56.29 54.446 10.95 0 0 0
2225 9834 1 -0.8 57.556 55.177 8.883 0 0 0
2229 9833 1 -0.8 58.821 57.369 8.883 0 0 0
2227 9832 1 -0.8 58.821 55.908 6.817 0 0 0
1369 9831 1 -0.8 57.556 56.638 4.75 0 0 0
1194 9830 1 -0.8 58.821 54.446 4.75 0 0 0
1363 9829 1 -0.8 56.29 55.908 0.617 0 0 0
1185 9828 1 -0.8 56.29 54.446 0 0 0 1
1192 9827 1 -0.8 58.821 52.985 2.683 0 0 0
1188 9826 1 -0.8 57.556 53.716 0.617 0 0 0
8155 9825 1 -0.8 56.29 52.985 58.483 0 0 0
8157 9824 1 -0.8 57.556 50.791 58.483 0 0 0
8153 9823 1 -0.8 56.29 51.522 56.417 0 0 0
8158 9822 1 -0.8 57.556 52.252 54.35 0 0 0
8151 9821 1 -0.8 56.29 50.06 54.35 0 0 0
6882 9820 1 -0.8 56.29 48.599 52.283 0 0 0
7024 9819 1 -0.8 58.821 51.522 50.217 0 0 0
7020 9818 1 -0.8 57.556 49.33 50.217 0 0 0
5957 9817 1 -0.8 56.29 52.985 46.083 0 0 0
7022 9816 1 -0.8 58.821 50.06 48.15 0 0 0
5959 9815 1 -0.8 57.556 50.791 46.083 0 0 0
5955 9814 1 -0.8 56.29 51.522 44.017 0 0 0
5960 9813 1 -0.8 57.556 52.252 41.95 0 0 0
5953 9812 1 -0.8 56.29 50.06 41.95 0 0 0
5110 9811 1 -0.8 56.29 48.599 39.883 0 0 0
5222 9810 1 -0.8 58.821 51.522 37.817 0 0 0
5219 9809 1 -0.8 57.556 49.33 37.817 0 0 0
4667 9808 1 -0.8 56.29 52.985 33.683 0 0 0
4671 9807 1 -0.8 58.821 50.06 35.75 0 0 0
4670 9806 1 -0.8 57.556 50.791 33.683 0 0 0
4665 9805 1 -0.8 56.29 51.522 31.617 0 0 0
4171 9804 1 -0.8 57.556 52.252 29.55 0 0 0
4174 9801 1 -0.8 58.821 51.522 25.417 0 0 0
3588 9799 1 -0.8 56.29 52.985 21.283 0 0 0
3593 9798 1 -0.8 58.821 50.06 23.35 0 0 0
3591 9797 1 -0.8 57.556 50.791 21.283 0 0 0
3586 9796 1 -0.8 56.29 51.522 19.217 0 0 0
3038 9795 1 -0.8 57.556 52.252 17.15 0 0 0
6658 3658 1 -0.8 60.087 27.406 50.217 0 0 0
3034 9794 1 -0.8 56.29 50.06 17.15 0 0 0
2861 9793 1 -0.8 56.29 48.599 15.083 0 0 0
6660 3661 1 -0.8 0.63 31.059 52.283 0 0 0
7675 3662 1 -0.8 1.896 30.328 54.35 0 0 0
7682 3663 1 -0.8 4.427 30.328 54.35 0 0 0
7678 3664 1 -0.8 3.161 29.598 56.417 0 0 0
7745 3665 1 -0.8 0.63 32.52 54.35 0 0 0
7744 3666 1 -0.8 60.087 30.328 54.35 0 0 0
7752 3667 1 -0.8 3.161 31.059 58.483 0 0 0
7674 3668 1 -0.8 1.896 28.867 58.483 0 0 0
7681 3669 1 -0.8 4.427 28.867 58.483 0 0 0
7743 3670 1 -0.8 60.087 28.867 58.483 0 0 0
694 3671 1 -0.8 3.161 32.52 0 0 0 1
695 3672 1 -0.8 3.161 33.982 0.617 0 0 0
699 3673 1 -0.8 4.427 31.79 0.617 0 0 0
693 3674 1 -0.8 1.896 36.176 0.617 0 0 0
701 3675 1 -0.8 4.427 36.176 0.617 0 0 0
697 3676 1 -0.8 3.161 35.445 2.683 0 0 0
776 3677 1 -0.8 60.087 34.712 4.75 0 0 0
692 3678 1 -0.8 1.896 34.712 4.75 0 0 0
1807 3679 1 -0.8 0.63 33.982 6.817 0 0 0
787 3680 1 -0.8 3.161 36.906 4.75 0 0 0
700 3681 1 -0.8 4.427 34.712 4.75 0 0 0
3041 9792 1 -0.8 58.821 51.522 13.017 0 0 0
1810 3683 1 -0.8 1.896 33.251 8.883 0 0 0
1813 3684 1 -0.8 4.427 33.251 8.883 0 0 0
1843 3685 1 -0.8 60.087 33.251 8.883 0 0 0
1809 3686 1 -0.8 0.63 35.445 8.883 0 0 0
3037 9791 1 -0.8 57.556 49.33 13.017 0 0 0
2095 9790 1 -0.8 56.29 52.985 8.883 0 0 0
2098 9789 1 -0.8 57.556 50.791 8.883 0 0 0
2100 9788 1 -0.8 58.821 50.06 10.95 0 0 0
2093 9787 1 -0.8 56.29 51.522 6.817 0 0 0
1187 9786 1 -0.8 57.556 52.252 4.75 0 0 0
1183 9785 1 -0.8 56.29 50.06 4.75 0 0 0
1006 9784 1 -0.8 56.29 48.599 2.683 0 0 0
1190 9783 1 -0.8 58.821 51.522 0.617 0 0 0
1186 9782 1 -0.8 57.556 49.33 0.617 0 0 0
1189 9781 1 -0.8 58.821 50.06 0 0 0 1
8007 9780 1 -0.8 57.556 46.407 58.483 0 0 0
8013 9779 1 -0.8 58.821 48.599 58.483 0 0 0
8011 9778 1 -0.8 58.821 47.138 56.417 0 0 0
8008 9777 1 -0.8 57.556 47.868 54.35 0 0 0
8009 9776 1 -0.8 58.821 45.676 54.35 0 0 0
6880 9775 1 -0.8 56.29 47.138 50.217 0 0 0
6886 9774 1 -0.8 58.821 44.215 52.283 0 0 0
6884 9773 1 -0.8 57.556 44.946 50.217 0 0 0
6878 9772 1 -0.8 56.29 45.676 48.15 0 0 0
5811 9771 1 -0.8 57.556 46.407 46.083 0 0 0
5816 9770 1 -0.8 58.821 48.599 46.083 0 0 0
5814 9769 1 -0.8 58.821 47.138 44.017 0 0 0
5812 9768 1 -0.8 57.556 47.868 41.95 0 0 0
3486 9752 1 -0.8 58.821 48.599 21.283 0 0 0
2864 9750 1 -0.8 57.556 47.868 17.15 0 0 0
2859 9748 1 -0.8 56.29 47.138 13.017 0 0 0
2866 9747 1 -0.8 58.821 44.215 15.083 0 0 0
2863 9746 1 -0.8 57.556 44.946 13.017 0 0 0
1988 9745 1 -0.8 56.29 45.676 10.95 0 0 0
1989 9744 1 -0.8 57.556 46.407 8.883 0 0 0
1992 9743 1 -0.8 58.821 48.599 8.883 0 0 0
1990 9742 1 -0.8 58.821 47.138 6.817 0 0 0
1010 9741 1 -0.8 57.556 47.868 4.75 0 0 0
1014 9740 1 -0.8 58.821 45.676 4.75 0 0 0
1004 9739 1 -0.8 56.29 47.138 0.617 0 0 0
1003 9738 1 -0.8 56.29 45.676 0 0 0 1
1012 9737 1 -0.8 58.821 44.215 2.683 0 0 0
1009 9736 1 -0.8 57.556 44.946 0.617 0 0 0
8004 9735 1 -0.8 56.29 44.215 58.483 0 0 0
7895 9734 1 -0.8 57.556 42.021 58.483 0 0 0
7891 9733 1 -0.8 56.29 42.752 56.417 0 0 0
8006 9732 1 -0.8 57.556 43.482 54.35 0 0 0
6778 9731 1 -0.8 58.821 42.752 50.217 0 0 0
5809 9730 1 -0.8 56.29 44.215 46.083 0 0 0
6663 3732 1 -0.8 3.161 33.982 50.217 0 0 0
6776 9729 1 -0.8 58.821 41.29 48.15 0 0 0
6662 3734 1 -0.8 1.896 36.176 50.217 0 0 0
6667 3735 1 -0.8 4.427 36.176 50.217 0 0 0
6665 3736 1 -0.8 3.161 35.445 52.283 0 0 0
7803 3737 1 -0.8 60.087 34.712 54.35 0 0 0
7751 3738 1 -0.8 1.896 34.712 54.35 0 0 0
7747 3739 1 -0.8 0.63 33.982 56.417 0 0 0
7812 3740 1 -0.8 3.161 36.906 54.35 0 0 0
7755 3741 1 -0.8 4.427 34.712 54.35 0 0 0
7750 3742 1 -0.8 1.896 33.251 58.483 0 0 0
7754 3743 1 -0.8 4.427 33.251 58.483 0 0 0
7802 3744 1 -0.8 60.087 33.251 58.483 0 0 0
7749 3745 1 -0.8 0.63 35.445 58.483 0 0 0
778 3746 1 -0.8 0.63 36.906 0 0 0 1
777 3747 1 -0.8 60.087 36.176 0.617 0 0 0
779 3748 1 -0.8 0.63 38.368 0.617 0 0 0
869 3749 1 -0.8 60.087 40.56 0.617 0 0 0
786 3750 1 -0.8 1.896 40.56 0.617 0 0 0
781 3751 1 -0.8 0.63 39.829 2.683 0 0 0
785 3752 1 -0.8 1.896 39.098 4.75 0 0 0
1850 3753 1 -0.8 3.161 38.368 6.817 0 0 0
791 3754 1 -0.8 4.427 39.098 4.75 0 0 0
783 3755 1 -0.8 0.63 41.29 4.75 0 0 0
868 3756 1 -0.8 60.087 39.098 4.75 0 0 0
1852 3757 1 -0.8 3.161 39.829 8.883 0 0 0
1848 3758 1 -0.8 1.896 37.637 8.883 0 0 0
1855 3759 1 -0.8 4.427 37.637 8.883 0 0 0
1920 3760 1 -0.8 60.087 37.637 8.883 0 0 0
1845 3761 1 -0.8 0.63 36.906 10.95 0 0 0
2750 9713 1 -0.8 58.821 42.752 13.017 0 0 0
1986 9712 1 -0.8 56.29 44.215 8.883 0 0 0
1914 9711 1 -0.8 57.556 42.021 8.883 0 0 0
1919 9710 1 -0.8 58.821 41.29 10.95 0 0 0
1911 9709 1 -0.8 56.29 42.752 6.817 0 0 0
1008 9708 1 -0.8 57.556 43.482 4.75 0 0 0
867 9707 1 -0.8 58.821 42.752 0.617 0 0 0
866 9706 1 -0.8 58.821 41.29 0 0 0 1
7893 9705 1 -0.8 57.556 37.637 58.483 0 0 0
7900 9704 1 -0.8 58.821 39.829 58.483 0 0 0
7889 9703 1 -0.8 56.29 41.29 54.35 0 0 0
7898 9702 1 -0.8 58.821 38.368 56.417 0 0 0
7894 9701 1 -0.8 57.556 39.098 54.35 0 0 0
6773 9700 1 -0.8 56.29 39.829 52.283 0 0 0
6775 9699 1 -0.8 57.556 40.56 50.217 0 0 0
6771 9698 1 -0.8 56.29 38.368 50.217 0 0 0
1910 9670 1 -0.8 56.29 36.906 10.95 0 0 0
1913 9669 1 -0.8 57.556 37.637 8.883 0 0 0
1917 9668 1 -0.8 58.821 39.829 8.883 0 0 0
860 9667 1 -0.8 56.29 41.29 4.75 0 0 0
1915 9666 1 -0.8 58.821 38.368 6.817 0 0 0
862 9665 1 -0.8 57.556 39.098 4.75 0 0 0
858 9664 1 -0.8 56.29 39.829 2.683 0 0 0
863 9663 1 -0.8 57.556 40.56 0.617 0 0 0
856 9662 1 -0.8 56.29 38.368 0.617 0 0 0
855 9661 1 -0.8 56.29 36.906 0 0 0 1
7797 9660 1 -0.8 56.29 35.445 58.483 0 0 0
7798 9659 1 -0.8 57.556 33.251 58.483 0 0 0
7896 9658 1 -0.8 58.821 36.906 54.35 0 0 0
7795 9657 1 -0.8 56.29 33.982 56.417 0 0 0
7799 9656 1 -0.8 57.556 34.712 54.35 0 0 0
6714 9655 1 -0.8 58.821 35.445 52.283 0 0 0
6711 9654 1 -0.8 57.556 36.176 50.217 0 0 0
6712 9653 1 -0.8 58.821 33.982 50.217 0 0 0
1839 9625 1 -0.8 56.29 35.445 8.883 0 0 0
1840 9624 1 -0.8 57.556 33.251 8.883 0 0 0
864 9622 1 -0.8 58.821 36.906 4.75 0 0 0
1837 9621 1 -0.8 56.29 33.982 6.817 0 0 0
768 9620 1 -0.8 57.556 34.712 4.75 0 0 0
773 9619 1 -0.8 58.821 35.445 2.683 0 0 0
769 9618 1 -0.8 57.556 36.176 0.617 0 0 0
771 9617 1 -0.8 58.821 33.982 0.617 0 0 0
770 9616 1 -0.8 58.821 32.52 0 0 0 1
7736 9615 1 -0.8 57.556 28.867 58.483 0 0 0
7800 9614 1 -0.8 58.821 31.059 58.483 0 0 0
6716 3807 1 -0.8 60.087 36.176 50.217 0 0 0
6718 3808 1 -0.8 0.63 38.368 50.217 0 0 0
6779 3809 1 -0.8 60.087 40.56 50.217 0 0 0
6722 3810 1 -0.8 1.896 40.56 50.217 0 0 0
6720 3811 1 -0.8 0.63 39.829 52.283 0 0 0
7810 3812 1 -0.8 1.896 39.098 54.35 0 0 0
7819 3813 1 -0.8 4.427 39.098 54.35 0 0 0
7814 3814 1 -0.8 3.161 38.368 56.417 0 0 0
7805 3815 1 -0.8 0.63 41.29 54.35 0 0 0
7903 3816 1 -0.8 60.087 39.098 54.35 0 0 0
7816 3817 1 -0.8 3.161 39.829 58.483 0 0 0
7809 3818 1 -0.8 1.896 37.637 58.483 0 0 0
7818 3819 1 -0.8 4.427 37.637 58.483 0 0 0
7902 3820 1 -0.8 60.087 37.637 58.483 0 0 0
789 3821 1 -0.8 3.161 41.29 0 0 0 1
790 3822 1 -0.8 3.161 42.752 0.617 0 0 0
792 3823 1 -0.8 4.427 40.56 0.617 0 0 0
1016 3824 1 -0.8 60.087 43.482 4.75 0 0 0
875 3825 1 -0.8 1.896 43.482 4.75 0 0 0
1846 3826 1 -0.8 0.63 42.752 6.817 0 0 0
1854 3827 1 -0.8 3.161 41.29 10.95 0 0 0
1849 3828 1 -0.8 1.896 42.021 8.883 0 0 0
1856 3829 1 -0.8 4.427 42.021 8.883 0 0 0
1922 3830 1 -0.8 0.63 44.215 8.883 0 0 0
1921 3831 1 -0.8 60.087 42.021 8.883 0 0 0
2735 3832 1 -0.8 3.161 42.752 13.017 0 0 0
7793 9613 1 -0.8 56.29 32.52 54.35 0 0 0
7740 9612 1 -0.8 58.821 29.598 56.417 0 0 0
7737 9611 1 -0.8 57.556 30.328 54.35 0 0 0
6709 9610 1 -0.8 56.29 31.059 52.283 0 0 0
1803 9579 1 -0.8 57.556 28.867 8.883 0 0 0
1841 9578 1 -0.8 58.821 31.059 8.883 0 0 0
765 9577 1 -0.8 56.29 32.52 4.75 0 0 0
1804 9576 1 -0.8 58.821 29.598 6.817 0 0 0
676 9575 1 -0.8 57.556 30.328 4.75 0 0 0
763 9574 1 -0.8 56.29 31.059 2.683 0 0 0
767 9573 1 -0.8 57.556 31.79 0.617 0 0 0
673 9572 1 -0.8 56.29 29.598 0.617 0 0 0
672 9571 1 -0.8 56.29 28.136 0 0 0 1
7733 9570 1 -0.8 56.29 26.675 58.483 0 0 0
7738 9569 1 -0.8 58.821 28.136 54.35 0 0 0
7731 9568 1 -0.8 56.29 25.212 56.417 0 0 0
7735 9567 1 -0.8 57.556 25.942 54.35 0 0 0
6656 9566 1 -0.8 58.821 26.675 52.283 0 0 0
6653 9565 1 -0.8 57.556 27.406 50.217 0 0 0
1801 9546 1 -0.8 56.29 26.675 8.883 0 0 0
681 9545 1 -0.8 58.821 28.136 4.75 0 0 0
1799 9544 1 -0.8 56.29 25.212 6.817 0 0 0
674 9543 1 -0.8 57.556 25.942 4.75 0 0 0
679 9542 1 -0.8 58.821 26.675 2.683 0 0 0
675 9541 1 -0.8 57.556 27.406 0.617 0 0 0
7663 9540 1 -0.8 58.821 22.289 58.483 0 0 0
6723 3859 1 -0.8 3.161 41.29 48.15 0 0 0
5730 3860 1 -0.8 0.63 44.215 46.083 0 0 0
7658 9539 1 -0.8 57.556 24.481 58.483 0 0 0
6725 3862 1 -0.8 3.161 42.752 50.217 0 0 0
6726 3863 1 -0.8 4.427 40.56 50.217 0 0 0
8014 3864 1 -0.8 60.087 43.482 54.35 0 0 0
7907 3865 1 -0.8 1.896 43.482 54.35 0 0 0
7807 3866 1 -0.8 0.63 42.752 56.417 0 0 0
7811 3867 1 -0.8 1.896 42.021 58.483 0 0 0
7820 3868 1 -0.8 4.427 42.021 58.483 0 0 0
7905 3869 1 -0.8 0.63 44.215 58.483 0 0 0
7904 3870 1 -0.8 60.087 42.021 58.483 0 0 0
876 3871 1 -0.8 1.896 44.946 0.617 0 0 0
879 3872 1 -0.8 3.161 44.215 2.683 0 0 0
884 3873 1 -0.8 4.427 44.946 0.617 0 0 0
870 3874 1 -0.8 0.63 45.676 0 0 0 1
1017 3875 1 -0.8 60.087 44.946 0.617 0 0 0
871 3876 1 -0.8 0.63 47.138 0.617 0 0 0
881 3877 1 -0.8 3.161 45.676 4.75 0 0 0
883 3878 1 -0.8 4.427 43.482 4.75 0 0 0
877 3879 1 -0.8 1.896 47.868 4.75 0 0 0
1926 3880 1 -0.8 3.161 47.138 6.817 0 0 0
885 3881 1 -0.8 4.427 47.868 4.75 0 0 0
1928 3882 1 -0.8 3.161 48.599 8.883 0 0 0
1925 3883 1 -0.8 1.896 46.407 8.883 0 0 0
1929 3884 1 -0.8 4.427 46.407 8.883 0 0 0
1993 3885 1 -0.8 60.087 46.407 8.883 0 0 0
1924 3886 1 -0.8 0.63 45.676 10.95 0 0 0
2756 3887 1 -0.8 1.896 44.946 13.017 0 0 0
2759 3888 1 -0.8 3.161 44.215 15.083 0 0 0
2761 3889 1 -0.8 4.427 44.946 13.017 0 0 0
2868 3890 1 -0.8 60.087 44.946 13.017 0 0 0
2752 3891 1 -0.8 0.63 47.138 13.017 0 0 0
7655 9538 1 -0.8 56.29 23.75 54.35 0 0 0
7661 9537 1 -0.8 58.821 20.828 56.417 0 0 0
2757 3894 1 -0.8 1.896 47.868 17.15 0 0 0
7657 9536 1 -0.8 57.556 21.558 54.35 0 0 0
2762 3896 1 -0.8 4.427 47.868 17.15 0 0 0
3479 3897 1 -0.8 3.161 48.599 21.283 0 0 0
6618 9535 1 -0.8 56.29 22.289 52.283 0 0 0
6621 9534 1 -0.8 57.556 23.02 50.217 0 0 0
6654 9533 1 -0.8 58.821 25.212 50.217 0 0 0
1759 9505 1 -0.8 58.821 22.289 8.883 0 0 0
1761 9504 1 -0.8 58.821 23.75 10.95 0 0 0
1756 9503 1 -0.8 57.556 24.481 8.883 0 0 0
596 9502 1 -0.8 56.29 23.75 4.75 0 0 0
1757 9501 1 -0.8 58.821 20.828 6.817 0 0 0
598 9500 1 -0.8 57.556 21.558 4.75 0 0 0
594 9499 1 -0.8 56.29 22.289 2.683 0 0 0
599 9498 1 -0.8 57.556 23.02 0.617 0 0 0
677 9497 1 -0.8 58.821 25.212 0.617 0 0 0
602 9496 1 -0.8 58.821 23.75 0 0 0 1
7656 9495 1 -0.8 57.556 20.097 58.483 0 0 0
7573 9494 1 -0.8 56.29 17.905 58.483 0 0 0
7659 9493 1 -0.8 58.821 19.366 54.35 0 0 0
7571 9492 1 -0.8 56.29 16.442 56.417 0 0 0
7576 9491 1 -0.8 57.556 17.172 54.35 0 0 0
6616 9490 1 -0.8 56.29 20.828 50.217 0 0 0
6556 9489 1 -0.8 58.821 17.905 52.283 0 0 0
6620 9488 1 -0.8 57.556 18.636 50.217 0 0 0
6614 9487 1 -0.8 56.29 19.366 48.15 0 0 0
5723 9485 1 -0.8 56.29 17.905 46.083 0 0 0
2732 9461 1 -0.8 57.556 18.636 13.017 0 0 0
1754 9460 1 -0.8 56.29 19.366 10.95 0 0 0
1755 9459 1 -0.8 57.556 20.097 8.883 0 0 0
5733 3924 1 -0.8 1.896 47.868 41.95 0 0 0
5739 3925 1 -0.8 4.427 47.868 41.95 0 0 0
5735 3926 1 -0.8 3.161 47.138 44.017 0 0 0
5737 3927 1 -0.8 3.161 48.599 46.083 0 0 0
5732 3928 1 -0.8 1.896 46.407 46.083 0 0 0
5738 3929 1 -0.8 4.427 46.407 46.083 0 0 0
5817 3930 1 -0.8 60.087 46.407 46.083 0 0 0
6780 3931 1 -0.8 0.63 45.676 48.15 0 0 0
6786 3932 1 -0.8 1.896 44.946 50.217 0 0 0
6790 3933 1 -0.8 4.427 44.946 50.217 0 0 0
6788 3934 1 -0.8 3.161 44.215 52.283 0 0 0
6888 3935 1 -0.8 60.087 44.946 50.217 0 0 0
6782 3936 1 -0.8 0.63 47.138 50.217 0 0 0
7910 3937 1 -0.8 3.161 45.676 54.35 0 0 0
7915 3938 1 -0.8 4.427 43.482 54.35 0 0 0
7909 3939 1 -0.8 1.896 47.868 54.35 0 0 0
7917 3940 1 -0.8 4.427 47.868 54.35 0 0 0
7912 3941 1 -0.8 3.161 47.138 56.417 0 0 0
7914 3942 1 -0.8 3.161 48.599 58.483 0 0 0
7908 3943 1 -0.8 1.896 46.407 58.483 0 0 0
7916 3944 1 -0.8 4.427 46.407 58.483 0 0 0
8015 3945 1 -0.8 60.087 46.407 58.483 0 0 0
1025 3946 1 -0.8 3.161 50.06 0 0 0 1
1022 3947 1 -0.8 1.896 49.33 0.617 0 0 0
1026 3948 1 -0.8 3.161 51.522 0.617 0 0 0
1031 3949 1 -0.8 4.427 49.33 0.617 0 0 0
1195 3950 1 -0.8 60.087 49.33 0.617 0 0 0
873 3951 1 -0.8 0.63 48.599 2.683 0 0 0
1019 3952 1 -0.8 0.63 50.06 4.75 0 0 0
1018 3953 1 -0.8 60.087 47.868 4.75 0 0 0
1196 3954 1 -0.8 60.087 52.252 4.75 0 0 0
1023 3955 1 -0.8 1.896 52.252 4.75 0 0 0
1994 3956 1 -0.8 0.63 51.522 6.817 0 0 0
2001 3957 1 -0.8 3.161 50.06 10.95 0 0 0
1999 3958 1 -0.8 1.896 50.791 8.883 0 0 0
2002 3959 1 -0.8 4.427 50.791 8.883 0 0 0
1996 3960 1 -0.8 0.63 52.985 8.883 0 0 0
2101 3961 1 -0.8 60.087 50.791 8.883 0 0 0
2873 3962 1 -0.8 1.896 49.33 13.017 0 0 0
2877 3963 1 -0.8 3.161 51.522 13.017 0 0 0
2882 3964 1 -0.8 4.427 49.33 13.017 0 0 0
3046 3965 1 -0.8 60.087 49.33 13.017 0 0 0
2754 3966 1 -0.8 0.63 48.599 15.083 0 0 0
2870 3967 1 -0.8 0.63 50.06 17.15 0 0 0
2869 3968 1 -0.8 60.087 47.868 17.15 0 0 0
3047 3969 1 -0.8 60.087 52.252 17.15 0 0 0
2874 3970 1 -0.8 1.896 52.252 17.15 0 0 0
3487 3971 1 -0.8 0.63 51.522 19.217 0 0 0
3492 3972 1 -0.8 1.896 50.791 21.283 0 0 0
3495 3973 1 -0.8 4.427 50.791 21.283 0 0 0
3494 3974 1 -0.8 3.161 50.06 23.35 0 0 0
3489 3975 1 -0.8 0.63 52.985 21.283 0 0 0
3594 3976 1 -0.8 60.087 50.791 21.283 0 0 0
1692 9458 1 -0.8 56.29 17.905 8.883 0 0 0
4053 3978 1 -0.8 3.161 51.522 25.417 0 0 0
600 9457 1 -0.8 58.821 19.366 4.75 0 0 0
1690 9456 1 -0.8 56.29 16.442 6.817 0 0 0
506 9455 1 -0.8 57.556 17.172 4.75 0 0 0
592 9454 1 -0.8 56.29 20.828 0.617 0 0 0
591 9453 1 -0.8 56.29 19.366 0 0 0 1
4179 3984 1 -0.8 60.087 52.252 29.55 0 0 0
4050 3985 1 -0.8 1.896 52.252 29.55 0 0 0
4566 3986 1 -0.8 0.63 51.522 31.617 0 0 0
4571 3987 1 -0.8 1.896 50.791 33.683 0 0 0
4573 3988 1 -0.8 4.427 50.791 33.683 0 0 0
4572 3989 1 -0.8 3.161 50.06 35.75 0 0 0
4568 3990 1 -0.8 0.63 52.985 33.683 0 0 0
4672 3991 1 -0.8 60.087 50.791 33.683 0 0 0
5113 3992 1 -0.8 1.896 49.33 37.817 0 0 0
5116 3993 1 -0.8 3.161 51.522 37.817 0 0 0
5120 3994 1 -0.8 4.427 49.33 37.817 0 0 0
5226 3995 1 -0.8 60.087 49.33 37.817 0 0 0
5091 3996 1 -0.8 0.63 48.599 39.883 0 0 0
5819 3997 1 -0.8 0.63 50.06 41.95 0 0 0
5818 3998 1 -0.8 60.087 47.868 41.95 0 0 0
5964 3999 1 -0.8 60.087 52.252 41.95 0 0 0
5826 4000 1 -0.8 1.896 52.252 41.95 0 0 0
5821 4001 1 -0.8 0.63 51.522 44.017 0 0 0
5825 4002 1 -0.8 1.896 50.791 46.083 0 0 0
5829 4003 1 -0.8 4.427 50.791 46.083 0 0 0
6893 4004 1 -0.8 3.161 50.06 48.15 0 0 0
5823 4005 1 -0.8 0.63 52.985 46.083 0 0 0
5963 4006 1 -0.8 60.087 50.791 46.083 0 0 0
6891 4007 1 -0.8 1.896 49.33 50.217 0 0 0
6895 4008 1 -0.8 3.161 51.522 50.217 0 0 0
6899 4009 1 -0.8 4.427 49.33 50.217 0 0 0
7028 4010 1 -0.8 60.087 49.33 50.217 0 0 0
6784 4011 1 -0.8 0.63 48.599 52.283 0 0 0
8017 4012 1 -0.8 0.63 50.06 54.35 0 0 0
8016 4013 1 -0.8 60.087 47.868 54.35 0 0 0
8162 4014 1 -0.8 60.087 52.252 54.35 0 0 0
8024 4015 1 -0.8 1.896 52.252 54.35 0 0 0
8019 4016 1 -0.8 0.63 51.522 56.417 0 0 0
8023 4017 1 -0.8 1.896 50.791 58.483 0 0 0
8027 4018 1 -0.8 4.427 50.791 58.483 0 0 0
8021 4019 1 -0.8 0.63 52.985 58.483 0 0 0
8161 4020 1 -0.8 60.087 50.791 58.483 0 0 0
1024 4021 1 -0.8 1.896 53.716 0.617 0 0 0
1028 4022 1 -0.8 3.161 52.985 2.683 0 0 0
1033 4023 1 -0.8 4.427 53.716 0.617 0 0 0
1021 4024 1 -0.8 0.63 54.446 0 0 0 1
1197 4025 1 -0.8 60.087 53.716 0.617 0 0 0
1198 4026 1 -0.8 0.63 55.908 0.617 0 0 0
1030 4027 1 -0.8 3.161 54.446 4.75 0 0 0
1032 4028 1 -0.8 4.427 52.252 4.75 0 0 0
1204 4029 1 -0.8 1.896 56.638 4.75 0 0 0
1210 4030 1 -0.8 4.427 56.638 4.75 0 0 0
2106 4031 1 -0.8 3.161 55.908 6.817 0 0 0
2108 4032 1 -0.8 3.161 57.369 8.883 0 0 0
2104 4033 1 -0.8 1.896 55.177 8.883 0 0 0
2111 4034 1 -0.8 4.427 55.177 8.883 0 0 0
2232 4035 1 -0.8 60.087 55.177 8.883 0 0 0
1998 4036 1 -0.8 0.63 54.446 10.95 0 0 0
2875 4037 1 -0.8 1.896 53.716 13.017 0 0 0
2879 4038 1 -0.8 3.161 52.985 15.083 0 0 0
2884 4039 1 -0.8 4.427 53.716 13.017 0 0 0
3048 4040 1 -0.8 60.087 53.716 13.017 0 0 0
3049 4041 1 -0.8 0.63 55.908 13.017 0 0 0
2881 4042 1 -0.8 3.161 54.446 17.15 0 0 0
2883 4043 1 -0.8 4.427 52.252 17.15 0 0 0
3055 4044 1 -0.8 1.896 56.638 17.15 0 0 0
3061 4045 1 -0.8 4.427 56.638 17.15 0 0 0
3599 4046 1 -0.8 3.161 55.908 19.217 0 0 0
3601 4047 1 -0.8 3.161 57.369 21.283 0 0 0
3597 4048 1 -0.8 1.896 55.177 21.283 0 0 0
3604 4049 1 -0.8 4.427 55.177 21.283 0 0 0
3725 4050 1 -0.8 60.087 55.177 21.283 0 0 0
3491 4051 1 -0.8 0.63 54.446 23.35 0 0 0
4051 4052 1 -0.8 1.896 53.716 25.417 0 0 0
4059 4053 1 -0.8 4.427 53.716 25.417 0 0 0
4055 4054 1 -0.8 3.161 52.985 27.483 0 0 0
4180 4055 1 -0.8 60.087 53.716 25.417 0 0 0
4181 4056 1 -0.8 0.63 55.908 25.417 0 0 0
4057 4057 1 -0.8 3.161 54.446 29.55 0 0 0
4058 4058 1 -0.8 4.427 52.252 29.55 0 0 0
4186 4059 1 -0.8 1.896 56.638 29.55 0 0 0
4191 4060 1 -0.8 4.427 56.638 29.55 0 0 0
4679 4061 1 -0.8 3.161 55.908 31.617 0 0 0
4681 4062 1 -0.8 3.161 57.369 33.683 0 0 0
4676 4063 1 -0.8 1.896 55.177 33.683 0 0 0
4684 4064 1 -0.8 4.427 55.177 33.683 0 0 0
4827 4065 1 -0.8 60.087 55.177 33.683 0 0 0
4570 4066 1 -0.8 0.63 54.446 35.75 0 0 0
5114 4067 1 -0.8 1.896 53.716 37.817 0 0 0
5121 4068 1 -0.8 4.427 53.716 37.817 0 0 0
5118 4069 1 -0.8 3.161 52.985 39.883 0 0 0
5227 4070 1 -0.8 60.087 53.716 37.817 0 0 0
5228 4071 1 -0.8 0.63 55.908 37.817 0 0 0
5828 4072 1 -0.8 3.161 54.446 41.95 0 0 0
5830 4073 1 -0.8 4.427 52.252 41.95 0 0 0
5970 4074 1 -0.8 1.896 56.638 41.95 0 0 0
5979 4075 1 -0.8 4.427 56.638 41.95 0 0 0
5974 4076 1 -0.8 3.161 55.908 44.017 0 0 0
5976 4077 1 -0.8 3.161 57.369 46.083 0 0 0
5969 4078 1 -0.8 1.896 55.177 46.083 0 0 0
5978 4079 1 -0.8 4.427 55.177 46.083 0 0 0
6165 4080 1 -0.8 60.087 55.177 46.083 0 0 0
6889 4081 1 -0.8 0.63 54.446 48.15 0 0 0
6892 4082 1 -0.8 1.896 53.716 50.217 0 0 0
6900 4083 1 -0.8 4.427 53.716 50.217 0 0 0
6897 4084 1 -0.8 3.161 52.985 52.283 0 0 0
7029 4085 1 -0.8 60.087 53.716 50.217 0 0 0
7030 4086 1 -0.8 0.63 55.908 50.217 0 0 0
8026 4087 1 -0.8 3.161 54.446 54.35 0 0 0
8028 4088 1 -0.8 4.427 52.252 54.35 0 0 0
8168 4089 1 -0.8 1.896 56.638 54.35 0 0 0
8177 4090 1 -0.8 4.427 56.638 54.35 0 0 0
8172 4091 1 -0.8 3.161 55.908 56.417 0 0 0
8174 4092 1 -0.8 3.161 57.369 58.483 0 0 0
8167 4093 1 -0.8 1.896 55.177 58.483 0 0 0
8176 4094 1 -0.8 4.427 55.177 58.483 0 0 0
8363 4095 1 -0.8 60.087 55.177 58.483 0 0 0
1208 4096 1 -0.8 3.161 58.83 0 0 0 1
1205 4097 1 -0.8 1.896 58.1 0.617 0 0 0
1211 4098 1 -0.8 4.427 58.1 0.617 0 0 0
1376 4099 1 -0.8 60.087 58.1 0.617 0 0 0
1200 4100 1 -0.8 0.63 57.369 2.683 0 0 0
1375 4101 1 -0.8 60.087 56.638 4.75 0 0 0
1202 4102 1 -0.8 0.63 58.83 4.75 0 0 0
1377 4103 1 -0.8 60.087 61.022 4.75 0 0 0
2102 4104 1 -0.8 0.63 60.292 6.817 0 0 0
2110 4105 1 -0.8 3.161 58.83 10.95 0 0 0
2105 4106 1 -0.8 1.896 59.561 8.883 0 0 0
2112 4107 1 -0.8 4.427 59.561 8.883 0 0 0
2233 4108 1 -0.8 60.087 59.561 8.883 0 0 0
3056 4109 1 -0.8 1.896 58.1 13.017 0 0 0
3062 4110 1 -0.8 4.427 58.1 13.017 0 0 0
3227 4111 1 -0.8 60.087 58.1 13.017 0 0 0
3051 4112 1 -0.8 0.63 57.369 15.083 0 0 0
3226 4113 1 -0.8 60.087 56.638 17.15 0 0 0
3053 4114 1 -0.8 0.63 58.83 17.15 0 0 0
3228 4115 1 -0.8 60.087 61.022 17.15 0 0 0
3595 4116 1 -0.8 0.63 60.292 19.217 0 0 0
3598 4117 1 -0.8 1.896 59.561 21.283 0 0 0
3605 4118 1 -0.8 4.427 59.561 21.283 0 0 0
3603 4119 1 -0.8 3.161 58.83 23.35 0 0 0
3726 4120 1 -0.8 60.087 59.561 21.283 0 0 0
4187 4121 1 -0.8 1.896 58.1 25.417 0 0 0
4192 4122 1 -0.8 4.427 58.1 25.417 0 0 0
4335 4123 1 -0.8 60.087 58.1 25.417 0 0 0
4183 4124 1 -0.8 0.63 57.369 27.483 0 0 0
4334 4125 1 -0.8 60.087 56.638 29.55 0 0 0
4185 4126 1 -0.8 0.63 58.83 29.55 0 0 0
4336 4127 1 -0.8 60.087 61.022 29.55 0 0 0
4674 4128 1 -0.8 0.63 60.292 31.617 0 0 0
4677 4129 1 -0.8 1.896 59.561 33.683 0 0 0
4685 4130 1 -0.8 4.427 59.561 33.683 0 0 0
4683 4131 1 -0.8 3.161 58.83 35.75 0 0 0
4828 4132 1 -0.8 60.087 59.561 33.683 0 0 0
5232 4133 1 -0.8 1.896 58.1 37.817 0 0 0
5235 4134 1 -0.8 4.427 58.1 37.817 0 0 0
5323 4135 1 -0.8 60.087 58.1 37.817 0 0 0
5230 4136 1 -0.8 0.63 57.369 39.883 0 0 0
6166 4137 1 -0.8 60.087 56.638 41.95 0 0 0
5965 4138 1 -0.8 0.63 58.83 41.95 0 0 0
6168 4139 1 -0.8 60.087 61.022 41.95 0 0 0
5967 4140 1 -0.8 0.63 60.292 44.017 0 0 0
5971 4141 1 -0.8 1.896 59.561 46.083 0 0 0
5980 4142 1 -0.8 4.427 59.561 46.083 0 0 0
7035 4143 1 -0.8 3.161 58.83 48.15 0 0 0
6167 4144 1 -0.8 60.087 59.561 46.083 0 0 0
7034 4145 1 -0.8 1.896 58.1 50.217 0 0 0
7038 4146 1 -0.8 4.427 58.1 50.217 0 0 0
7137 4147 1 -0.8 60.087 58.1 50.217 0 0 0
7032 4148 1 -0.8 0.63 57.369 52.283 0 0 0
8364 4149 1 -0.8 60.087 56.638 54.35 0 0 0
8163 4150 1 -0.8 0.63 58.83 54.35 0 0 0
8366 4151 1 -0.8 60.087 61.022 54.35 0 0 0
8165 4152 1 -0.8 0.63 60.292 56.417 0 0 0
8169 4153 1 -0.8 1.896 59.561 58.483 0 0 0
8178 4154 1 -0.8 4.427 59.561 58.483 0 0 0
8365 4155 1 -0.8 60.087 59.561 58.483 0 0 0
19 4156 1 -0.8 5.69 1.826 0 0 0 1
25 4157 1 -0.8 6.956 1.096 0.617 0 0 0
20 4158 1 -0.8 5.69 3.288 0.617 0 0 0
1390 4159 1 -0.8 5.69 1.826 10.95 0 0 0
1391 4160 1 -0.8 6.956 2.557 8.883 0 0 0
1388 4161 1 -0.8 5.69 0.365 8.883 0 0 0
2258 4162 1 -0.8 6.956 1.096 13.017 0 0 0
2253 4163 1 -0.8 5.69 3.288 13.017 0 0 0
3242 4164 1 -0.8 6.956 2.557 21.283 0 0 0
3239 4165 1 -0.8 5.69 0.365 21.283 0 0 0
3241 4166 1 -0.8 5.69 1.826 23.35 0 0 0
3750 4167 1 -0.8 6.956 1.096 25.417 0 0 0
3745 4168 1 -0.8 5.69 3.288 25.417 0 0 0
4351 4169 1 -0.8 6.956 2.557 33.683 0 0 0
4348 4170 1 -0.8 5.69 0.365 33.683 0 0 0
4350 4171 1 -0.8 5.69 1.826 35.75 0 0 0
4847 4172 1 -0.8 6.956 1.096 37.817 0 0 0
4843 4173 1 -0.8 5.69 3.288 37.817 0 0 0
5340 4174 1 -0.8 6.956 2.557 46.083 0 0 0
5337 4175 1 -0.8 5.69 0.365 46.083 0 0 0
6184 4176 1 -0.8 5.69 1.826 48.15 0 0 0
6190 4177 1 -0.8 6.956 1.096 50.217 0 0 0
6186 4178 1 -0.8 5.69 3.288 50.217 0 0 0
7154 4179 1 -0.8 6.956 2.557 58.483 0 0 0
7151 4180 1 -0.8 5.69 0.365 58.483 0 0 0
27 4181 1 -0.8 6.956 5.48 0.617 0 0 0
22 4182 1 -0.8 5.69 4.749 2.683 0 0 0
26 4183 1 -0.8 6.956 4.018 4.75 0 0 0
24 4184 1 -0.8 5.69 6.21 4.75 0 0 0
233 4185 1 -0.8 6.956 8.402 4.75 0 0 0
1509 4186 1 -0.8 5.69 7.672 6.817 0 0 0
1511 4187 1 -0.8 5.69 9.135 8.883 0 0 0
1514 4188 1 -0.8 6.956 6.941 8.883 0 0 0
2260 4189 1 -0.8 6.956 5.48 13.017 0 0 0
2255 4190 1 -0.8 5.69 4.749 15.083 0 0 0
2259 4191 1 -0.8 6.956 4.018 17.15 0 0 0
2257 4192 1 -0.8 5.69 6.21 17.15 0 0 0
2466 4193 1 -0.8 6.956 8.402 17.15 0 0 0
3360 4194 1 -0.8 5.69 7.672 19.217 0 0 0
3362 4195 1 -0.8 5.69 9.135 21.283 0 0 0
3365 4196 1 -0.8 6.956 6.941 21.283 0 0 0
3752 4197 1 -0.8 6.956 5.48 25.417 0 0 0
3747 4198 1 -0.8 5.69 4.749 27.483 0 0 0
3751 4199 1 -0.8 6.956 4.018 29.55 0 0 0
3749 4200 1 -0.8 5.69 6.21 29.55 0 0 0
3942 4201 1 -0.8 6.956 8.402 29.55 0 0 0
4478 4202 1 -0.8 5.69 7.672 31.617 0 0 0
4480 4203 1 -0.8 5.69 9.135 33.683 0 0 0
4483 4204 1 -0.8 6.956 6.941 33.683 0 0 0
4848 4205 1 -0.8 6.956 5.48 37.817 0 0 0
4845 4206 1 -0.8 5.69 4.749 39.883 0 0 0
5341 4207 1 -0.8 6.956 4.018 41.95 0 0 0
5339 4208 1 -0.8 5.69 6.21 41.95 0 0 0
5501 4209 1 -0.8 6.956 8.402 41.95 0 0 0
5496 4210 1 -0.8 5.69 7.672 44.017 0 0 0
5498 4211 1 -0.8 5.69 9.135 46.083 0 0 0
5500 4212 1 -0.8 6.956 6.941 46.083 0 0 0
6191 4213 1 -0.8 6.956 5.48 50.217 0 0 0
6188 4214 1 -0.8 5.69 4.749 52.283 0 0 0
7155 4215 1 -0.8 6.956 4.018 54.35 0 0 0
7153 4216 1 -0.8 5.69 6.21 54.35 0 0 0
7315 4217 1 -0.8 6.956 8.402 54.35 0 0 0
7310 4218 1 -0.8 5.69 7.672 56.417 0 0 0
7312 4219 1 -0.8 5.69 9.135 58.483 0 0 0
7314 4220 1 -0.8 6.956 6.941 58.483 0 0 0
231 4221 1 -0.8 5.69 10.596 0 0 0 1
232 4222 1 -0.8 5.69 12.058 0.617 0 0 0
234 4223 1 -0.8 6.956 9.866 0.617 0 0 0
1513 4224 1 -0.8 5.69 10.596 10.95 0 0 0
1515 4225 1 -0.8 6.956 11.327 8.883 0 0 0
2465 4226 1 -0.8 5.69 12.058 13.017 0 0 0
2467 4227 1 -0.8 6.956 9.866 13.017 0 0 0
3366 4228 1 -0.8 6.956 11.327 21.283 0 0 0
3364 4229 1 -0.8 5.69 10.596 23.35 0 0 0
510 9452 1 -0.8 58.821 17.905 2.683 0 0 0
3943 4231 1 -0.8 6.956 9.866 25.417 0 0 0
597 9451 1 -0.8 57.556 18.636 0.617 0 0 0
4482 4233 1 -0.8 5.69 10.596 35.75 0 0 0
4994 4234 1 -0.8 5.69 12.058 37.817 0 0 0
4995 4235 1 -0.8 6.956 9.866 37.817 0 0 0
5502 4236 1 -0.8 6.956 11.327 46.083 0 0 0
6358 4237 1 -0.8 5.69 10.596 48.15 0 0 0
6360 4238 1 -0.8 5.69 12.058 50.217 0 0 0
6361 4239 1 -0.8 6.956 9.866 50.217 0 0 0
7316 4240 1 -0.8 6.956 11.327 58.483 0 0 0
395 4241 1 -0.8 6.956 14.25 0.617 0 0 0
390 4242 1 -0.8 5.69 13.519 2.683 0 0 0
394 4243 1 -0.8 6.956 12.788 4.75 0 0 0
392 4244 1 -0.8 5.69 14.98 4.75 0 0 0
2622 4245 1 -0.8 6.956 14.25 13.017 0 0 0
2618 4246 1 -0.8 5.69 13.519 15.083 0 0 0
2621 4247 1 -0.8 6.956 12.788 17.15 0 0 0
2620 4248 1 -0.8 5.69 14.98 17.15 0 0 0
7575 9450 1 -0.8 57.556 15.711 58.483 0 0 0
7577 9449 1 -0.8 58.821 13.519 58.483 0 0 0
7569 9448 1 -0.8 56.29 14.98 54.35 0 0 0
7461 9447 1 -0.8 58.821 12.058 56.417 0 0 0
7574 9446 1 -0.8 57.556 12.788 54.35 0 0 0
6549 9445 1 -0.8 56.29 13.519 52.283 0 0 0
5664 4255 1 -0.8 6.956 12.788 41.95 0 0 0
6551 9444 1 -0.8 57.556 14.25 50.217 0 0 0
6476 4257 1 -0.8 6.956 14.25 50.217 0 0 0
6474 4258 1 -0.8 5.69 13.519 52.283 0 0 0
7484 4259 1 -0.8 6.956 12.788 54.35 0 0 0
7479 4260 1 -0.8 5.69 14.98 54.35 0 0 0
530 4261 1 -0.8 5.69 19.366 0 0 0 1
531 4262 1 -0.8 5.69 20.828 0.617 0 0 0
536 4263 1 -0.8 6.956 18.636 0.617 0 0 0
396 4264 1 -0.8 6.956 17.172 4.75 0 0 0
1634 4265 1 -0.8 5.69 16.442 6.817 0 0 0
1636 4266 1 -0.8 5.69 17.905 8.883 0 0 0
1637 4267 1 -0.8 6.956 15.711 8.883 0 0 0
1711 4268 1 -0.8 6.956 20.097 8.883 0 0 0
1710 4269 1 -0.8 5.69 19.366 10.95 0 0 0
6554 9443 1 -0.8 58.821 16.442 50.217 0 0 0
2717 4271 1 -0.8 6.956 18.636 13.017 0 0 0
6552 9442 1 -0.8 58.821 14.98 48.15 0 0 0
5725 9441 1 -0.8 57.556 15.711 46.083 0 0 0
5726 9440 1 -0.8 58.821 13.519 46.083 0 0 0
5649 9438 1 -0.8 58.821 12.058 44.017 0 0 0
5724 9437 1 -0.8 57.556 12.788 41.95 0 0 0
2705 9421 1 -0.8 56.29 14.98 17.15 0 0 0
3475 9420 1 -0.8 58.821 12.058 19.217 0 0 0
2706 9419 1 -0.8 57.556 12.788 17.15 0 0 0
2703 9418 1 -0.8 56.29 13.519 15.083 0 0 0
2707 9417 1 -0.8 57.556 14.25 13.017 0 0 0
2709 9416 1 -0.8 58.821 16.442 13.017 0 0 0
1693 9415 1 -0.8 57.556 15.711 8.883 0 0 0
1694 9414 1 -0.8 58.821 13.519 8.883 0 0 0
1696 9413 1 -0.8 58.821 14.98 10.95 0 0 0
502 9412 1 -0.8 56.29 14.98 4.75 0 0 0
1622 9411 1 -0.8 58.821 12.058 6.817 0 0 0
504 9410 1 -0.8 57.556 12.788 4.75 0 0 0
500 9409 1 -0.8 56.29 13.519 2.683 0 0 0
5663 4290 1 -0.8 5.69 17.905 46.083 0 0 0
5665 4291 1 -0.8 6.956 15.711 46.083 0 0 0
505 9408 1 -0.8 57.556 14.25 0.617 0 0 0
6570 4293 1 -0.8 5.69 19.366 48.15 0 0 0
6572 4294 1 -0.8 5.69 20.828 50.217 0 0 0
6576 4295 1 -0.8 6.956 18.636 50.217 0 0 0
7486 4296 1 -0.8 6.956 17.172 54.35 0 0 0
7481 4297 1 -0.8 5.69 16.442 56.417 0 0 0
7483 4298 1 -0.8 5.69 17.905 58.483 0 0 0
7485 4299 1 -0.8 6.956 15.711 58.483 0 0 0
7598 4300 1 -0.8 6.956 20.097 58.483 0 0 0
538 4301 1 -0.8 6.956 23.02 0.617 0 0 0
533 4302 1 -0.8 5.69 22.289 2.683 0 0 0
537 4303 1 -0.8 6.956 21.558 4.75 0 0 0
535 4304 1 -0.8 5.69 23.75 4.75 0 0 0
508 9407 1 -0.8 58.821 16.442 0.617 0 0 0
507 9406 1 -0.8 58.821 14.98 0 0 0 1
7458 9405 1 -0.8 57.556 11.327 58.483 0 0 0
7459 9404 1 -0.8 58.821 10.596 54.35 0 0 0
6455 9403 1 -0.8 56.29 12.058 50.217 0 0 0
6459 9402 1 -0.8 58.821 9.135 52.283 0 0 0
6456 9401 1 -0.8 57.556 9.866 50.217 0 0 0
6453 9400 1 -0.8 56.29 10.596 48.15 0 0 0
5646 9399 1 -0.8 57.556 11.327 46.083 0 0 0
5647 9398 1 -0.8 58.821 10.596 41.95 0 0 0
5075 9397 1 -0.8 56.29 12.058 37.817 0 0 0
5079 9396 1 -0.8 58.821 9.135 39.883 0 0 0
6577 4317 1 -0.8 6.956 23.02 50.217 0 0 0
6574 4318 1 -0.8 5.69 22.289 52.283 0 0 0
7599 4319 1 -0.8 6.956 21.558 54.35 0 0 0
7597 4320 1 -0.8 5.69 23.75 54.35 0 0 0
624 4321 1 -0.8 6.956 25.942 4.75 0 0 0
1772 4322 1 -0.8 5.69 25.212 6.817 0 0 0
1712 4323 1 -0.8 6.956 24.481 8.883 0 0 0
1774 4324 1 -0.8 5.69 26.675 8.883 0 0 0
5076 9395 1 -0.8 57.556 9.866 37.817 0 0 0
4562 9394 1 -0.8 56.29 10.596 35.75 0 0 0
4046 9392 1 -0.8 58.821 10.596 29.55 0 0 0
4044 9390 1 -0.8 58.821 9.135 27.483 0 0 0
4041 9389 1 -0.8 57.556 9.866 25.417 0 0 0
3472 9388 1 -0.8 56.29 10.596 23.35 0 0 0
3474 9387 1 -0.8 57.556 11.327 21.283 0 0 0
2602 9386 1 -0.8 58.821 10.596 17.15 0 0 0
2595 9385 1 -0.8 56.29 12.058 13.017 0 0 0
2600 9384 1 -0.8 58.821 9.135 15.083 0 0 0
2597 9383 1 -0.8 57.556 9.866 13.017 0 0 0
1621 9382 1 -0.8 57.556 11.327 8.883 0 0 0
7688 4337 1 -0.8 6.956 25.942 54.35 0 0 0
7684 4338 1 -0.8 5.69 25.212 56.417 0 0 0
7600 4339 1 -0.8 6.956 24.481 58.483 0 0 0
7686 4340 1 -0.8 5.69 26.675 58.483 0 0 0
622 4341 1 -0.8 5.69 28.136 0 0 0 1
623 4342 1 -0.8 5.69 29.598 0.617 0 0 0
625 4343 1 -0.8 6.956 27.406 0.617 0 0 0
707 4344 1 -0.8 6.956 31.79 0.617 0 0 0
703 4345 1 -0.8 5.69 31.059 2.683 0 0 0
705 4346 1 -0.8 5.69 32.52 4.75 0 0 0
626 4347 1 -0.8 6.956 30.328 4.75 0 0 0
1619 9381 1 -0.8 56.29 10.596 10.95 0 0 0
1776 4349 1 -0.8 6.956 28.867 8.883 0 0 0
369 9380 1 -0.8 58.821 10.596 4.75 0 0 0
362 9379 1 -0.8 56.29 12.058 0.617 0 0 0
361 9378 1 -0.8 56.29 10.596 0 0 0 1
367 9377 1 -0.8 58.821 9.135 2.683 0 0 0
364 9376 1 -0.8 57.556 9.866 0.617 0 0 0
7454 9375 1 -0.8 56.29 9.135 58.483 0 0 0
7456 9374 1 -0.8 57.556 6.941 58.483 0 0 0
7452 9373 1 -0.8 56.29 7.672 56.417 0 0 0
7457 9372 1 -0.8 57.556 8.402 54.35 0 0 0
7283 9371 1 -0.8 56.29 6.21 54.35 0 0 0
6338 9370 1 -0.8 56.29 4.749 52.283 0 0 0
6457 9369 1 -0.8 58.821 7.672 50.217 0 0 0
6341 9368 1 -0.8 57.556 5.48 50.217 0 0 0
5642 9367 1 -0.8 56.29 9.135 46.083 0 0 0
6345 9366 1 -0.8 58.821 6.21 48.15 0 0 0
5644 9365 1 -0.8 57.556 6.941 46.083 0 0 0
5640 9364 1 -0.8 56.29 7.672 44.017 0 0 0
5645 9363 1 -0.8 57.556 8.402 41.95 0 0 0
5469 9362 1 -0.8 56.29 6.21 41.95 0 0 0
4975 9361 1 -0.8 56.29 4.749 39.883 0 0 0
5077 9360 1 -0.8 58.821 7.672 37.817 0 0 0
4978 9359 1 -0.8 57.556 5.48 37.817 0 0 0
4560 9358 1 -0.8 56.29 9.135 33.683 0 0 0
4467 9357 1 -0.8 58.821 6.21 35.75 0 0 0
4563 9356 1 -0.8 57.556 6.941 33.683 0 0 0
6631 4375 1 -0.8 6.956 27.406 50.217 0 0 0
4558 9355 1 -0.8 56.29 7.672 31.617 0 0 0
6669 4377 1 -0.8 5.69 31.059 52.283 0 0 0
7756 4378 1 -0.8 5.69 32.52 54.35 0 0 0
7690 4379 1 -0.8 6.956 30.328 54.35 0 0 0
7689 4380 1 -0.8 6.956 28.867 58.483 0 0 0
708 4381 1 -0.8 6.956 34.712 4.75 0 0 0
1814 4382 1 -0.8 5.69 33.982 6.817 0 0 0
1817 4383 1 -0.8 6.956 33.251 8.883 0 0 0
1816 4384 1 -0.8 5.69 35.445 8.883 0 0 0
4040 9354 1 -0.8 57.556 8.402 29.55 0 0 0
3919 9353 1 -0.8 56.29 6.21 29.55 0 0 0
3917 9352 1 -0.8 56.29 4.749 27.483 0 0 0
4042 9351 1 -0.8 58.821 7.672 25.417 0 0 0
3922 9350 1 -0.8 57.556 5.48 25.417 0 0 0
3470 9349 1 -0.8 56.29 9.135 21.283 0 0 0
3347 9348 1 -0.8 58.821 6.21 23.35 0 0 0
3473 9347 1 -0.8 57.556 6.941 21.283 0 0 0
3468 9346 1 -0.8 56.29 7.672 19.217 0 0 0
2596 9345 1 -0.8 57.556 8.402 17.15 0 0 0
2437 9344 1 -0.8 56.29 6.21 17.15 0 0 0
2435 9343 1 -0.8 56.29 4.749 15.083 0 0 0
7762 4397 1 -0.8 6.956 34.712 54.35 0 0 0
7758 4398 1 -0.8 5.69 33.982 56.417 0 0 0
7761 4399 1 -0.8 6.956 33.251 58.483 0 0 0
7760 4400 1 -0.8 5.69 35.445 58.483 0 0 0
793 4401 1 -0.8 5.69 36.906 0 0 0 1
709 4402 1 -0.8 6.956 36.176 0.617 0 0 0
794 4403 1 -0.8 5.69 38.368 0.617 0 0 0
801 4404 1 -0.8 6.956 40.56 0.617 0 0 0
796 4405 1 -0.8 5.69 39.829 2.683 0 0 0
798 4406 1 -0.8 5.69 41.29 4.75 0 0 0
800 4407 1 -0.8 6.956 39.098 4.75 0 0 0
1858 4408 1 -0.8 5.69 36.906 10.95 0 0 0
1861 4409 1 -0.8 6.956 37.637 8.883 0 0 0
2598 9342 1 -0.8 58.821 7.672 13.017 0 0 0
2440 9341 1 -0.8 57.556 5.48 13.017 0 0 0
1617 9340 1 -0.8 56.29 9.135 8.883 0 0 0
1620 9339 1 -0.8 57.556 6.941 8.883 0 0 0
1496 9338 1 -0.8 58.821 6.21 10.95 0 0 0
1615 9337 1 -0.8 56.29 7.672 6.817 0 0 0
363 9336 1 -0.8 57.556 8.402 4.75 0 0 0
204 9335 1 -0.8 56.29 6.21 4.75 0 0 0
202 9334 1 -0.8 56.29 4.749 2.683 0 0 0
365 9333 1 -0.8 58.821 7.672 0.617 0 0 0
207 9332 1 -0.8 57.556 5.48 0.617 0 0 0
213 9331 1 -0.8 58.821 6.21 0 0 0 1
7281 9330 1 -0.8 56.29 0.365 58.483 0 0 0
7284 9329 1 -0.8 57.556 2.557 58.483 0 0 0
7290 9328 1 -0.8 58.821 4.749 58.483 0 0 0
7288 9327 1 -0.8 58.821 3.288 56.417 0 0 0
7285 9326 1 -0.8 57.556 4.018 54.35 0 0 0
8357 9325 1 -0.8 57.556 61.022 54.35 0 0 0
7286 9324 1 -0.8 58.821 1.826 54.35 0 0 0
6336 9323 1 -0.8 56.29 3.288 50.217 0 0 0
6343 9322 1 -0.8 58.821 0.365 52.283 0 0 0
7136 9321 1 -0.8 58.821 60.292 50.217 0 0 0
6340 9320 1 -0.8 57.556 1.096 50.217 0 0 0
6334 9319 1 -0.8 56.29 1.826 48.15 0 0 0
6671 4434 1 -0.8 6.956 36.176 50.217 0 0 0
6728 4435 1 -0.8 5.69 38.368 50.217 0 0 0
6732 4436 1 -0.8 6.956 40.56 50.217 0 0 0
6730 4437 1 -0.8 5.69 39.829 52.283 0 0 0
7822 4438 1 -0.8 5.69 41.29 54.35 0 0 0
7827 4439 1 -0.8 6.956 39.098 54.35 0 0 0
7826 4440 1 -0.8 6.956 37.637 58.483 0 0 0
891 4441 1 -0.8 6.956 43.482 4.75 0 0 0
1859 4442 1 -0.8 5.69 42.752 6.817 0 0 0
1930 4443 1 -0.8 5.69 44.215 8.883 0 0 0
1862 4444 1 -0.8 6.956 42.021 8.883 0 0 0
5467 9318 1 -0.8 56.29 0.365 46.083 0 0 0
5470 9317 1 -0.8 57.556 2.557 46.083 0 0 0
5476 9316 1 -0.8 58.821 4.749 46.083 0 0 0
5474 9315 1 -0.8 58.821 3.288 44.017 0 0 0
5471 9314 1 -0.8 57.556 4.018 41.95 0 0 0
6159 9313 1 -0.8 57.556 61.022 41.95 0 0 0
5472 9312 1 -0.8 58.821 1.826 41.95 0 0 0
4973 9311 1 -0.8 56.29 3.288 37.817 0 0 0
4980 9310 1 -0.8 58.821 0.365 39.883 0 0 0
5322 9309 1 -0.8 58.821 60.292 37.817 0 0 0
5740 4455 1 -0.8 5.69 44.215 46.083 0 0 0
4977 9308 1 -0.8 57.556 1.096 37.817 0 0 0
7920 4457 1 -0.8 6.956 43.482 54.35 0 0 0
7824 4458 1 -0.8 5.69 42.752 56.417 0 0 0
7918 4459 1 -0.8 5.69 44.215 58.483 0 0 0
7828 4460 1 -0.8 6.956 42.021 58.483 0 0 0
886 4461 1 -0.8 5.69 45.676 0 0 0 1
892 4462 1 -0.8 6.956 44.946 0.617 0 0 0
887 4463 1 -0.8 5.69 47.138 0.617 0 0 0
1932 4464 1 -0.8 5.69 45.676 10.95 0 0 0
1933 4465 1 -0.8 6.956 46.407 8.883 0 0 0
2768 4466 1 -0.8 6.956 44.946 13.017 0 0 0
2764 4467 1 -0.8 5.69 47.138 13.017 0 0 0
4460 9307 1 -0.8 56.29 1.826 35.75 0 0 0
4458 9306 1 -0.8 56.29 0.365 33.683 0 0 0
4461 9305 1 -0.8 57.556 2.557 33.683 0 0 0
4465 9304 1 -0.8 58.821 4.749 33.683 0 0 0
4463 9303 1 -0.8 58.821 3.288 31.617 0 0 0
3921 9302 1 -0.8 57.556 4.018 29.55 0 0 0
4331 9301 1 -0.8 57.556 61.022 29.55 0 0 0
3926 9300 1 -0.8 58.821 1.826 29.55 0 0 0
5742 4476 1 -0.8 6.956 46.407 46.083 0 0 0
6791 4477 1 -0.8 5.69 45.676 48.15 0 0 0
6797 4478 1 -0.8 6.956 44.946 50.217 0 0 0
6793 4479 1 -0.8 5.69 47.138 50.217 0 0 0
7921 4480 1 -0.8 6.956 46.407 58.483 0 0 0
1037 4481 1 -0.8 6.956 49.33 0.617 0 0 0
889 4482 1 -0.8 5.69 48.599 2.683 0 0 0
1034 4483 1 -0.8 5.69 50.06 4.75 0 0 0
893 4484 1 -0.8 6.956 47.868 4.75 0 0 0
1038 4485 1 -0.8 6.956 52.252 4.75 0 0 0
2003 4486 1 -0.8 5.69 51.522 6.817 0 0 0
2005 4487 1 -0.8 5.69 52.985 8.883 0 0 0
2008 4488 1 -0.8 6.956 50.791 8.883 0 0 0
2888 4489 1 -0.8 6.956 49.33 13.017 0 0 0
2766 4490 1 -0.8 5.69 48.599 15.083 0 0 0
2885 4491 1 -0.8 5.69 50.06 17.15 0 0 0
2769 4492 1 -0.8 6.956 47.868 17.15 0 0 0
2889 4493 1 -0.8 6.956 52.252 17.15 0 0 0
3496 4494 1 -0.8 5.69 51.522 19.217 0 0 0
3498 4495 1 -0.8 5.69 52.985 21.283 0 0 0
3501 4496 1 -0.8 6.956 50.791 21.283 0 0 0
3915 9299 1 -0.8 56.29 3.288 25.417 0 0 0
3924 9298 1 -0.8 58.821 0.365 27.483 0 0 0
4333 9297 1 -0.8 58.821 60.292 25.417 0 0 0
3920 9296 1 -0.8 57.556 1.096 25.417 0 0 0
4061 4501 1 -0.8 6.956 52.252 29.55 0 0 0
4575 4502 1 -0.8 5.69 51.522 31.617 0 0 0
4577 4503 1 -0.8 5.69 52.985 33.683 0 0 0
4580 4504 1 -0.8 6.956 50.791 33.683 0 0 0
5123 4505 1 -0.8 6.956 49.33 37.817 0 0 0
5093 4506 1 -0.8 5.69 48.599 39.883 0 0 0
5831 4507 1 -0.8 5.69 50.06 41.95 0 0 0
5743 4508 1 -0.8 6.956 47.868 41.95 0 0 0
5838 4509 1 -0.8 6.956 52.252 41.95 0 0 0
5833 4510 1 -0.8 5.69 51.522 44.017 0 0 0
5835 4511 1 -0.8 5.69 52.985 46.083 0 0 0
5837 4512 1 -0.8 6.956 50.791 46.083 0 0 0
6903 4513 1 -0.8 6.956 49.33 50.217 0 0 0
6795 4514 1 -0.8 5.69 48.599 52.283 0 0 0
8029 4515 1 -0.8 5.69 50.06 54.35 0 0 0
7922 4516 1 -0.8 6.956 47.868 54.35 0 0 0
8036 4517 1 -0.8 6.956 52.252 54.35 0 0 0
8031 4518 1 -0.8 5.69 51.522 56.417 0 0 0
8033 4519 1 -0.8 5.69 52.985 58.483 0 0 0
8035 4520 1 -0.8 6.956 50.791 58.483 0 0 0
1036 4521 1 -0.8 5.69 54.446 0 0 0 1
1039 4522 1 -0.8 6.956 53.716 0.617 0 0 0
1213 4523 1 -0.8 5.69 55.908 0.617 0 0 0
2007 4524 1 -0.8 5.69 54.446 10.95 0 0 0
2115 4525 1 -0.8 6.956 55.177 8.883 0 0 0
2890 4526 1 -0.8 6.956 53.716 13.017 0 0 0
3064 4527 1 -0.8 5.69 55.908 13.017 0 0 0
3608 4528 1 -0.8 6.956 55.177 21.283 0 0 0
3500 4529 1 -0.8 5.69 54.446 23.35 0 0 0
4062 4530 1 -0.8 6.956 53.716 25.417 0 0 0
4194 4531 1 -0.8 5.69 55.908 25.417 0 0 0
4689 4532 1 -0.8 6.956 55.177 33.683 0 0 0
4579 4533 1 -0.8 5.69 54.446 35.75 0 0 0
5124 4534 1 -0.8 6.956 53.716 37.817 0 0 0
5236 4535 1 -0.8 5.69 55.908 37.817 0 0 0
5986 4536 1 -0.8 6.956 55.177 46.083 0 0 0
6901 4537 1 -0.8 5.69 54.446 48.15 0 0 0
6904 4538 1 -0.8 6.956 53.716 50.217 0 0 0
7039 4539 1 -0.8 5.69 55.908 50.217 0 0 0
8184 4540 1 -0.8 6.956 55.177 58.483 0 0 0
1220 4541 1 -0.8 6.956 58.1 0.617 0 0 0
1215 4542 1 -0.8 5.69 57.369 2.683 0 0 0
1219 4543 1 -0.8 6.956 56.638 4.75 0 0 0
1217 4544 1 -0.8 5.69 58.83 4.75 0 0 0
1221 4545 1 -0.8 6.956 61.022 4.75 0 0 0
2113 4546 1 -0.8 5.69 60.292 6.817 0 0 0
2116 4547 1 -0.8 6.956 59.561 8.883 0 0 0
3071 4548 1 -0.8 6.956 58.1 13.017 0 0 0
3066 4549 1 -0.8 5.69 57.369 15.083 0 0 0
3070 4550 1 -0.8 6.956 56.638 17.15 0 0 0
3068 4551 1 -0.8 5.69 58.83 17.15 0 0 0
3072 4552 1 -0.8 6.956 61.022 17.15 0 0 0
3606 4553 1 -0.8 5.69 60.292 19.217 0 0 0
3609 4554 1 -0.8 6.956 59.561 21.283 0 0 0
4200 4555 1 -0.8 6.956 58.1 25.417 0 0 0
4196 4556 1 -0.8 5.69 57.369 27.483 0 0 0
4199 4557 1 -0.8 6.956 56.638 29.55 0 0 0
4198 4558 1 -0.8 5.69 58.83 29.55 0 0 0
4201 4559 1 -0.8 6.956 61.022 29.55 0 0 0
4687 4560 1 -0.8 5.69 60.292 31.617 0 0 0
4690 4561 1 -0.8 6.956 59.561 33.683 0 0 0
5240 4562 1 -0.8 6.956 58.1 37.817 0 0 0
5238 4563 1 -0.8 5.69 57.369 39.883 0 0 0
5987 4564 1 -0.8 6.956 56.638 41.95 0 0 0
5982 4565 1 -0.8 5.69 58.83 41.95 0 0 0
5989 4566 1 -0.8 6.956 61.022 41.95 0 0 0
5984 4567 1 -0.8 5.69 60.292 44.017 0 0 0
5988 4568 1 -0.8 6.956 59.561 46.083 0 0 0
7043 4569 1 -0.8 6.956 58.1 50.217 0 0 0
7041 4570 1 -0.8 5.69 57.369 52.283 0 0 0
8185 4571 1 -0.8 6.956 56.638 54.35 0 0 0
8180 4572 1 -0.8 5.69 58.83 54.35 0 0 0
8187 4573 1 -0.8 6.956 61.022 54.35 0 0 0
8182 4574 1 -0.8 5.69 60.292 56.417 0 0 0
8186 4575 1 -0.8 6.956 59.561 58.483 0 0 0
34 4576 1 -0.8 9.487 1.096 0.617 0 0 0
29 4577 1 -0.8 8.221 0.365 2.683 0 0 0
1224 4578 1 -0.8 8.221 60.292 0.617 0 0 0
37 4579 1 -0.8 10.75 1.826 0 0 0 1
38 4580 1 -0.8 10.75 3.288 0.617 0 0 0
43 4581 1 -0.8 12.016 1.096 0.617 0 0 0
31 4582 1 -0.8 8.221 1.826 4.75 0 0 0
1227 4583 1 -0.8 9.487 61.022 4.75 0 0 0
35 4584 1 -0.8 9.487 4.018 4.75 0 0 0
1392 4585 1 -0.8 8.221 3.288 6.817 0 0 0
1394 4586 1 -0.8 8.221 4.749 8.883 0 0 0
1397 4587 1 -0.8 9.487 2.557 8.883 0 0 0
1400 4588 1 -0.8 10.75 1.826 10.95 0 0 0
1398 4589 1 -0.8 10.75 0.365 8.883 0 0 0
1401 4590 1 -0.8 12.016 2.557 8.883 0 0 0
2267 4591 1 -0.8 9.487 1.096 13.017 0 0 0
2262 4592 1 -0.8 8.221 0.365 15.083 0 0 0
3075 4593 1 -0.8 8.221 60.292 13.017 0 0 0
2271 4594 1 -0.8 10.75 3.288 13.017 0 0 0
2276 4595 1 -0.8 12.016 1.096 13.017 0 0 0
2264 4596 1 -0.8 8.221 1.826 17.15 0 0 0
3078 4597 1 -0.8 9.487 61.022 17.15 0 0 0
2268 4598 1 -0.8 9.487 4.018 17.15 0 0 0
3243 4599 1 -0.8 8.221 3.288 19.217 0 0 0
3245 4600 1 -0.8 8.221 4.749 21.283 0 0 0
3248 4601 1 -0.8 9.487 2.557 21.283 0 0 0
3249 4602 1 -0.8 10.75 0.365 21.283 0 0 0
3252 4603 1 -0.8 12.016 2.557 21.283 0 0 0
3251 4604 1 -0.8 10.75 1.826 23.35 0 0 0
3758 4605 1 -0.8 9.487 1.096 25.417 0 0 0
4203 4606 1 -0.8 8.221 60.292 25.417 0 0 0
3754 4607 1 -0.8 8.221 0.365 27.483 0 0 0
3762 4608 1 -0.8 10.75 3.288 25.417 0 0 0
3767 4609 1 -0.8 12.016 1.096 25.417 0 0 0
3756 4610 1 -0.8 8.221 1.826 29.55 0 0 0
4206 4611 1 -0.8 9.487 61.022 29.55 0 0 0
3759 4612 1 -0.8 9.487 4.018 29.55 0 0 0
4353 4613 1 -0.8 8.221 3.288 31.617 0 0 0
4355 4614 1 -0.8 8.221 4.749 33.683 0 0 0
4358 4615 1 -0.8 9.487 2.557 33.683 0 0 0
4359 4616 1 -0.8 10.75 0.365 33.683 0 0 0
4362 4617 1 -0.8 12.016 2.557 33.683 0 0 0
4361 4618 1 -0.8 10.75 1.826 35.75 0 0 0
4853 4619 1 -0.8 9.487 1.096 37.817 0 0 0
5242 4620 1 -0.8 8.221 60.292 37.817 0 0 0
4850 4621 1 -0.8 8.221 0.365 39.883 0 0 0
4856 4622 1 -0.8 10.75 3.288 37.817 0 0 0
4860 4623 1 -0.8 12.016 1.096 37.817 0 0 0
5342 4624 1 -0.8 8.221 1.826 41.95 0 0 0
5998 4625 1 -0.8 9.487 61.022 41.95 0 0 0
5349 4626 1 -0.8 9.487 4.018 41.95 0 0 0
5344 4627 1 -0.8 8.221 3.288 44.017 0 0 0
5346 4628 1 -0.8 8.221 4.749 46.083 0 0 0
5348 4629 1 -0.8 9.487 2.557 46.083 0 0 0
5350 4630 1 -0.8 10.75 0.365 46.083 0 0 0
5353 4631 1 -0.8 12.016 2.557 46.083 0 0 0
6199 4632 1 -0.8 10.75 1.826 48.15 0 0 0
6197 4633 1 -0.8 9.487 1.096 50.217 0 0 0
7046 4634 1 -0.8 8.221 60.292 50.217 0 0 0
6193 4635 1 -0.8 8.221 0.365 52.283 0 0 0
6201 4636 1 -0.8 10.75 3.288 50.217 0 0 0
6205 4637 1 -0.8 12.016 1.096 50.217 0 0 0
7156 4638 1 -0.8 8.221 1.826 54.35 0 0 0
8196 4639 1 -0.8 9.487 61.022 54.35 0 0 0
7163 4640 1 -0.8 9.487 4.018 54.35 0 0 0
7158 4641 1 -0.8 8.221 3.288 56.417 0 0 0
7160 4642 1 -0.8 8.221 4.749 58.483 0 0 0
7162 4643 1 -0.8 9.487 2.557 58.483 0 0 0
7164 4644 1 -0.8 10.75 0.365 58.483 0 0 0
7167 4645 1 -0.8 12.016 2.557 58.483 0 0 0
33 4646 1 -0.8 8.221 6.21 0 0 0 1
36 4647 1 -0.8 9.487 5.48 0.617 0 0 0
235 4648 1 -0.8 8.221 7.672 0.617 0 0 0
40 4649 1 -0.8 10.75 4.749 2.683 0 0 0
45 4650 1 -0.8 12.016 5.48 0.617 0 0 0
42 4651 1 -0.8 10.75 6.21 4.75 0 0 0
44 4652 1 -0.8 12.016 4.018 4.75 0 0 0
241 4653 1 -0.8 9.487 8.402 4.75 0 0 0
246 4654 1 -0.8 12.016 8.402 4.75 0 0 0
1520 4655 1 -0.8 10.75 7.672 6.817 0 0 0
1396 4656 1 -0.8 8.221 6.21 10.95 0 0 0
1518 4657 1 -0.8 9.487 6.941 8.883 0 0 0
1522 4658 1 -0.8 10.75 9.135 8.883 0 0 0
1525 4659 1 -0.8 12.016 6.941 8.883 0 0 0
2269 4660 1 -0.8 9.487 5.48 13.017 0 0 0
2468 4661 1 -0.8 8.221 7.672 13.017 0 0 0
2273 4662 1 -0.8 10.75 4.749 15.083 0 0 0
2278 4663 1 -0.8 12.016 5.48 13.017 0 0 0
2275 4664 1 -0.8 10.75 6.21 17.15 0 0 0
2277 4665 1 -0.8 12.016 4.018 17.15 0 0 0
2474 4666 1 -0.8 9.487 8.402 17.15 0 0 0
2479 4667 1 -0.8 12.016 8.402 17.15 0 0 0
3371 4668 1 -0.8 10.75 7.672 19.217 0 0 0
3369 4669 1 -0.8 9.487 6.941 21.283 0 0 0
3247 4670 1 -0.8 8.221 6.21 23.35 0 0 0
3373 4671 1 -0.8 10.75 9.135 21.283 0 0 0
3376 4672 1 -0.8 12.016 6.941 21.283 0 0 0
3760 4673 1 -0.8 9.487 5.48 25.417 0 0 0
3944 4674 1 -0.8 8.221 7.672 25.417 0 0 0
3769 4675 1 -0.8 12.016 5.48 25.417 0 0 0
3764 4676 1 -0.8 10.75 4.749 27.483 0 0 0
3766 4677 1 -0.8 10.75 6.21 29.55 0 0 0
3768 4678 1 -0.8 12.016 4.018 29.55 0 0 0
3949 4679 1 -0.8 9.487 8.402 29.55 0 0 0
3952 4680 1 -0.8 12.016 8.402 29.55 0 0 0
4486 4681 1 -0.8 10.75 7.672 31.617 0 0 0
4484 4682 1 -0.8 9.487 6.941 33.683 0 0 0
4357 4683 1 -0.8 8.221 6.21 35.75 0 0 0
4488 4684 1 -0.8 10.75 9.135 33.683 0 0 0
4491 4685 1 -0.8 12.016 6.941 33.683 0 0 0
4854 4686 1 -0.8 9.487 5.48 37.817 0 0 0
4996 4687 1 -0.8 8.221 7.672 37.817 0 0 0
4861 4688 1 -0.8 12.016 5.48 37.817 0 0 0
4858 4689 1 -0.8 10.75 4.749 39.883 0 0 0
5352 4690 1 -0.8 10.75 6.21 41.95 0 0 0
5354 4691 1 -0.8 12.016 4.018 41.95 0 0 0
5508 4692 1 -0.8 9.487 8.402 41.95 0 0 0
5516 4693 1 -0.8 12.016 8.402 41.95 0 0 0
5511 4694 1 -0.8 10.75 7.672 44.017 0 0 0
5507 4695 1 -0.8 9.487 6.941 46.083 0 0 0
6195 4696 1 -0.8 8.221 6.21 48.15 0 0 0
5513 4697 1 -0.8 10.75 9.135 46.083 0 0 0
5515 4698 1 -0.8 12.016 6.941 46.083 0 0 0
6198 4699 1 -0.8 9.487 5.48 50.217 0 0 0
6362 4700 1 -0.8 8.221 7.672 50.217 0 0 0
6206 4701 1 -0.8 12.016 5.48 50.217 0 0 0
6203 4702 1 -0.8 10.75 4.749 52.283 0 0 0
7166 4703 1 -0.8 10.75 6.21 54.35 0 0 0
7168 4704 1 -0.8 12.016 4.018 54.35 0 0 0
7322 4705 1 -0.8 9.487 8.402 54.35 0 0 0
7330 4706 1 -0.8 12.016 8.402 54.35 0 0 0
7325 4707 1 -0.8 10.75 7.672 56.417 0 0 0
7321 4708 1 -0.8 9.487 6.941 58.483 0 0 0
7327 4709 1 -0.8 10.75 9.135 58.483 0 0 0
7329 4710 1 -0.8 12.016 6.941 58.483 0 0 0
242 4711 1 -0.8 9.487 9.866 0.617 0 0 0
237 4712 1 -0.8 8.221 9.135 2.683 0 0 0
244 4713 1 -0.8 10.75 10.596 0 0 0 1
245 4714 1 -0.8 10.75 12.058 0.617 0 0 0
247 4715 1 -0.8 12.016 9.866 0.617 0 0 0
239 4716 1 -0.8 8.221 10.596 4.75 0 0 0
1519 4717 1 -0.8 9.487 11.327 8.883 0 0 0
1524 4718 1 -0.8 10.75 10.596 10.95 0 0 0
1526 4719 1 -0.8 12.016 11.327 8.883 0 0 0
2475 4720 1 -0.8 9.487 9.866 13.017 0 0 0
2470 4721 1 -0.8 8.221 9.135 15.083 0 0 0
2478 4722 1 -0.8 10.75 12.058 13.017 0 0 0
2480 4723 1 -0.8 12.016 9.866 13.017 0 0 0
2472 4724 1 -0.8 8.221 10.596 17.15 0 0 0
3370 4725 1 -0.8 9.487 11.327 21.283 0 0 0
3377 4726 1 -0.8 12.016 11.327 21.283 0 0 0
3375 4727 1 -0.8 10.75 10.596 23.35 0 0 0
3950 4728 1 -0.8 9.487 9.866 25.417 0 0 0
3946 4729 1 -0.8 8.221 9.135 27.483 0 0 0
3341 9295 1 -0.8 56.29 1.826 23.35 0 0 0
3953 4731 1 -0.8 12.016 9.866 25.417 0 0 0
3948 4732 1 -0.8 8.221 10.596 29.55 0 0 0
3339 9294 1 -0.8 56.29 0.365 21.283 0 0 0
3342 9293 1 -0.8 57.556 2.557 21.283 0 0 0
4490 4735 1 -0.8 10.75 10.596 35.75 0 0 0
5000 4736 1 -0.8 9.487 9.866 37.817 0 0 0
4998 4737 1 -0.8 8.221 9.135 39.883 0 0 0
5002 4738 1 -0.8 10.75 12.058 37.817 0 0 0
5003 4739 1 -0.8 12.016 9.866 37.817 0 0 0
5503 4740 1 -0.8 8.221 10.596 41.95 0 0 0
5509 4741 1 -0.8 9.487 11.327 46.083 0 0 0
5517 4742 1 -0.8 12.016 11.327 46.083 0 0 0
6367 4743 1 -0.8 10.75 10.596 48.15 0 0 0
6366 4744 1 -0.8 9.487 9.866 50.217 0 0 0
6364 4745 1 -0.8 8.221 9.135 52.283 0 0 0
6369 4746 1 -0.8 10.75 12.058 50.217 0 0 0
6370 4747 1 -0.8 12.016 9.866 50.217 0 0 0
7317 4748 1 -0.8 8.221 10.596 54.35 0 0 0
7323 4749 1 -0.8 9.487 11.327 58.483 0 0 0
7331 4750 1 -0.8 12.016 11.327 58.483 0 0 0
397 4751 1 -0.8 8.221 14.98 0 0 0 1
398 4752 1 -0.8 8.221 16.442 0.617 0 0 0
403 4753 1 -0.8 9.487 14.25 0.617 0 0 0
406 4754 1 -0.8 10.75 13.519 2.683 0 0 0
411 4755 1 -0.8 12.016 14.25 0.617 0 0 0
402 4756 1 -0.8 9.487 12.788 4.75 0 0 0
1516 4757 1 -0.8 8.221 12.058 6.817 0 0 0
408 4758 1 -0.8 10.75 14.98 4.75 0 0 0
410 4759 1 -0.8 12.016 12.788 4.75 0 0 0
1640 4760 1 -0.8 8.221 14.98 10.95 0 0 0
1638 4761 1 -0.8 8.221 13.519 8.883 0 0 0
1641 4762 1 -0.8 9.487 15.711 8.883 0 0 0
2624 4763 1 -0.8 8.221 16.442 13.017 0 0 0
2627 4764 1 -0.8 9.487 14.25 13.017 0 0 0
2629 4765 1 -0.8 10.75 13.519 15.083 0 0 0
2633 4766 1 -0.8 12.016 14.25 13.017 0 0 0
2626 4767 1 -0.8 9.487 12.788 17.15 0 0 0
3367 4768 1 -0.8 8.221 12.058 19.217 0 0 0
2631 4769 1 -0.8 10.75 14.98 17.15 0 0 0
2632 4770 1 -0.8 12.016 12.788 17.15 0 0 0
3345 9292 1 -0.8 58.821 4.749 21.283 0 0 0
3343 9291 1 -0.8 58.821 3.288 19.217 0 0 0
2439 9290 1 -0.8 57.556 4.018 17.15 0 0 0
3222 9289 1 -0.8 57.556 61.022 17.15 0 0 0
2444 9288 1 -0.8 58.821 1.826 17.15 0 0 0
2433 9287 1 -0.8 56.29 3.288 13.017 0 0 0
3225 9286 1 -0.8 58.821 60.292 13.017 0 0 0
2442 9285 1 -0.8 58.821 0.365 15.083 0 0 0
2438 9284 1 -0.8 57.556 1.096 13.017 0 0 0
1488 9283 1 -0.8 56.29 0.365 8.883 0 0 0
1490 9282 1 -0.8 56.29 1.826 10.95 0 0 0
1491 9281 1 -0.8 57.556 2.557 8.883 0 0 0
1494 9280 1 -0.8 58.821 4.749 8.883 0 0 0
1492 9279 1 -0.8 58.821 3.288 6.817 0 0 0
206 9278 1 -0.8 57.556 4.018 4.75 0 0 0
1371 9277 1 -0.8 57.556 61.022 4.75 0 0 0
211 9276 1 -0.8 58.821 1.826 4.75 0 0 0
200 9275 1 -0.8 56.29 3.288 0.617 0 0 0
5668 4789 1 -0.8 9.487 12.788 41.95 0 0 0
5505 4790 1 -0.8 8.221 12.058 44.017 0 0 0
199 9274 1 -0.8 56.29 1.826 0 0 0 1
5672 4792 1 -0.8 12.016 12.788 41.95 0 0 0
5666 4793 1 -0.8 8.221 13.519 46.083 0 0 0
5669 4794 1 -0.8 9.487 15.711 46.083 0 0 0
6477 4795 1 -0.8 8.221 14.98 48.15 0 0 0
6479 4796 1 -0.8 8.221 16.442 50.217 0 0 0
6483 4797 1 -0.8 9.487 14.25 50.217 0 0 0
6487 4798 1 -0.8 12.016 14.25 50.217 0 0 0
6485 4799 1 -0.8 10.75 13.519 52.283 0 0 0
7489 4800 1 -0.8 9.487 12.788 54.35 0 0 0
7319 4801 1 -0.8 8.221 12.058 56.417 0 0 0
7492 4802 1 -0.8 10.75 14.98 54.35 0 0 0
7497 4803 1 -0.8 12.016 12.788 54.35 0 0 0
7487 4804 1 -0.8 8.221 13.519 58.483 0 0 0
7490 4805 1 -0.8 9.487 15.711 58.483 0 0 0
542 4806 1 -0.8 9.487 18.636 0.617 0 0 0
400 4807 1 -0.8 8.221 17.905 2.683 0 0 0
545 4808 1 -0.8 10.75 19.366 0 0 0 1
546 4809 1 -0.8 10.75 20.828 0.617 0 0 0
551 4810 1 -0.8 12.016 18.636 0.617 0 0 0
404 4811 1 -0.8 9.487 17.172 4.75 0 0 0
1642 4812 1 -0.8 10.75 16.442 6.817 0 0 0
412 4813 1 -0.8 12.016 17.172 4.75 0 0 0
539 4814 1 -0.8 8.221 19.366 4.75 0 0 0
1644 4815 1 -0.8 10.75 17.905 8.883 0 0 0
1645 4816 1 -0.8 12.016 15.711 8.883 0 0 0
1718 4817 1 -0.8 9.487 20.097 8.883 0 0 0
1722 4818 1 -0.8 12.016 20.097 8.883 0 0 0
1721 4819 1 -0.8 10.75 19.366 10.95 0 0 0
2718 4820 1 -0.8 9.487 18.636 13.017 0 0 0
1374 9273 1 -0.8 58.821 60.292 0.617 0 0 0
209 9272 1 -0.8 58.821 0.365 2.683 0 0 0
2720 4823 1 -0.8 12.016 18.636 13.017 0 0 0
205 9271 1 -0.8 57.556 1.096 0.617 0 0 0
8348 9270 1 -0.8 55.027 59.561 58.483 0 0 0
7128 9269 1 -0.8 55.027 58.1 50.217 0 0 0
7125 9268 1 -0.8 53.761 58.83 48.15 0 0 0
6150 9267 1 -0.8 55.027 59.561 46.083 0 0 0
5315 9266 1 -0.8 55.027 58.1 37.817 0 0 0
4813 9265 1 -0.8 53.761 58.83 35.75 0 0 0
4815 9264 1 -0.8 55.027 59.561 33.683 0 0 0
4322 9263 1 -0.8 55.027 58.1 25.417 0 0 0
3713 9262 1 -0.8 53.761 58.83 23.35 0 0 0
3715 9261 1 -0.8 55.027 59.561 21.283 0 0 0
3212 9260 1 -0.8 55.027 58.1 13.017 0 0 0
2222 9259 1 -0.8 55.027 59.561 8.883 0 0 0
2220 9258 1 -0.8 53.761 58.83 10.95 0 0 0
1361 9257 1 -0.8 55.027 58.1 0.617 0 0 0
1358 9256 1 -0.8 53.761 58.83 0 0 0 1
8346 9255 1 -0.8 55.027 55.177 58.483 0 0 0
8344 9254 1 -0.8 53.761 57.369 58.483 0 0 0
8342 9253 1 -0.8 53.761 55.908 56.417 0 0 0
8347 9252 1 -0.8 55.027 56.638 54.35 0 0 0
8148 9251 1 -0.8 53.761 54.446 54.35 0 0 0
8150 9250 1 -0.8 55.027 52.252 54.35 0 0 0
7014 9249 1 -0.8 53.761 52.985 52.283 0 0 0
7017 9248 1 -0.8 55.027 53.716 50.217 0 0 0
6148 9247 1 -0.8 55.027 55.177 46.083 0 0 0
6146 9246 1 -0.8 53.761 57.369 46.083 0 0 0
6144 9245 1 -0.8 53.761 55.908 44.017 0 0 0
6149 9244 1 -0.8 55.027 56.638 41.95 0 0 0
5950 9243 1 -0.8 53.761 54.446 41.95 0 0 0
5952 9242 1 -0.8 55.027 52.252 41.95 0 0 0
5671 4854 1 -0.8 10.75 17.905 46.083 0 0 0
5673 4855 1 -0.8 12.016 15.711 46.083 0 0 0
5214 9241 1 -0.8 53.761 52.985 39.883 0 0 0
5217 9240 1 -0.8 55.027 53.716 37.817 0 0 0
6581 4858 1 -0.8 10.75 19.366 48.15 0 0 0
6579 4859 1 -0.8 9.487 18.636 50.217 0 0 0
6481 4860 1 -0.8 8.221 17.905 52.283 0 0 0
6583 4861 1 -0.8 10.75 20.828 50.217 0 0 0
6587 4862 1 -0.8 12.016 18.636 50.217 0 0 0
7491 4863 1 -0.8 9.487 17.172 54.35 0 0 0
7499 4864 1 -0.8 12.016 17.172 54.35 0 0 0
7494 4865 1 -0.8 10.75 16.442 56.417 0 0 0
7601 4866 1 -0.8 8.221 19.366 54.35 0 0 0
7496 4867 1 -0.8 10.75 17.905 58.483 0 0 0
7498 4868 1 -0.8 12.016 15.711 58.483 0 0 0
7607 4869 1 -0.8 9.487 20.097 58.483 0 0 0
7612 4870 1 -0.8 12.016 20.097 58.483 0 0 0
541 4871 1 -0.8 8.221 23.75 0 0 0 1
627 4872 1 -0.8 8.221 25.212 0.617 0 0 0
544 4873 1 -0.8 9.487 23.02 0.617 0 0 0
548 4874 1 -0.8 10.75 22.289 2.683 0 0 0
543 4875 1 -0.8 9.487 21.558 4.75 0 0 0
1713 4876 1 -0.8 8.221 20.828 6.817 0 0 0
550 4877 1 -0.8 10.75 23.75 4.75 0 0 0
552 4878 1 -0.8 12.016 21.558 4.75 0 0 0
1719 4879 1 -0.8 9.487 24.481 8.883 0 0 0
1717 4880 1 -0.8 8.221 23.75 10.95 0 0 0
1715 4881 1 -0.8 8.221 22.289 8.883 0 0 0
4814 9239 1 -0.8 55.027 55.177 33.683 0 0 0
4811 9238 1 -0.8 53.761 57.369 33.683 0 0 0
4809 9237 1 -0.8 53.761 55.908 31.617 0 0 0
4321 9236 1 -0.8 55.027 56.638 29.55 0 0 0
4167 9235 1 -0.8 53.761 54.446 29.55 0 0 0
4168 9234 1 -0.8 55.027 52.252 29.55 0 0 0
4165 9233 1 -0.8 53.761 52.985 27.483 0 0 0
4169 9232 1 -0.8 55.027 53.716 25.417 0 0 0
3714 9231 1 -0.8 55.027 55.177 21.283 0 0 0
3711 9230 1 -0.8 53.761 57.369 21.283 0 0 0
3709 9229 1 -0.8 53.761 55.908 19.217 0 0 0
3211 9228 1 -0.8 55.027 56.638 17.15 0 0 0
3030 9227 1 -0.8 53.761 54.446 17.15 0 0 0
3032 9226 1 -0.8 55.027 52.252 17.15 0 0 0
3028 9225 1 -0.8 53.761 52.985 15.083 0 0 0
3033 9224 1 -0.8 55.027 53.716 13.017 0 0 0
2221 9223 1 -0.8 55.027 55.177 8.883 0 0 0
2218 9222 1 -0.8 53.761 57.369 8.883 0 0 0
2216 9221 1 -0.8 53.761 55.908 6.817 0 0 0
1360 9220 1 -0.8 55.027 56.638 4.75 0 0 0
1179 9219 1 -0.8 53.761 54.446 4.75 0 0 0
1181 9218 1 -0.8 55.027 52.252 4.75 0 0 0
1177 9217 1 -0.8 53.761 52.985 2.683 0 0 0
1182 9216 1 -0.8 55.027 53.716 0.617 0 0 0
8149 9215 1 -0.8 55.027 50.791 58.483 0 0 0
7012 9214 1 -0.8 53.761 51.522 50.217 0 0 0
7016 9213 1 -0.8 55.027 49.33 50.217 0 0 0
7010 9212 1 -0.8 53.761 50.06 48.15 0 0 0
5951 9211 1 -0.8 55.027 50.791 46.083 0 0 0
5212 9210 1 -0.8 53.761 51.522 37.817 0 0 0
6632 4912 1 -0.8 8.221 25.212 50.217 0 0 0
6580 4913 1 -0.8 9.487 23.02 50.217 0 0 0
6585 4914 1 -0.8 10.75 22.289 52.283 0 0 0
7608 4915 1 -0.8 9.487 21.558 54.35 0 0 0
7603 4916 1 -0.8 8.221 20.828 56.417 0 0 0
7611 4917 1 -0.8 10.75 23.75 54.35 0 0 0
7613 4918 1 -0.8 12.016 21.558 54.35 0 0 0
7609 4919 1 -0.8 9.487 24.481 58.483 0 0 0
7605 4920 1 -0.8 8.221 22.289 58.483 0 0 0
634 4921 1 -0.8 9.487 27.406 0.617 0 0 0
629 4922 1 -0.8 8.221 26.675 2.683 0 0 0
633 4923 1 -0.8 9.487 25.942 4.75 0 0 0
1780 4924 1 -0.8 10.75 25.212 6.817 0 0 0
631 4925 1 -0.8 8.221 28.136 4.75 0 0 0
1782 4926 1 -0.8 10.75 26.675 8.883 0 0 0
5216 9209 1 -0.8 55.027 49.33 37.817 0 0 0
4662 9208 1 -0.8 53.761 50.06 35.75 0 0 0
4663 9207 1 -0.8 55.027 50.791 33.683 0 0 0
4163 9206 1 -0.8 53.761 51.522 25.417 0 0 0
3584 9204 1 -0.8 53.761 50.06 23.35 0 0 0
3585 9203 1 -0.8 55.027 50.791 21.283 0 0 0
3026 9202 1 -0.8 53.761 51.522 13.017 0 0 0
3031 9201 1 -0.8 55.027 49.33 13.017 0 0 0
2092 9200 1 -0.8 55.027 50.791 8.883 0 0 0
2091 9199 1 -0.8 53.761 50.06 10.95 0 0 0
1175 9198 1 -0.8 53.761 51.522 0.617 0 0 0
1180 9197 1 -0.8 55.027 49.33 0.617 0 0 0
1174 9196 1 -0.8 53.761 50.06 0 0 0 1
8002 9195 1 -0.8 55.027 46.407 58.483 0 0 0
8000 9194 1 -0.8 53.761 48.599 58.483 0 0 0
7998 9193 1 -0.8 53.761 47.138 56.417 0 0 0
8003 9192 1 -0.8 55.027 47.868 54.35 0 0 0
8001 9191 1 -0.8 55.027 43.482 54.35 0 0 0
6636 4945 1 -0.8 9.487 27.406 50.217 0 0 0
6634 4946 1 -0.8 8.221 26.675 52.283 0 0 0
7695 4947 1 -0.8 9.487 25.942 54.35 0 0 0
7699 4948 1 -0.8 10.75 25.212 56.417 0 0 0
7691 4949 1 -0.8 8.221 28.136 54.35 0 0 0
7701 4950 1 -0.8 10.75 26.675 58.483 0 0 0
637 4951 1 -0.8 10.75 28.136 0 0 0 1
638 4952 1 -0.8 10.75 29.598 0.617 0 0 0
715 4953 1 -0.8 9.487 31.79 0.617 0 0 0
719 4954 1 -0.8 10.75 31.059 2.683 0 0 0
635 4955 1 -0.8 9.487 30.328 4.75 0 0 0
1777 4956 1 -0.8 8.221 29.598 6.817 0 0 0
721 4957 1 -0.8 10.75 32.52 4.75 0 0 0
1818 4958 1 -0.8 8.221 31.059 8.883 0 0 0
1779 4959 1 -0.8 9.487 28.867 8.883 0 0 0
7996 9190 1 -0.8 53.761 45.676 54.35 0 0 0
6875 9189 1 -0.8 53.761 44.215 52.283 0 0 0
6877 9188 1 -0.8 55.027 44.946 50.217 0 0 0
5807 9187 1 -0.8 55.027 46.407 46.083 0 0 0
5806 9186 1 -0.8 53.761 48.599 46.083 0 0 0
5804 9185 1 -0.8 53.761 47.138 44.017 0 0 0
5808 9184 1 -0.8 55.027 47.868 41.95 0 0 0
3485 9170 1 -0.8 53.761 48.599 21.283 0 0 0
2857 9168 1 -0.8 55.027 47.868 17.15 0 0 0
2854 9165 1 -0.8 53.761 44.215 15.083 0 0 0
2856 9164 1 -0.8 55.027 44.946 13.017 0 0 0
1985 9163 1 -0.8 55.027 46.407 8.883 0 0 0
1984 9162 1 -0.8 53.761 48.599 8.883 0 0 0
1982 9161 1 -0.8 53.761 47.138 6.817 0 0 0
1002 9160 1 -0.8 55.027 47.868 4.75 0 0 0
1000 9159 1 -0.8 55.027 43.482 4.75 0 0 0
998 9158 1 -0.8 53.761 45.676 4.75 0 0 0
996 9157 1 -0.8 53.761 44.215 2.683 0 0 0
1001 9156 1 -0.8 55.027 44.946 0.617 0 0 0
7887 9155 1 -0.8 55.027 42.021 58.483 0 0 0
6768 9154 1 -0.8 53.761 42.752 50.217 0 0 0
6769 9153 1 -0.8 55.027 40.56 50.217 0 0 0
6766 9152 1 -0.8 53.761 41.29 48.15 0 0 0
2748 9142 1 -0.8 53.761 42.752 13.017 0 0 0
1908 9140 1 -0.8 55.027 42.021 8.883 0 0 0
1906 9139 1 -0.8 53.761 41.29 10.95 0 0 0
852 9138 1 -0.8 53.761 42.752 0.617 0 0 0
854 9137 1 -0.8 55.027 40.56 0.617 0 0 0
851 9136 1 -0.8 53.761 41.29 0 0 0 1
7885 9135 1 -0.8 55.027 37.637 58.483 0 0 0
6678 4990 1 -0.8 10.75 31.059 52.283 0 0 0
7697 4991 1 -0.8 9.487 30.328 54.35 0 0 0
7693 4992 1 -0.8 8.221 29.598 56.417 0 0 0
7767 4993 1 -0.8 10.75 32.52 54.35 0 0 0
7763 4994 1 -0.8 8.221 31.059 58.483 0 0 0
7696 4995 1 -0.8 9.487 28.867 58.483 0 0 0
710 4996 1 -0.8 8.221 32.52 0 0 0 1
711 4997 1 -0.8 8.221 33.982 0.617 0 0 0
717 4998 1 -0.8 9.487 36.176 0.617 0 0 0
713 4999 1 -0.8 8.221 35.445 2.683 0 0 0
716 5000 1 -0.8 9.487 34.712 4.75 0 0 0
1821 5001 1 -0.8 10.75 33.982 6.817 0 0 0
802 5002 1 -0.8 8.221 36.906 4.75 0 0 0
7883 9134 1 -0.8 53.761 39.829 58.483 0 0 0
1820 5004 1 -0.8 9.487 33.251 8.883 0 0 0
1823 5005 1 -0.8 10.75 35.445 8.883 0 0 0
7881 9133 1 -0.8 53.761 38.368 56.417 0 0 0
7886 9132 1 -0.8 55.027 39.098 54.35 0 0 0
1907 9119 1 -0.8 55.027 37.637 8.883 0 0 0
1904 9118 1 -0.8 53.761 39.829 8.883 0 0 0
1902 9117 1 -0.8 53.761 38.368 6.817 0 0 0
853 9116 1 -0.8 55.027 39.098 4.75 0 0 0
7791 9115 1 -0.8 55.027 33.251 58.483 0 0 0
7792 9114 1 -0.8 55.027 34.712 54.35 0 0 0
7879 9113 1 -0.8 53.761 36.906 54.35 0 0 0
6705 9112 1 -0.8 53.761 35.445 52.283 0 0 0
6707 9111 1 -0.8 55.027 36.176 50.217 0 0 0
6703 9109 1 -0.8 53.761 33.982 50.217 0 0 0
1836 9084 1 -0.8 55.027 33.251 8.883 0 0 0
760 9082 1 -0.8 55.027 34.712 4.75 0 0 0
849 9081 1 -0.8 53.761 36.906 4.75 0 0 0
757 9080 1 -0.8 53.761 35.445 2.683 0 0 0
761 9079 1 -0.8 55.027 36.176 0.617 0 0 0
759 9078 1 -0.8 55.027 31.79 0.617 0 0 0
755 9077 1 -0.8 53.761 33.982 0.617 0 0 0
754 9076 1 -0.8 53.761 32.52 0 0 0 1
7728 9075 1 -0.8 55.027 28.867 58.483 0 0 0
7789 9074 1 -0.8 53.761 31.059 58.483 0 0 0
7725 9073 1 -0.8 53.761 29.598 56.417 0 0 0
7729 9072 1 -0.8 55.027 30.328 54.35 0 0 0
1798 9059 1 -0.8 55.027 28.867 8.883 0 0 0
1834 9058 1 -0.8 53.761 31.059 8.883 0 0 0
1796 9057 1 -0.8 53.761 29.598 6.817 0 0 0
6672 5033 1 -0.8 8.221 33.982 50.217 0 0 0
6676 5034 1 -0.8 9.487 36.176 50.217 0 0 0
6674 5035 1 -0.8 8.221 35.445 52.283 0 0 0
7766 5036 1 -0.8 9.487 34.712 54.35 0 0 0
7769 5037 1 -0.8 10.75 33.982 56.417 0 0 0
7829 5038 1 -0.8 8.221 36.906 54.35 0 0 0
7765 5039 1 -0.8 9.487 33.251 58.483 0 0 0
7771 5040 1 -0.8 10.75 35.445 58.483 0 0 0
808 5041 1 -0.8 10.75 36.906 0 0 0 1
809 5042 1 -0.8 10.75 38.368 0.617 0 0 0
807 5043 1 -0.8 9.487 40.56 0.617 0 0 0
815 5044 1 -0.8 12.016 40.56 0.617 0 0 0
811 5045 1 -0.8 10.75 39.829 2.683 0 0 0
806 5046 1 -0.8 9.487 39.098 4.75 0 0 0
1863 5047 1 -0.8 8.221 38.368 6.817 0 0 0
813 5048 1 -0.8 10.75 41.29 4.75 0 0 0
1865 5049 1 -0.8 8.221 39.829 8.883 0 0 0
1868 5050 1 -0.8 9.487 37.637 8.883 0 0 0
1871 5051 1 -0.8 10.75 36.906 10.95 0 0 0
670 9056 1 -0.8 55.027 30.328 4.75 0 0 0
7727 9055 1 -0.8 55.027 25.942 54.35 0 0 0
7723 9054 1 -0.8 53.761 28.136 54.35 0 0 0
6650 9053 1 -0.8 53.761 26.675 52.283 0 0 0
6652 9052 1 -0.8 55.027 27.406 50.217 0 0 0
668 9039 1 -0.8 55.027 25.942 4.75 0 0 0
666 9038 1 -0.8 53.761 28.136 4.75 0 0 0
664 9037 1 -0.8 53.761 26.675 2.683 0 0 0
669 9036 1 -0.8 55.027 27.406 0.617 0 0 0
7651 9035 1 -0.8 55.027 20.097 58.483 0 0 0
7649 9034 1 -0.8 53.761 22.289 58.483 0 0 0
7653 9033 1 -0.8 55.027 24.481 58.483 0 0 0
7647 9032 1 -0.8 53.761 20.828 56.417 0 0 0
7652 9031 1 -0.8 55.027 21.558 54.35 0 0 0
6613 9030 1 -0.8 55.027 23.02 50.217 0 0 0
6648 9029 1 -0.8 53.761 25.212 50.217 0 0 0
1751 9004 1 -0.8 55.027 20.097 8.883 0 0 0
1748 9003 1 -0.8 53.761 22.289 8.883 0 0 0
1750 9002 1 -0.8 53.761 23.75 10.95 0 0 0
1752 9001 1 -0.8 55.027 24.481 8.883 0 0 0
1746 9000 1 -0.8 53.761 20.828 6.817 0 0 0
589 8999 1 -0.8 55.027 21.558 4.75 0 0 0
590 8998 1 -0.8 55.027 23.02 0.617 0 0 0
662 8997 1 -0.8 53.761 25.212 0.617 0 0 0
587 8996 1 -0.8 53.761 23.75 0 0 0 1
7645 8995 1 -0.8 53.761 19.366 54.35 0 0 0
7568 8994 1 -0.8 55.027 17.172 54.35 0 0 0
6545 8993 1 -0.8 53.761 17.905 52.283 0 0 0
6612 8992 1 -0.8 55.027 18.636 50.217 0 0 0
2730 8980 1 -0.8 55.027 18.636 13.017 0 0 0
6738 5082 1 -0.8 10.75 38.368 50.217 0 0 0
6736 5083 1 -0.8 9.487 40.56 50.217 0 0 0
6742 5084 1 -0.8 12.016 40.56 50.217 0 0 0
6740 5085 1 -0.8 10.75 39.829 52.283 0 0 0
7836 5086 1 -0.8 9.487 39.098 54.35 0 0 0
7831 5087 1 -0.8 8.221 38.368 56.417 0 0 0
7839 5088 1 -0.8 10.75 41.29 54.35 0 0 0
7833 5089 1 -0.8 8.221 39.829 58.483 0 0 0
7835 5090 1 -0.8 9.487 37.637 58.483 0 0 0
804 5091 1 -0.8 8.221 41.29 0 0 0 1
805 5092 1 -0.8 8.221 42.752 0.617 0 0 0
899 5093 1 -0.8 9.487 43.482 4.75 0 0 0
1872 5094 1 -0.8 10.75 42.752 6.817 0 0 0
907 5095 1 -0.8 12.016 43.482 4.75 0 0 0
1867 5096 1 -0.8 8.221 41.29 10.95 0 0 0
1869 5097 1 -0.8 9.487 42.021 8.883 0 0 0
1938 5098 1 -0.8 10.75 44.215 8.883 0 0 0
1874 5099 1 -0.8 12.016 42.021 8.883 0 0 0
2737 5100 1 -0.8 8.221 42.752 13.017 0 0 0
585 8979 1 -0.8 53.761 19.366 4.75 0 0 0
498 8978 1 -0.8 55.027 17.172 4.75 0 0 0
494 8977 1 -0.8 53.761 17.905 2.683 0 0 0
588 8976 1 -0.8 55.027 18.636 0.617 0 0 0
7450 8975 1 -0.8 55.027 11.327 58.483 0 0 0
7567 8974 1 -0.8 55.027 15.711 58.483 0 0 0
7564 8973 1 -0.8 53.761 13.519 58.483 0 0 0
7446 8972 1 -0.8 53.761 12.058 56.417 0 0 0
7566 8971 1 -0.8 55.027 12.788 54.35 0 0 0
6547 8970 1 -0.8 55.027 14.25 50.217 0 0 0
6543 8969 1 -0.8 53.761 16.442 50.217 0 0 0
5638 8968 1 -0.8 55.027 11.327 46.083 0 0 0
6541 8967 1 -0.8 53.761 14.98 48.15 0 0 0
5721 8966 1 -0.8 55.027 15.711 46.083 0 0 0
5718 8965 1 -0.8 53.761 13.519 46.083 0 0 0
5634 8964 1 -0.8 53.761 12.058 44.017 0 0 0
5720 8963 1 -0.8 55.027 12.788 41.95 0 0 0
3467 8952 1 -0.8 55.027 11.327 21.283 0 0 0
3464 8948 1 -0.8 53.761 12.058 19.217 0 0 0
2700 8947 1 -0.8 55.027 12.788 17.15 0 0 0
6733 5121 1 -0.8 8.221 41.29 48.15 0 0 0
5750 5122 1 -0.8 10.75 44.215 46.083 0 0 0
2701 8946 1 -0.8 55.027 14.25 13.017 0 0 0
6735 5124 1 -0.8 8.221 42.752 50.217 0 0 0
7928 5125 1 -0.8 9.487 43.482 54.35 0 0 0
7933 5126 1 -0.8 12.016 43.482 54.35 0 0 0
7841 5127 1 -0.8 10.75 42.752 56.417 0 0 0
7837 5128 1 -0.8 9.487 42.021 58.483 0 0 0
7931 5129 1 -0.8 10.75 44.215 58.483 0 0 0
7843 5130 1 -0.8 12.016 42.021 58.483 0 0 0
900 5131 1 -0.8 9.487 44.946 0.617 0 0 0
895 5132 1 -0.8 8.221 44.215 2.683 0 0 0
902 5133 1 -0.8 10.75 45.676 0 0 0 1
903 5134 1 -0.8 10.75 47.138 0.617 0 0 0
908 5135 1 -0.8 12.016 44.946 0.617 0 0 0
897 5136 1 -0.8 8.221 45.676 4.75 0 0 0
901 5137 1 -0.8 9.487 47.868 4.75 0 0 0
1934 5138 1 -0.8 8.221 47.138 6.817 0 0 0
1936 5139 1 -0.8 8.221 48.599 8.883 0 0 0
1937 5140 1 -0.8 9.487 46.407 8.883 0 0 0
1940 5141 1 -0.8 10.75 45.676 10.95 0 0 0
1941 5142 1 -0.8 12.016 46.407 8.883 0 0 0
2773 5143 1 -0.8 9.487 44.946 13.017 0 0 0
2771 5144 1 -0.8 8.221 44.215 15.083 0 0 0
2776 5145 1 -0.8 10.75 47.138 13.017 0 0 0
2780 5146 1 -0.8 12.016 44.946 13.017 0 0 0
2698 8945 1 -0.8 53.761 16.442 13.017 0 0 0
2774 5148 1 -0.8 9.487 47.868 17.15 0 0 0
1614 8944 1 -0.8 55.027 11.327 8.883 0 0 0
3480 5150 1 -0.8 8.221 48.599 21.283 0 0 0
1689 8943 1 -0.8 55.027 15.711 8.883 0 0 0
1686 8942 1 -0.8 53.761 13.519 8.883 0 0 0
1688 8941 1 -0.8 53.761 14.98 10.95 0 0 0
1611 8940 1 -0.8 53.761 12.058 6.817 0 0 0
496 8939 1 -0.8 55.027 12.788 4.75 0 0 0
497 8938 1 -0.8 55.027 14.25 0.617 0 0 0
492 8937 1 -0.8 53.761 16.442 0.617 0 0 0
491 8936 1 -0.8 53.761 14.98 0 0 0 1
7444 8935 1 -0.8 53.761 10.596 54.35 0 0 0
7449 8934 1 -0.8 55.027 8.402 54.35 0 0 0
6450 8933 1 -0.8 53.761 9.135 52.283 0 0 0
6452 8932 1 -0.8 55.027 9.866 50.217 0 0 0
5632 8931 1 -0.8 53.761 10.596 41.95 0 0 0
5637 8930 1 -0.8 55.027 8.402 41.95 0 0 0
5071 8929 1 -0.8 53.761 9.135 39.883 0 0 0
5073 8928 1 -0.8 55.027 9.866 37.817 0 0 0
4036 8927 1 -0.8 53.761 10.596 29.55 0 0 0
4037 8926 1 -0.8 55.027 8.402 29.55 0 0 0
4034 8925 1 -0.8 53.761 9.135 27.483 0 0 0
5749 5170 1 -0.8 9.487 47.868 41.95 0 0 0
5745 5171 1 -0.8 8.221 47.138 44.017 0 0 0
5747 5172 1 -0.8 8.221 48.599 46.083 0 0 0
5748 5173 1 -0.8 9.487 46.407 46.083 0 0 0
5752 5174 1 -0.8 12.016 46.407 46.083 0 0 0
6802 5175 1 -0.8 10.75 45.676 48.15 0 0 0
6801 5176 1 -0.8 9.487 44.946 50.217 0 0 0
6799 5177 1 -0.8 8.221 44.215 52.283 0 0 0
6804 5178 1 -0.8 10.75 47.138 50.217 0 0 0
6808 5179 1 -0.8 12.016 44.946 50.217 0 0 0
7923 5180 1 -0.8 8.221 45.676 54.35 0 0 0
7930 5181 1 -0.8 9.487 47.868 54.35 0 0 0
7925 5182 1 -0.8 8.221 47.138 56.417 0 0 0
7927 5183 1 -0.8 8.221 48.599 58.483 0 0 0
7929 5184 1 -0.8 9.487 46.407 58.483 0 0 0
7934 5185 1 -0.8 12.016 46.407 58.483 0 0 0
1040 5186 1 -0.8 8.221 50.06 0 0 0 1
1046 5187 1 -0.8 9.487 49.33 0.617 0 0 0
1041 5188 1 -0.8 8.221 51.522 0.617 0 0 0
905 5189 1 -0.8 10.75 48.599 2.683 0 0 0
1052 5190 1 -0.8 12.016 49.33 0.617 0 0 0
1049 5191 1 -0.8 10.75 50.06 4.75 0 0 0
909 5192 1 -0.8 12.016 47.868 4.75 0 0 0
1047 5193 1 -0.8 9.487 52.252 4.75 0 0 0
1053 5194 1 -0.8 12.016 52.252 4.75 0 0 0
2012 5195 1 -0.8 10.75 51.522 6.817 0 0 0
2010 5196 1 -0.8 8.221 50.06 10.95 0 0 0
2011 5197 1 -0.8 9.487 50.791 8.883 0 0 0
2014 5198 1 -0.8 10.75 52.985 8.883 0 0 0
2017 5199 1 -0.8 12.016 50.791 8.883 0 0 0
2897 5200 1 -0.8 9.487 49.33 13.017 0 0 0
2892 5201 1 -0.8 8.221 51.522 13.017 0 0 0
2778 5202 1 -0.8 10.75 48.599 15.083 0 0 0
2903 5203 1 -0.8 12.016 49.33 13.017 0 0 0
2900 5204 1 -0.8 10.75 50.06 17.15 0 0 0
2781 5205 1 -0.8 12.016 47.868 17.15 0 0 0
2898 5206 1 -0.8 9.487 52.252 17.15 0 0 0
2904 5207 1 -0.8 12.016 52.252 17.15 0 0 0
3505 5208 1 -0.8 10.75 51.522 19.217 0 0 0
3504 5209 1 -0.8 9.487 50.791 21.283 0 0 0
3503 5210 1 -0.8 8.221 50.06 23.35 0 0 0
3507 5211 1 -0.8 10.75 52.985 21.283 0 0 0
3510 5212 1 -0.8 12.016 50.791 21.283 0 0 0
4038 8924 1 -0.8 55.027 9.866 25.417 0 0 0
4064 5214 1 -0.8 8.221 51.522 25.417 0 0 0
2589 8923 1 -0.8 53.761 10.596 17.15 0 0 0
2591 8922 1 -0.8 55.027 8.402 17.15 0 0 0
2587 8921 1 -0.8 53.761 9.135 15.083 0 0 0
2592 8920 1 -0.8 55.027 9.866 13.017 0 0 0
4069 5219 1 -0.8 9.487 52.252 29.55 0 0 0
4072 5220 1 -0.8 12.016 52.252 29.55 0 0 0
4584 5221 1 -0.8 10.75 51.522 31.617 0 0 0
4582 5222 1 -0.8 9.487 50.791 33.683 0 0 0
4581 5223 1 -0.8 8.221 50.06 35.75 0 0 0
4586 5224 1 -0.8 10.75 52.985 33.683 0 0 0
4589 5225 1 -0.8 12.016 50.791 33.683 0 0 0
5130 5226 1 -0.8 9.487 49.33 37.817 0 0 0
5126 5227 1 -0.8 8.221 51.522 37.817 0 0 0
5133 5228 1 -0.8 12.016 49.33 37.817 0 0 0
5095 5229 1 -0.8 10.75 48.599 39.883 0 0 0
5843 5230 1 -0.8 10.75 50.06 41.95 0 0 0
5753 5231 1 -0.8 12.016 47.868 41.95 0 0 0
5842 5232 1 -0.8 9.487 52.252 41.95 0 0 0
5850 5233 1 -0.8 12.016 52.252 41.95 0 0 0
5845 5234 1 -0.8 10.75 51.522 44.017 0 0 0
5841 5235 1 -0.8 9.487 50.791 46.083 0 0 0
6905 5236 1 -0.8 8.221 50.06 48.15 0 0 0
5847 5237 1 -0.8 10.75 52.985 46.083 0 0 0
5849 5238 1 -0.8 12.016 50.791 46.083 0 0 0
6911 5239 1 -0.8 9.487 49.33 50.217 0 0 0
6907 5240 1 -0.8 8.221 51.522 50.217 0 0 0
6915 5241 1 -0.8 12.016 49.33 50.217 0 0 0
6806 5242 1 -0.8 10.75 48.599 52.283 0 0 0
8041 5243 1 -0.8 10.75 50.06 54.35 0 0 0
7935 5244 1 -0.8 12.016 47.868 54.35 0 0 0
8040 5245 1 -0.8 9.487 52.252 54.35 0 0 0
8048 5246 1 -0.8 12.016 52.252 54.35 0 0 0
8043 5247 1 -0.8 10.75 51.522 56.417 0 0 0
8039 5248 1 -0.8 9.487 50.791 58.483 0 0 0
8045 5249 1 -0.8 10.75 52.985 58.483 0 0 0
8047 5250 1 -0.8 12.016 50.791 58.483 0 0 0
1048 5251 1 -0.8 9.487 53.716 0.617 0 0 0
1043 5252 1 -0.8 8.221 52.985 2.683 0 0 0
1051 5253 1 -0.8 10.75 54.446 0 0 0 1
1228 5254 1 -0.8 10.75 55.908 0.617 0 0 0
1054 5255 1 -0.8 12.016 53.716 0.617 0 0 0
1045 5256 1 -0.8 8.221 54.446 4.75 0 0 0
1225 5257 1 -0.8 9.487 56.638 4.75 0 0 0
2117 5258 1 -0.8 8.221 55.908 6.817 0 0 0
2119 5259 1 -0.8 8.221 57.369 8.883 0 0 0
2122 5260 1 -0.8 9.487 55.177 8.883 0 0 0
2016 5261 1 -0.8 10.75 54.446 10.95 0 0 0
2126 5262 1 -0.8 12.016 55.177 8.883 0 0 0
2899 5263 1 -0.8 9.487 53.716 13.017 0 0 0
2894 5264 1 -0.8 8.221 52.985 15.083 0 0 0
3079 5265 1 -0.8 10.75 55.908 13.017 0 0 0
2905 5266 1 -0.8 12.016 53.716 13.017 0 0 0
2896 5267 1 -0.8 8.221 54.446 17.15 0 0 0
3076 5268 1 -0.8 9.487 56.638 17.15 0 0 0
3610 5269 1 -0.8 8.221 55.908 19.217 0 0 0
3612 5270 1 -0.8 8.221 57.369 21.283 0 0 0
3615 5271 1 -0.8 9.487 55.177 21.283 0 0 0
3619 5272 1 -0.8 12.016 55.177 21.283 0 0 0
3509 5273 1 -0.8 10.75 54.446 23.35 0 0 0
4070 5274 1 -0.8 9.487 53.716 25.417 0 0 0
4066 5275 1 -0.8 8.221 52.985 27.483 0 0 0
4207 5276 1 -0.8 10.75 55.908 25.417 0 0 0
4073 5277 1 -0.8 12.016 53.716 25.417 0 0 0
4068 5278 1 -0.8 8.221 54.446 29.55 0 0 0
4204 5279 1 -0.8 9.487 56.638 29.55 0 0 0
4692 5280 1 -0.8 8.221 55.908 31.617 0 0 0
4694 5281 1 -0.8 8.221 57.369 33.683 0 0 0
4697 5282 1 -0.8 9.487 55.177 33.683 0 0 0
4702 5283 1 -0.8 12.016 55.177 33.683 0 0 0
4588 5284 1 -0.8 10.75 54.446 35.75 0 0 0
5131 5285 1 -0.8 9.487 53.716 37.817 0 0 0
5128 5286 1 -0.8 8.221 52.985 39.883 0 0 0
5244 5287 1 -0.8 10.75 55.908 37.817 0 0 0
5134 5288 1 -0.8 12.016 53.716 37.817 0 0 0
5840 5289 1 -0.8 8.221 54.446 41.95 0 0 0
5996 5290 1 -0.8 9.487 56.638 41.95 0 0 0
5991 5291 1 -0.8 8.221 55.908 44.017 0 0 0
5993 5292 1 -0.8 8.221 57.369 46.083 0 0 0
5995 5293 1 -0.8 9.487 55.177 46.083 0 0 0
6003 5294 1 -0.8 12.016 55.177 46.083 0 0 0
6913 5295 1 -0.8 10.75 54.446 48.15 0 0 0
6912 5296 1 -0.8 9.487 53.716 50.217 0 0 0
6909 5297 1 -0.8 8.221 52.985 52.283 0 0 0
7048 5298 1 -0.8 10.75 55.908 50.217 0 0 0
6916 5299 1 -0.8 12.016 53.716 50.217 0 0 0
8038 5300 1 -0.8 8.221 54.446 54.35 0 0 0
8194 5301 1 -0.8 9.487 56.638 54.35 0 0 0
8189 5302 1 -0.8 8.221 55.908 56.417 0 0 0
8191 5303 1 -0.8 8.221 57.369 58.483 0 0 0
8193 5304 1 -0.8 9.487 55.177 58.483 0 0 0
8201 5305 1 -0.8 12.016 55.177 58.483 0 0 0
1223 5306 1 -0.8 8.221 58.83 0 0 0 1
1226 5307 1 -0.8 9.487 58.1 0.617 0 0 0
1230 5308 1 -0.8 10.75 57.369 2.683 0 0 0
1235 5309 1 -0.8 12.016 58.1 0.617 0 0 0
1232 5310 1 -0.8 10.75 58.83 4.75 0 0 0
1234 5311 1 -0.8 12.016 56.638 4.75 0 0 0
2124 5312 1 -0.8 10.75 60.292 6.817 0 0 0
1236 5313 1 -0.8 12.016 61.022 4.75 0 0 0
2121 5314 1 -0.8 8.221 58.83 10.95 0 0 0
2123 5315 1 -0.8 9.487 59.561 8.883 0 0 0
2127 5316 1 -0.8 12.016 59.561 8.883 0 0 0
3077 5317 1 -0.8 9.487 58.1 13.017 0 0 0
3081 5318 1 -0.8 10.75 57.369 15.083 0 0 0
3086 5319 1 -0.8 12.016 58.1 13.017 0 0 0
3083 5320 1 -0.8 10.75 58.83 17.15 0 0 0
3085 5321 1 -0.8 12.016 56.638 17.15 0 0 0
3617 5322 1 -0.8 10.75 60.292 19.217 0 0 0
3087 5323 1 -0.8 12.016 61.022 17.15 0 0 0
3616 5324 1 -0.8 9.487 59.561 21.283 0 0 0
3614 5325 1 -0.8 8.221 58.83 23.35 0 0 0
3620 5326 1 -0.8 12.016 59.561 21.283 0 0 0
4205 5327 1 -0.8 9.487 58.1 25.417 0 0 0
4213 5328 1 -0.8 12.016 58.1 25.417 0 0 0
4209 5329 1 -0.8 10.75 57.369 27.483 0 0 0
4211 5330 1 -0.8 10.75 58.83 29.55 0 0 0
4212 5331 1 -0.8 12.016 56.638 29.55 0 0 0
4214 5332 1 -0.8 12.016 61.022 29.55 0 0 0
4700 5333 1 -0.8 10.75 60.292 31.617 0 0 0
4698 5334 1 -0.8 9.487 59.561 33.683 0 0 0
4696 5335 1 -0.8 8.221 58.83 35.75 0 0 0
4703 5336 1 -0.8 12.016 59.561 33.683 0 0 0
5243 5337 1 -0.8 9.487 58.1 37.817 0 0 0
5248 5338 1 -0.8 12.016 58.1 37.817 0 0 0
5246 5339 1 -0.8 10.75 57.369 39.883 0 0 0
5999 5340 1 -0.8 10.75 58.83 41.95 0 0 0
6004 5341 1 -0.8 12.016 56.638 41.95 0 0 0
6006 5342 1 -0.8 12.016 61.022 41.95 0 0 0
6001 5343 1 -0.8 10.75 60.292 44.017 0 0 0
5997 5344 1 -0.8 9.487 59.561 46.083 0 0 0
7044 5345 1 -0.8 8.221 58.83 48.15 0 0 0
6005 5346 1 -0.8 12.016 59.561 46.083 0 0 0
7047 5347 1 -0.8 9.487 58.1 50.217 0 0 0
7052 5348 1 -0.8 12.016 58.1 50.217 0 0 0
7050 5349 1 -0.8 10.75 57.369 52.283 0 0 0
8197 5350 1 -0.8 10.75 58.83 54.35 0 0 0
8202 5351 1 -0.8 12.016 56.638 54.35 0 0 0
8204 5352 1 -0.8 12.016 61.022 54.35 0 0 0
8199 5353 1 -0.8 10.75 60.292 56.417 0 0 0
8195 5354 1 -0.8 9.487 59.561 58.483 0 0 0
8203 5355 1 -0.8 12.016 59.561 58.483 0 0 0
52 5356 1 -0.8 14.547 1.096 0.617 0 0 0
47 5357 1 -0.8 13.281 0.365 2.683 0 0 0
1239 5358 1 -0.8 13.281 60.292 0.617 0 0 0
55 5359 1 -0.8 15.81 1.826 0 0 0 1
56 5360 1 -0.8 15.81 3.288 0.617 0 0 0
61 5361 1 -0.8 17.076 1.096 0.617 0 0 0
49 5362 1 -0.8 13.281 1.826 4.75 0 0 0
1242 5363 1 -0.8 14.547 61.022 4.75 0 0 0
53 5364 1 -0.8 14.547 4.018 4.75 0 0 0
1402 5365 1 -0.8 13.281 3.288 6.817 0 0 0
1404 5366 1 -0.8 13.281 4.749 8.883 0 0 0
1407 5367 1 -0.8 14.547 2.557 8.883 0 0 0
1410 5368 1 -0.8 15.81 1.826 10.95 0 0 0
1408 5369 1 -0.8 15.81 0.365 8.883 0 0 0
1411 5370 1 -0.8 17.076 2.557 8.883 0 0 0
2285 5371 1 -0.8 14.547 1.096 13.017 0 0 0
2280 5372 1 -0.8 13.281 0.365 15.083 0 0 0
3090 5373 1 -0.8 13.281 60.292 13.017 0 0 0
2289 5374 1 -0.8 15.81 3.288 13.017 0 0 0
2294 5375 1 -0.8 17.076 1.096 13.017 0 0 0
2282 5376 1 -0.8 13.281 1.826 17.15 0 0 0
3093 5377 1 -0.8 14.547 61.022 17.15 0 0 0
2286 5378 1 -0.8 14.547 4.018 17.15 0 0 0
3253 5379 1 -0.8 13.281 3.288 19.217 0 0 0
3255 5380 1 -0.8 13.281 4.749 21.283 0 0 0
3258 5381 1 -0.8 14.547 2.557 21.283 0 0 0
3259 5382 1 -0.8 15.81 0.365 21.283 0 0 0
3262 5383 1 -0.8 17.076 2.557 21.283 0 0 0
3261 5384 1 -0.8 15.81 1.826 23.35 0 0 0
3775 5385 1 -0.8 14.547 1.096 25.417 0 0 0
4216 5386 1 -0.8 13.281 60.292 25.417 0 0 0
3771 5387 1 -0.8 13.281 0.365 27.483 0 0 0
3779 5388 1 -0.8 15.81 3.288 25.417 0 0 0
3784 5389 1 -0.8 17.076 1.096 25.417 0 0 0
3773 5390 1 -0.8 13.281 1.826 29.55 0 0 0
4219 5391 1 -0.8 14.547 61.022 29.55 0 0 0
3776 5392 1 -0.8 14.547 4.018 29.55 0 0 0
4364 5393 1 -0.8 13.281 3.288 31.617 0 0 0
4366 5394 1 -0.8 13.281 4.749 33.683 0 0 0
4369 5395 1 -0.8 14.547 2.557 33.683 0 0 0
4370 5396 1 -0.8 15.81 0.365 33.683 0 0 0
4373 5397 1 -0.8 17.076 2.557 33.683 0 0 0
4372 5398 1 -0.8 15.81 1.826 35.75 0 0 0
4866 5399 1 -0.8 14.547 1.096 37.817 0 0 0
5250 5400 1 -0.8 13.281 60.292 37.817 0 0 0
4863 5401 1 -0.8 13.281 0.365 39.883 0 0 0
4869 5402 1 -0.8 15.81 3.288 37.817 0 0 0
4873 5403 1 -0.8 17.076 1.096 37.817 0 0 0
5355 5404 1 -0.8 13.281 1.826 41.95 0 0 0
6015 5405 1 -0.8 14.547 61.022 41.95 0 0 0
5362 5406 1 -0.8 14.547 4.018 41.95 0 0 0
5357 5407 1 -0.8 13.281 3.288 44.017 0 0 0
5359 5408 1 -0.8 13.281 4.749 46.083 0 0 0
5361 5409 1 -0.8 14.547 2.557 46.083 0 0 0
5363 5410 1 -0.8 15.81 0.365 46.083 0 0 0
5366 5411 1 -0.8 17.076 2.557 46.083 0 0 0
6214 5412 1 -0.8 15.81 1.826 48.15 0 0 0
6212 5413 1 -0.8 14.547 1.096 50.217 0 0 0
7055 5414 1 -0.8 13.281 60.292 50.217 0 0 0
6208 5415 1 -0.8 13.281 0.365 52.283 0 0 0
6216 5416 1 -0.8 15.81 3.288 50.217 0 0 0
6220 5417 1 -0.8 17.076 1.096 50.217 0 0 0
7169 5418 1 -0.8 13.281 1.826 54.35 0 0 0
8213 5419 1 -0.8 14.547 61.022 54.35 0 0 0
7176 5420 1 -0.8 14.547 4.018 54.35 0 0 0
7171 5421 1 -0.8 13.281 3.288 56.417 0 0 0
7173 5422 1 -0.8 13.281 4.749 58.483 0 0 0
7175 5423 1 -0.8 14.547 2.557 58.483 0 0 0
7177 5424 1 -0.8 15.81 0.365 58.483 0 0 0
7180 5425 1 -0.8 17.076 2.557 58.483 0 0 0
51 5426 1 -0.8 13.281 6.21 0 0 0 1
54 5427 1 -0.8 14.547 5.48 0.617 0 0 0
248 5428 1 -0.8 13.281 7.672 0.617 0 0 0
58 5429 1 -0.8 15.81 4.749 2.683 0 0 0
63 5430 1 -0.8 17.076 5.48 0.617 0 0 0
60 5431 1 -0.8 15.81 6.21 4.75 0 0 0
62 5432 1 -0.8 17.076 4.018 4.75 0 0 0
254 5433 1 -0.8 14.547 8.402 4.75 0 0 0
259 5434 1 -0.8 17.076 8.402 4.75 0 0 0
1531 5435 1 -0.8 15.81 7.672 6.817 0 0 0
1406 5436 1 -0.8 13.281 6.21 10.95 0 0 0
1529 5437 1 -0.8 14.547 6.941 8.883 0 0 0
1533 5438 1 -0.8 15.81 9.135 8.883 0 0 0
1536 5439 1 -0.8 17.076 6.941 8.883 0 0 0
2287 5440 1 -0.8 14.547 5.48 13.017 0 0 0
2481 5441 1 -0.8 13.281 7.672 13.017 0 0 0
2291 5442 1 -0.8 15.81 4.749 15.083 0 0 0
2296 5443 1 -0.8 17.076 5.48 13.017 0 0 0
2293 5444 1 -0.8 15.81 6.21 17.15 0 0 0
2295 5445 1 -0.8 17.076 4.018 17.15 0 0 0
2487 5446 1 -0.8 14.547 8.402 17.15 0 0 0
2492 5447 1 -0.8 17.076 8.402 17.15 0 0 0
3382 5448 1 -0.8 15.81 7.672 19.217 0 0 0
3380 5449 1 -0.8 14.547 6.941 21.283 0 0 0
3257 5450 1 -0.8 13.281 6.21 23.35 0 0 0
3384 5451 1 -0.8 15.81 9.135 21.283 0 0 0
3387 5452 1 -0.8 17.076 6.941 21.283 0 0 0
3777 5453 1 -0.8 14.547 5.48 25.417 0 0 0
3954 5454 1 -0.8 13.281 7.672 25.417 0 0 0
3786 5455 1 -0.8 17.076 5.48 25.417 0 0 0
3781 5456 1 -0.8 15.81 4.749 27.483 0 0 0
3783 5457 1 -0.8 15.81 6.21 29.55 0 0 0
3785 5458 1 -0.8 17.076 4.018 29.55 0 0 0
3959 5459 1 -0.8 14.547 8.402 29.55 0 0 0
3962 5460 1 -0.8 17.076 8.402 29.55 0 0 0
4494 5461 1 -0.8 15.81 7.672 31.617 0 0 0
4492 5462 1 -0.8 14.547 6.941 33.683 0 0 0
4368 5463 1 -0.8 13.281 6.21 35.75 0 0 0
4496 5464 1 -0.8 15.81 9.135 33.683 0 0 0
4499 5465 1 -0.8 17.076 6.941 33.683 0 0 0
4867 5466 1 -0.8 14.547 5.48 37.817 0 0 0
5004 5467 1 -0.8 13.281 7.672 37.817 0 0 0
4874 5468 1 -0.8 17.076 5.48 37.817 0 0 0
4871 5469 1 -0.8 15.81 4.749 39.883 0 0 0
5365 5470 1 -0.8 15.81 6.21 41.95 0 0 0
5367 5471 1 -0.8 17.076 4.018 41.95 0 0 0
5523 5472 1 -0.8 14.547 8.402 41.95 0 0 0
5531 5473 1 -0.8 17.076 8.402 41.95 0 0 0
5526 5474 1 -0.8 15.81 7.672 44.017 0 0 0
5522 5475 1 -0.8 14.547 6.941 46.083 0 0 0
6210 5476 1 -0.8 13.281 6.21 48.15 0 0 0
5528 5477 1 -0.8 15.81 9.135 46.083 0 0 0
5530 5478 1 -0.8 17.076 6.941 46.083 0 0 0
6213 5479 1 -0.8 14.547 5.48 50.217 0 0 0
6371 5480 1 -0.8 13.281 7.672 50.217 0 0 0
6221 5481 1 -0.8 17.076 5.48 50.217 0 0 0
6218 5482 1 -0.8 15.81 4.749 52.283 0 0 0
7179 5483 1 -0.8 15.81 6.21 54.35 0 0 0
7181 5484 1 -0.8 17.076 4.018 54.35 0 0 0
7337 5485 1 -0.8 14.547 8.402 54.35 0 0 0
7345 5486 1 -0.8 17.076 8.402 54.35 0 0 0
7340 5487 1 -0.8 15.81 7.672 56.417 0 0 0
7336 5488 1 -0.8 14.547 6.941 58.483 0 0 0
7342 5489 1 -0.8 15.81 9.135 58.483 0 0 0
7344 5490 1 -0.8 17.076 6.941 58.483 0 0 0
255 5491 1 -0.8 14.547 9.866 0.617 0 0 0
250 5492 1 -0.8 13.281 9.135 2.683 0 0 0
257 5493 1 -0.8 15.81 10.596 0 0 0 1
258 5494 1 -0.8 15.81 12.058 0.617 0 0 0
260 5495 1 -0.8 17.076 9.866 0.617 0 0 0
252 5496 1 -0.8 13.281 10.596 4.75 0 0 0
1530 5497 1 -0.8 14.547 11.327 8.883 0 0 0
1535 5498 1 -0.8 15.81 10.596 10.95 0 0 0
1537 5499 1 -0.8 17.076 11.327 8.883 0 0 0
2488 5500 1 -0.8 14.547 9.866 13.017 0 0 0
2483 5501 1 -0.8 13.281 9.135 15.083 0 0 0
2491 5502 1 -0.8 15.81 12.058 13.017 0 0 0
2493 5503 1 -0.8 17.076 9.866 13.017 0 0 0
2485 5504 1 -0.8 13.281 10.596 17.15 0 0 0
3381 5505 1 -0.8 14.547 11.327 21.283 0 0 0
3388 5506 1 -0.8 17.076 11.327 21.283 0 0 0
3386 5507 1 -0.8 15.81 10.596 23.35 0 0 0
3960 5508 1 -0.8 14.547 9.866 25.417 0 0 0
3956 5509 1 -0.8 13.281 9.135 27.483 0 0 0
356 8919 1 -0.8 53.761 10.596 4.75 0 0 0
3963 5511 1 -0.8 17.076 9.866 25.417 0 0 0
3958 5512 1 -0.8 13.281 10.596 29.55 0 0 0
358 8918 1 -0.8 55.027 8.402 4.75 0 0 0
354 8917 1 -0.8 53.761 9.135 2.683 0 0 0
4498 5515 1 -0.8 15.81 10.596 35.75 0 0 0
5008 5516 1 -0.8 14.547 9.866 37.817 0 0 0
5006 5517 1 -0.8 13.281 9.135 39.883 0 0 0
5010 5518 1 -0.8 15.81 12.058 37.817 0 0 0
5011 5519 1 -0.8 17.076 9.866 37.817 0 0 0
5518 5520 1 -0.8 13.281 10.596 41.95 0 0 0
5524 5521 1 -0.8 14.547 11.327 46.083 0 0 0
5532 5522 1 -0.8 17.076 11.327 46.083 0 0 0
6376 5523 1 -0.8 15.81 10.596 48.15 0 0 0
6375 5524 1 -0.8 14.547 9.866 50.217 0 0 0
6373 5525 1 -0.8 13.281 9.135 52.283 0 0 0
6378 5526 1 -0.8 15.81 12.058 50.217 0 0 0
6379 5527 1 -0.8 17.076 9.866 50.217 0 0 0
7332 5528 1 -0.8 13.281 10.596 54.35 0 0 0
7338 5529 1 -0.8 14.547 11.327 58.483 0 0 0
7346 5530 1 -0.8 17.076 11.327 58.483 0 0 0
413 5531 1 -0.8 13.281 14.98 0 0 0 1
414 5532 1 -0.8 13.281 16.442 0.617 0 0 0
419 5533 1 -0.8 14.547 14.25 0.617 0 0 0
422 5534 1 -0.8 15.81 13.519 2.683 0 0 0
428 5535 1 -0.8 17.076 14.25 0.617 0 0 0
418 5536 1 -0.8 14.547 12.788 4.75 0 0 0
1527 5537 1 -0.8 13.281 12.058 6.817 0 0 0
424 5538 1 -0.8 15.81 14.98 4.75 0 0 0
427 5539 1 -0.8 17.076 12.788 4.75 0 0 0
1648 5540 1 -0.8 13.281 14.98 10.95 0 0 0
1646 5541 1 -0.8 13.281 13.519 8.883 0 0 0
1649 5542 1 -0.8 14.547 15.711 8.883 0 0 0
2635 5543 1 -0.8 13.281 16.442 13.017 0 0 0
2638 5544 1 -0.8 14.547 14.25 13.017 0 0 0
2640 5545 1 -0.8 15.81 13.519 15.083 0 0 0
2644 5546 1 -0.8 17.076 14.25 13.017 0 0 0
2637 5547 1 -0.8 14.547 12.788 17.15 0 0 0
3378 5548 1 -0.8 13.281 12.058 19.217 0 0 0
2642 5549 1 -0.8 15.81 14.98 17.15 0 0 0
2643 5550 1 -0.8 17.076 12.788 17.15 0 0 0
359 8916 1 -0.8 55.027 9.866 0.617 0 0 0
7448 8915 1 -0.8 55.027 6.941 58.483 0 0 0
6448 8914 1 -0.8 53.761 7.672 50.217 0 0 0
6333 8913 1 -0.8 55.027 5.48 50.217 0 0 0
6330 8912 1 -0.8 53.761 6.21 48.15 0 0 0
5636 8911 1 -0.8 55.027 6.941 46.083 0 0 0
5069 8910 1 -0.8 53.761 7.672 37.817 0 0 0
4971 8909 1 -0.8 55.027 5.48 37.817 0 0 0
4456 8908 1 -0.8 53.761 6.21 35.75 0 0 0
4556 8907 1 -0.8 55.027 6.941 33.683 0 0 0
4032 8906 1 -0.8 53.761 7.672 25.417 0 0 0
3913 8905 1 -0.8 55.027 5.48 25.417 0 0 0
3337 8904 1 -0.8 53.761 6.21 23.35 0 0 0
3466 8903 1 -0.8 55.027 6.941 21.283 0 0 0
2585 8902 1 -0.8 53.761 7.672 13.017 0 0 0
2431 8901 1 -0.8 55.027 5.48 13.017 0 0 0
1613 8900 1 -0.8 55.027 6.941 8.883 0 0 0
1486 8899 1 -0.8 53.761 6.21 10.95 0 0 0
5676 5569 1 -0.8 14.547 12.788 41.95 0 0 0
5520 5570 1 -0.8 13.281 12.058 44.017 0 0 0
352 8898 1 -0.8 53.761 7.672 0.617 0 0 0
5680 5572 1 -0.8 17.076 12.788 41.95 0 0 0
5674 5573 1 -0.8 13.281 13.519 46.083 0 0 0
5677 5574 1 -0.8 14.547 15.711 46.083 0 0 0
6488 5575 1 -0.8 13.281 14.98 48.15 0 0 0
6490 5576 1 -0.8 13.281 16.442 50.217 0 0 0
6494 5577 1 -0.8 14.547 14.25 50.217 0 0 0
6498 5578 1 -0.8 17.076 14.25 50.217 0 0 0
6496 5579 1 -0.8 15.81 13.519 52.283 0 0 0
7502 5580 1 -0.8 14.547 12.788 54.35 0 0 0
7334 5581 1 -0.8 13.281 12.058 56.417 0 0 0
7505 5582 1 -0.8 15.81 14.98 54.35 0 0 0
7512 5583 1 -0.8 17.076 12.788 54.35 0 0 0
7500 5584 1 -0.8 13.281 13.519 58.483 0 0 0
7503 5585 1 -0.8 14.547 15.711 58.483 0 0 0
416 5586 1 -0.8 13.281 17.905 2.683 0 0 0
420 5587 1 -0.8 14.547 17.172 4.75 0 0 0
1650 5588 1 -0.8 15.81 16.442 6.817 0 0 0
555 5589 1 -0.8 13.281 19.366 4.75 0 0 0
1654 5590 1 -0.8 17.076 15.711 8.883 0 0 0
198 8897 1 -0.8 55.027 5.48 0.617 0 0 0
195 8896 1 -0.8 53.761 6.21 0 0 0 1
7279 8895 1 -0.8 55.027 2.557 58.483 0 0 0
7277 8894 1 -0.8 53.761 4.749 58.483 0 0 0
7275 8893 1 -0.8 53.761 3.288 56.417 0 0 0
7280 8892 1 -0.8 55.027 4.018 54.35 0 0 0
8349 8891 1 -0.8 55.027 61.022 54.35 0 0 0
7273 8890 1 -0.8 53.761 1.826 54.35 0 0 0
6328 8889 1 -0.8 53.761 0.365 52.283 0 0 0
7127 8888 1 -0.8 53.761 60.292 50.217 0 0 0
6332 8887 1 -0.8 55.027 1.096 50.217 0 0 0
5465 8886 1 -0.8 55.027 2.557 46.083 0 0 0
5463 8885 1 -0.8 53.761 4.749 46.083 0 0 0
5461 8884 1 -0.8 53.761 3.288 44.017 0 0 0
5681 5605 1 -0.8 17.076 15.711 46.083 0 0 0
6492 5606 1 -0.8 13.281 17.905 52.283 0 0 0
7504 5607 1 -0.8 14.547 17.172 54.35 0 0 0
7507 5608 1 -0.8 15.81 16.442 56.417 0 0 0
7614 5609 1 -0.8 13.281 19.366 54.35 0 0 0
7513 5610 1 -0.8 17.076 15.711 58.483 0 0 0
1723 5611 1 -0.8 13.281 20.828 6.817 0 0 0
5466 8883 1 -0.8 55.027 4.018 41.95 0 0 0
6151 8882 1 -0.8 55.027 61.022 41.95 0 0 0
5459 8881 1 -0.8 53.761 1.826 41.95 0 0 0
7616 5615 1 -0.8 13.281 20.828 56.417 0 0 0
818 5616 1 -0.8 13.281 41.29 0 0 0 1
819 5617 1 -0.8 13.281 42.752 0.617 0 0 0
1876 5618 1 -0.8 13.281 41.29 10.95 0 0 0
2739 5619 1 -0.8 13.281 42.752 13.017 0 0 0
4967 8880 1 -0.8 53.761 0.365 39.883 0 0 0
5314 8879 1 -0.8 53.761 60.292 37.817 0 0 0
4970 8878 1 -0.8 55.027 1.096 37.817 0 0 0
4457 8877 1 -0.8 55.027 2.557 33.683 0 0 0
6745 5624 1 -0.8 13.281 41.29 48.15 0 0 0
6747 5625 1 -0.8 13.281 42.752 50.217 0 0 0
915 5626 1 -0.8 14.547 44.946 0.617 0 0 0
911 5627 1 -0.8 13.281 44.215 2.683 0 0 0
918 5628 1 -0.8 15.81 45.676 0 0 0 1
919 5629 1 -0.8 15.81 47.138 0.617 0 0 0
913 5630 1 -0.8 13.281 45.676 4.75 0 0 0
916 5631 1 -0.8 14.547 47.868 4.75 0 0 0
1942 5632 1 -0.8 13.281 47.138 6.817 0 0 0
1944 5633 1 -0.8 13.281 48.599 8.883 0 0 0
1945 5634 1 -0.8 14.547 46.407 8.883 0 0 0
1947 5635 1 -0.8 15.81 45.676 10.95 0 0 0
1950 5636 1 -0.8 17.076 46.407 8.883 0 0 0
2785 5637 1 -0.8 14.547 44.946 13.017 0 0 0
2783 5638 1 -0.8 13.281 44.215 15.083 0 0 0
2788 5639 1 -0.8 15.81 47.138 13.017 0 0 0
4454 8876 1 -0.8 53.761 4.749 33.683 0 0 0
2786 5641 1 -0.8 14.547 47.868 17.15 0 0 0
4452 8875 1 -0.8 53.761 3.288 31.617 0 0 0
3481 5643 1 -0.8 13.281 48.599 21.283 0 0 0
3912 8874 1 -0.8 55.027 4.018 29.55 0 0 0
4323 8873 1 -0.8 55.027 61.022 29.55 0 0 0
3909 8872 1 -0.8 53.761 1.826 29.55 0 0 0
3907 8871 1 -0.8 53.761 0.365 27.483 0 0 0
4320 8870 1 -0.8 53.761 60.292 25.417 0 0 0
3911 8869 1 -0.8 55.027 1.096 25.417 0 0 0
3338 8868 1 -0.8 55.027 2.557 21.283 0 0 0
3335 8867 1 -0.8 53.761 4.749 21.283 0 0 0
3333 8866 1 -0.8 53.761 3.288 19.217 0 0 0
2430 8865 1 -0.8 55.027 4.018 17.15 0 0 0
3213 8864 1 -0.8 55.027 61.022 17.15 0 0 0
2426 8863 1 -0.8 53.761 1.826 17.15 0 0 0
3210 8862 1 -0.8 53.761 60.292 13.017 0 0 0
2424 8861 1 -0.8 53.761 0.365 15.083 0 0 0
2429 8860 1 -0.8 55.027 1.096 13.017 0 0 0
1487 8859 1 -0.8 55.027 2.557 8.883 0 0 0
1484 8858 1 -0.8 53.761 4.749 8.883 0 0 0
5759 5661 1 -0.8 14.547 47.868 41.95 0 0 0
5755 5662 1 -0.8 13.281 47.138 44.017 0 0 0
5757 5663 1 -0.8 13.281 48.599 46.083 0 0 0
5758 5664 1 -0.8 14.547 46.407 46.083 0 0 0
5762 5665 1 -0.8 17.076 46.407 46.083 0 0 0
6814 5666 1 -0.8 15.81 45.676 48.15 0 0 0
6813 5667 1 -0.8 14.547 44.946 50.217 0 0 0
6810 5668 1 -0.8 13.281 44.215 52.283 0 0 0
6816 5669 1 -0.8 15.81 47.138 50.217 0 0 0
7936 5670 1 -0.8 13.281 45.676 54.35 0 0 0
7942 5671 1 -0.8 14.547 47.868 54.35 0 0 0
7938 5672 1 -0.8 13.281 47.138 56.417 0 0 0
7940 5673 1 -0.8 13.281 48.599 58.483 0 0 0
7941 5674 1 -0.8 14.547 46.407 58.483 0 0 0
7945 5675 1 -0.8 17.076 46.407 58.483 0 0 0
1055 5676 1 -0.8 13.281 50.06 0 0 0 1
1061 5677 1 -0.8 14.547 49.33 0.617 0 0 0
1056 5678 1 -0.8 13.281 51.522 0.617 0 0 0
921 5679 1 -0.8 15.81 48.599 2.683 0 0 0
1067 5680 1 -0.8 17.076 49.33 0.617 0 0 0
1064 5681 1 -0.8 15.81 50.06 4.75 0 0 0
925 5682 1 -0.8 17.076 47.868 4.75 0 0 0
1062 5683 1 -0.8 14.547 52.252 4.75 0 0 0
1068 5684 1 -0.8 17.076 52.252 4.75 0 0 0
2021 5685 1 -0.8 15.81 51.522 6.817 0 0 0
2019 5686 1 -0.8 13.281 50.06 10.95 0 0 0
2020 5687 1 -0.8 14.547 50.791 8.883 0 0 0
2023 5688 1 -0.8 15.81 52.985 8.883 0 0 0
2026 5689 1 -0.8 17.076 50.791 8.883 0 0 0
2912 5690 1 -0.8 14.547 49.33 13.017 0 0 0
2907 5691 1 -0.8 13.281 51.522 13.017 0 0 0
2790 5692 1 -0.8 15.81 48.599 15.083 0 0 0
2918 5693 1 -0.8 17.076 49.33 13.017 0 0 0
2915 5694 1 -0.8 15.81 50.06 17.15 0 0 0
2793 5695 1 -0.8 17.076 47.868 17.15 0 0 0
2913 5696 1 -0.8 14.547 52.252 17.15 0 0 0
2919 5697 1 -0.8 17.076 52.252 17.15 0 0 0
3514 5698 1 -0.8 15.81 51.522 19.217 0 0 0
3513 5699 1 -0.8 14.547 50.791 21.283 0 0 0
3512 5700 1 -0.8 13.281 50.06 23.35 0 0 0
3516 5701 1 -0.8 15.81 52.985 21.283 0 0 0
3519 5702 1 -0.8 17.076 50.791 21.283 0 0 0
1482 8857 1 -0.8 53.761 3.288 6.817 0 0 0
4075 5704 1 -0.8 13.281 51.522 25.417 0 0 0
197 8856 1 -0.8 55.027 4.018 4.75 0 0 0
1362 8855 1 -0.8 55.027 61.022 4.75 0 0 0
193 8854 1 -0.8 53.761 1.826 4.75 0 0 0
1359 8853 1 -0.8 53.761 60.292 0.617 0 0 0
4080 5709 1 -0.8 14.547 52.252 29.55 0 0 0
4083 5710 1 -0.8 17.076 52.252 29.55 0 0 0
4593 5711 1 -0.8 15.81 51.522 31.617 0 0 0
4591 5712 1 -0.8 14.547 50.791 33.683 0 0 0
4590 5713 1 -0.8 13.281 50.06 35.75 0 0 0
4595 5714 1 -0.8 15.81 52.985 33.683 0 0 0
4598 5715 1 -0.8 17.076 50.791 33.683 0 0 0
5140 5716 1 -0.8 14.547 49.33 37.817 0 0 0
5136 5717 1 -0.8 13.281 51.522 37.817 0 0 0
5143 5718 1 -0.8 17.076 49.33 37.817 0 0 0
5097 5719 1 -0.8 15.81 48.599 39.883 0 0 0
5855 5720 1 -0.8 15.81 50.06 41.95 0 0 0
5763 5721 1 -0.8 17.076 47.868 41.95 0 0 0
5854 5722 1 -0.8 14.547 52.252 41.95 0 0 0
5862 5723 1 -0.8 17.076 52.252 41.95 0 0 0
5857 5724 1 -0.8 15.81 51.522 44.017 0 0 0
5853 5725 1 -0.8 14.547 50.791 46.083 0 0 0
6917 5726 1 -0.8 13.281 50.06 48.15 0 0 0
5859 5727 1 -0.8 15.81 52.985 46.083 0 0 0
5861 5728 1 -0.8 17.076 50.791 46.083 0 0 0
6923 5729 1 -0.8 14.547 49.33 50.217 0 0 0
6919 5730 1 -0.8 13.281 51.522 50.217 0 0 0
6927 5731 1 -0.8 17.076 49.33 50.217 0 0 0
6818 5732 1 -0.8 15.81 48.599 52.283 0 0 0
8053 5733 1 -0.8 15.81 50.06 54.35 0 0 0
7946 5734 1 -0.8 17.076 47.868 54.35 0 0 0
8052 5735 1 -0.8 14.547 52.252 54.35 0 0 0
8060 5736 1 -0.8 17.076 52.252 54.35 0 0 0
8055 5737 1 -0.8 15.81 51.522 56.417 0 0 0
8051 5738 1 -0.8 14.547 50.791 58.483 0 0 0
8057 5739 1 -0.8 15.81 52.985 58.483 0 0 0
8059 5740 1 -0.8 17.076 50.791 58.483 0 0 0
1063 5741 1 -0.8 14.547 53.716 0.617 0 0 0
1058 5742 1 -0.8 13.281 52.985 2.683 0 0 0
1066 5743 1 -0.8 15.81 54.446 0 0 0 1
1243 5744 1 -0.8 15.81 55.908 0.617 0 0 0
1069 5745 1 -0.8 17.076 53.716 0.617 0 0 0
1060 5746 1 -0.8 13.281 54.446 4.75 0 0 0
1240 5747 1 -0.8 14.547 56.638 4.75 0 0 0
2128 5748 1 -0.8 13.281 55.908 6.817 0 0 0
2130 5749 1 -0.8 13.281 57.369 8.883 0 0 0
2133 5750 1 -0.8 14.547 55.177 8.883 0 0 0
2025 5751 1 -0.8 15.81 54.446 10.95 0 0 0
2137 5752 1 -0.8 17.076 55.177 8.883 0 0 0
2914 5753 1 -0.8 14.547 53.716 13.017 0 0 0
2909 5754 1 -0.8 13.281 52.985 15.083 0 0 0
3094 5755 1 -0.8 15.81 55.908 13.017 0 0 0
2920 5756 1 -0.8 17.076 53.716 13.017 0 0 0
2911 5757 1 -0.8 13.281 54.446 17.15 0 0 0
3091 5758 1 -0.8 14.547 56.638 17.15 0 0 0
3621 5759 1 -0.8 13.281 55.908 19.217 0 0 0
3623 5760 1 -0.8 13.281 57.369 21.283 0 0 0
3626 5761 1 -0.8 14.547 55.177 21.283 0 0 0
3630 5762 1 -0.8 17.076 55.177 21.283 0 0 0
3518 5763 1 -0.8 15.81 54.446 23.35 0 0 0
4081 5764 1 -0.8 14.547 53.716 25.417 0 0 0
4077 5765 1 -0.8 13.281 52.985 27.483 0 0 0
4220 5766 1 -0.8 15.81 55.908 25.417 0 0 0
4084 5767 1 -0.8 17.076 53.716 25.417 0 0 0
4079 5768 1 -0.8 13.281 54.446 29.55 0 0 0
4217 5769 1 -0.8 14.547 56.638 29.55 0 0 0
4705 5770 1 -0.8 13.281 55.908 31.617 0 0 0
4707 5771 1 -0.8 13.281 57.369 33.683 0 0 0
4710 5772 1 -0.8 14.547 55.177 33.683 0 0 0
4715 5773 1 -0.8 17.076 55.177 33.683 0 0 0
4597 5774 1 -0.8 15.81 54.446 35.75 0 0 0
5141 5775 1 -0.8 14.547 53.716 37.817 0 0 0
5138 5776 1 -0.8 13.281 52.985 39.883 0 0 0
5252 5777 1 -0.8 15.81 55.908 37.817 0 0 0
5144 5778 1 -0.8 17.076 53.716 37.817 0 0 0
5852 5779 1 -0.8 13.281 54.446 41.95 0 0 0
6013 5780 1 -0.8 14.547 56.638 41.95 0 0 0
6008 5781 1 -0.8 13.281 55.908 44.017 0 0 0
6010 5782 1 -0.8 13.281 57.369 46.083 0 0 0
6012 5783 1 -0.8 14.547 55.177 46.083 0 0 0
6020 5784 1 -0.8 17.076 55.177 46.083 0 0 0
6925 5785 1 -0.8 15.81 54.446 48.15 0 0 0
6924 5786 1 -0.8 14.547 53.716 50.217 0 0 0
6921 5787 1 -0.8 13.281 52.985 52.283 0 0 0
7057 5788 1 -0.8 15.81 55.908 50.217 0 0 0
6928 5789 1 -0.8 17.076 53.716 50.217 0 0 0
8050 5790 1 -0.8 13.281 54.446 54.35 0 0 0
8211 5791 1 -0.8 14.547 56.638 54.35 0 0 0
8206 5792 1 -0.8 13.281 55.908 56.417 0 0 0
8208 5793 1 -0.8 13.281 57.369 58.483 0 0 0
8210 5794 1 -0.8 14.547 55.177 58.483 0 0 0
8218 5795 1 -0.8 17.076 55.177 58.483 0 0 0
1238 5796 1 -0.8 13.281 58.83 0 0 0 1
1241 5797 1 -0.8 14.547 58.1 0.617 0 0 0
1245 5798 1 -0.8 15.81 57.369 2.683 0 0 0
1250 5799 1 -0.8 17.076 58.1 0.617 0 0 0
1247 5800 1 -0.8 15.81 58.83 4.75 0 0 0
1249 5801 1 -0.8 17.076 56.638 4.75 0 0 0
2135 5802 1 -0.8 15.81 60.292 6.817 0 0 0
1251 5803 1 -0.8 17.076 61.022 4.75 0 0 0
2132 5804 1 -0.8 13.281 58.83 10.95 0 0 0
2134 5805 1 -0.8 14.547 59.561 8.883 0 0 0
2138 5806 1 -0.8 17.076 59.561 8.883 0 0 0
3092 5807 1 -0.8 14.547 58.1 13.017 0 0 0
3096 5808 1 -0.8 15.81 57.369 15.083 0 0 0
3101 5809 1 -0.8 17.076 58.1 13.017 0 0 0
3098 5810 1 -0.8 15.81 58.83 17.15 0 0 0
3100 5811 1 -0.8 17.076 56.638 17.15 0 0 0
3628 5812 1 -0.8 15.81 60.292 19.217 0 0 0
3102 5813 1 -0.8 17.076 61.022 17.15 0 0 0
3627 5814 1 -0.8 14.547 59.561 21.283 0 0 0
3625 5815 1 -0.8 13.281 58.83 23.35 0 0 0
3631 5816 1 -0.8 17.076 59.561 21.283 0 0 0
4218 5817 1 -0.8 14.547 58.1 25.417 0 0 0
4226 5818 1 -0.8 17.076 58.1 25.417 0 0 0
4222 5819 1 -0.8 15.81 57.369 27.483 0 0 0
4224 5820 1 -0.8 15.81 58.83 29.55 0 0 0
4225 5821 1 -0.8 17.076 56.638 29.55 0 0 0
4227 5822 1 -0.8 17.076 61.022 29.55 0 0 0
4713 5823 1 -0.8 15.81 60.292 31.617 0 0 0
4711 5824 1 -0.8 14.547 59.561 33.683 0 0 0
4709 5825 1 -0.8 13.281 58.83 35.75 0 0 0
4716 5826 1 -0.8 17.076 59.561 33.683 0 0 0
5251 5827 1 -0.8 14.547 58.1 37.817 0 0 0
5256 5828 1 -0.8 17.076 58.1 37.817 0 0 0
5254 5829 1 -0.8 15.81 57.369 39.883 0 0 0
6016 5830 1 -0.8 15.81 58.83 41.95 0 0 0
6021 5831 1 -0.8 17.076 56.638 41.95 0 0 0
6023 5832 1 -0.8 17.076 61.022 41.95 0 0 0
6018 5833 1 -0.8 15.81 60.292 44.017 0 0 0
6014 5834 1 -0.8 14.547 59.561 46.083 0 0 0
7053 5835 1 -0.8 13.281 58.83 48.15 0 0 0
6022 5836 1 -0.8 17.076 59.561 46.083 0 0 0
7056 5837 1 -0.8 14.547 58.1 50.217 0 0 0
7061 5838 1 -0.8 17.076 58.1 50.217 0 0 0
7059 5839 1 -0.8 15.81 57.369 52.283 0 0 0
8214 5840 1 -0.8 15.81 58.83 54.35 0 0 0
8219 5841 1 -0.8 17.076 56.638 54.35 0 0 0
8221 5842 1 -0.8 17.076 61.022 54.35 0 0 0
8216 5843 1 -0.8 15.81 60.292 56.417 0 0 0
8212 5844 1 -0.8 14.547 59.561 58.483 0 0 0
8220 5845 1 -0.8 17.076 59.561 58.483 0 0 0
70 5846 1 -0.8 19.607 1.096 0.617 0 0 0
65 5847 1 -0.8 18.341 0.365 2.683 0 0 0
1254 5848 1 -0.8 18.341 60.292 0.617 0 0 0
67 5849 1 -0.8 18.341 1.826 4.75 0 0 0
1257 5850 1 -0.8 19.607 61.022 4.75 0 0 0
71 5851 1 -0.8 19.607 4.018 4.75 0 0 0
1412 5852 1 -0.8 18.341 3.288 6.817 0 0 0
1414 5853 1 -0.8 18.341 4.749 8.883 0 0 0
1417 5854 1 -0.8 19.607 2.557 8.883 0 0 0
2303 5855 1 -0.8 19.607 1.096 13.017 0 0 0
2298 5856 1 -0.8 18.341 0.365 15.083 0 0 0
3105 5857 1 -0.8 18.341 60.292 13.017 0 0 0
2300 5858 1 -0.8 18.341 1.826 17.15 0 0 0
3108 5859 1 -0.8 19.607 61.022 17.15 0 0 0
2304 5860 1 -0.8 19.607 4.018 17.15 0 0 0
3263 5861 1 -0.8 18.341 3.288 19.217 0 0 0
3265 5862 1 -0.8 18.341 4.749 21.283 0 0 0
3268 5863 1 -0.8 19.607 2.557 21.283 0 0 0
3792 5864 1 -0.8 19.607 1.096 25.417 0 0 0
4229 5865 1 -0.8 18.341 60.292 25.417 0 0 0
3788 5866 1 -0.8 18.341 0.365 27.483 0 0 0
3790 5867 1 -0.8 18.341 1.826 29.55 0 0 0
4232 5868 1 -0.8 19.607 61.022 29.55 0 0 0
3793 5869 1 -0.8 19.607 4.018 29.55 0 0 0
4375 5870 1 -0.8 18.341 3.288 31.617 0 0 0
4377 5871 1 -0.8 18.341 4.749 33.683 0 0 0
4380 5872 1 -0.8 19.607 2.557 33.683 0 0 0
4879 5873 1 -0.8 19.607 1.096 37.817 0 0 0
5258 5874 1 -0.8 18.341 60.292 37.817 0 0 0
4876 5875 1 -0.8 18.341 0.365 39.883 0 0 0
5368 5876 1 -0.8 18.341 1.826 41.95 0 0 0
6032 5877 1 -0.8 19.607 61.022 41.95 0 0 0
5375 5878 1 -0.8 19.607 4.018 41.95 0 0 0
5370 5879 1 -0.8 18.341 3.288 44.017 0 0 0
5372 5880 1 -0.8 18.341 4.749 46.083 0 0 0
5374 5881 1 -0.8 19.607 2.557 46.083 0 0 0
6227 5882 1 -0.8 19.607 1.096 50.217 0 0 0
7064 5883 1 -0.8 18.341 60.292 50.217 0 0 0
6223 5884 1 -0.8 18.341 0.365 52.283 0 0 0
7182 5885 1 -0.8 18.341 1.826 54.35 0 0 0
8230 5886 1 -0.8 19.607 61.022 54.35 0 0 0
7189 5887 1 -0.8 19.607 4.018 54.35 0 0 0
7184 5888 1 -0.8 18.341 3.288 56.417 0 0 0
7186 5889 1 -0.8 18.341 4.749 58.483 0 0 0
7188 5890 1 -0.8 19.607 2.557 58.483 0 0 0
69 5891 1 -0.8 18.341 6.21 0 0 0 1
72 5892 1 -0.8 19.607 5.48 0.617 0 0 0
261 5893 1 -0.8 18.341 7.672 0.617 0 0 0
1416 5894 1 -0.8 18.341 6.21 10.95 0 0 0
1540 5895 1 -0.8 19.607 6.941 8.883 0 0 0
2305 5896 1 -0.8 19.607 5.48 13.017 0 0 0
2494 5897 1 -0.8 18.341 7.672 13.017 0 0 0
3391 5898 1 -0.8 19.607 6.941 21.283 0 0 0
3267 5899 1 -0.8 18.341 6.21 23.35 0 0 0
3794 5900 1 -0.8 19.607 5.48 25.417 0 0 0
3964 5901 1 -0.8 18.341 7.672 25.417 0 0 0
4500 5902 1 -0.8 19.607 6.941 33.683 0 0 0
4379 5903 1 -0.8 18.341 6.21 35.75 0 0 0
4880 5904 1 -0.8 19.607 5.48 37.817 0 0 0
5012 5905 1 -0.8 18.341 7.672 37.817 0 0 0
5537 5906 1 -0.8 19.607 6.941 46.083 0 0 0
6225 5907 1 -0.8 18.341 6.21 48.15 0 0 0
6228 5908 1 -0.8 19.607 5.48 50.217 0 0 0
6380 5909 1 -0.8 18.341 7.672 50.217 0 0 0
7351 5910 1 -0.8 19.607 6.941 58.483 0 0 0
268 5911 1 -0.8 19.607 9.866 0.617 0 0 0
263 5912 1 -0.8 18.341 9.135 2.683 0 0 0
267 5913 1 -0.8 19.607 8.402 4.75 0 0 0
265 5914 1 -0.8 18.341 10.596 4.75 0 0 0
2501 5915 1 -0.8 19.607 9.866 13.017 0 0 0
2496 5916 1 -0.8 18.341 9.135 15.083 0 0 0
2500 5917 1 -0.8 19.607 8.402 17.15 0 0 0
2498 5918 1 -0.8 18.341 10.596 17.15 0 0 0
3970 5919 1 -0.8 19.607 9.866 25.417 0 0 0
3966 5920 1 -0.8 18.341 9.135 27.483 0 0 0
3969 5921 1 -0.8 19.607 8.402 29.55 0 0 0
3968 5922 1 -0.8 18.341 10.596 29.55 0 0 0
5016 5923 1 -0.8 19.607 9.866 37.817 0 0 0
5014 5924 1 -0.8 18.341 9.135 39.883 0 0 0
5538 5925 1 -0.8 19.607 8.402 41.95 0 0 0
5533 5926 1 -0.8 18.341 10.596 41.95 0 0 0
6384 5927 1 -0.8 19.607 9.866 50.217 0 0 0
6382 5928 1 -0.8 18.341 9.135 52.283 0 0 0
7352 5929 1 -0.8 19.607 8.402 54.35 0 0 0
7347 5930 1 -0.8 18.341 10.596 54.35 0 0 0
430 5931 1 -0.8 18.341 14.98 0 0 0 1
433 5932 1 -0.8 19.607 14.25 0.617 0 0 0
432 5933 1 -0.8 19.607 12.788 4.75 0 0 0
1538 5934 1 -0.8 18.341 12.058 6.817 0 0 0
1657 5935 1 -0.8 18.341 14.98 10.95 0 0 0
1655 5936 1 -0.8 18.341 13.519 8.883 0 0 0
1541 5937 1 -0.8 19.607 11.327 8.883 0 0 0
2648 5938 1 -0.8 19.607 14.25 13.017 0 0 0
2647 5939 1 -0.8 19.607 12.788 17.15 0 0 0
3389 5940 1 -0.8 18.341 12.058 19.217 0 0 0
191 8852 1 -0.8 53.761 0.365 2.683 0 0 0
196 8851 1 -0.8 55.027 1.096 0.617 0 0 0
3392 5943 1 -0.8 19.607 11.327 21.283 0 0 0
8339 8850 1 -0.8 52.496 59.561 58.483 0 0 0
8331 8849 1 -0.8 49.967 59.561 58.483 0 0 0
8335 8848 1 -0.8 51.23 60.292 56.417 0 0 0
8340 8847 1 -0.8 52.496 61.022 54.35 0 0 0
8338 8846 1 -0.8 52.496 56.638 54.35 0 0 0
8333 8845 1 -0.8 51.23 58.83 54.35 0 0 0
7122 8844 1 -0.8 51.23 57.369 52.283 0 0 0
5685 5951 1 -0.8 19.607 12.788 41.95 0 0 0
5535 5952 1 -0.8 18.341 12.058 44.017 0 0 0
5682 5953 1 -0.8 18.341 13.519 46.083 0 0 0
6499 5954 1 -0.8 18.341 14.98 48.15 0 0 0
5539 5955 1 -0.8 19.607 11.327 46.083 0 0 0
6502 5956 1 -0.8 19.607 14.25 50.217 0 0 0
7518 5957 1 -0.8 19.607 12.788 54.35 0 0 0
7349 5958 1 -0.8 18.341 12.058 56.417 0 0 0
7515 5959 1 -0.8 18.341 13.519 58.483 0 0 0
7353 5960 1 -0.8 19.607 11.327 58.483 0 0 0
928 5961 1 -0.8 19.607 47.868 4.75 0 0 0
1951 5962 1 -0.8 18.341 47.138 6.817 0 0 0
1953 5963 1 -0.8 18.341 48.599 8.883 0 0 0
2796 5964 1 -0.8 19.607 47.868 17.15 0 0 0
7124 8843 1 -0.8 52.496 58.1 50.217 0 0 0
3482 5966 1 -0.8 18.341 48.599 21.283 0 0 0
7119 8842 1 -0.8 49.967 58.1 50.217 0 0 0
6141 8841 1 -0.8 52.496 59.561 46.083 0 0 0
7116 8840 1 -0.8 48.701 58.83 48.15 0 0 0
5770 5970 1 -0.8 19.607 47.868 41.95 0 0 0
5766 5971 1 -0.8 18.341 47.138 44.017 0 0 0
5768 5972 1 -0.8 18.341 48.599 46.083 0 0 0
7954 5973 1 -0.8 19.607 47.868 54.35 0 0 0
7949 5974 1 -0.8 18.341 47.138 56.417 0 0 0
7951 5975 1 -0.8 18.341 48.599 58.483 0 0 0
1070 5976 1 -0.8 18.341 50.06 0 0 0 1
1076 5977 1 -0.8 19.607 49.33 0.617 0 0 0
1071 5978 1 -0.8 18.341 51.522 0.617 0 0 0
2028 5979 1 -0.8 18.341 50.06 10.95 0 0 0
2029 5980 1 -0.8 19.607 50.791 8.883 0 0 0
2927 5981 1 -0.8 19.607 49.33 13.017 0 0 0
2922 5982 1 -0.8 18.341 51.522 13.017 0 0 0
3522 5983 1 -0.8 19.607 50.791 21.283 0 0 0
3521 5984 1 -0.8 18.341 50.06 23.35 0 0 0
6133 8839 1 -0.8 49.967 59.561 46.083 0 0 0
4086 5986 1 -0.8 18.341 51.522 25.417 0 0 0
4600 5987 1 -0.8 19.607 50.791 33.683 0 0 0
4599 5988 1 -0.8 18.341 50.06 35.75 0 0 0
5150 5989 1 -0.8 19.607 49.33 37.817 0 0 0
5146 5990 1 -0.8 18.341 51.522 37.817 0 0 0
5865 5991 1 -0.8 19.607 50.791 46.083 0 0 0
6929 5992 1 -0.8 18.341 50.06 48.15 0 0 0
6935 5993 1 -0.8 19.607 49.33 50.217 0 0 0
6931 5994 1 -0.8 18.341 51.522 50.217 0 0 0
8063 5995 1 -0.8 19.607 50.791 58.483 0 0 0
1078 5996 1 -0.8 19.607 53.716 0.617 0 0 0
1073 5997 1 -0.8 18.341 52.985 2.683 0 0 0
1077 5998 1 -0.8 19.607 52.252 4.75 0 0 0
1075 5999 1 -0.8 18.341 54.446 4.75 0 0 0
1255 6000 1 -0.8 19.607 56.638 4.75 0 0 0
2139 6001 1 -0.8 18.341 55.908 6.817 0 0 0
2141 6002 1 -0.8 18.341 57.369 8.883 0 0 0
2144 6003 1 -0.8 19.607 55.177 8.883 0 0 0
2929 6004 1 -0.8 19.607 53.716 13.017 0 0 0
2924 6005 1 -0.8 18.341 52.985 15.083 0 0 0
2928 6006 1 -0.8 19.607 52.252 17.15 0 0 0
2926 6007 1 -0.8 18.341 54.446 17.15 0 0 0
3106 6008 1 -0.8 19.607 56.638 17.15 0 0 0
3632 6009 1 -0.8 18.341 55.908 19.217 0 0 0
3634 6010 1 -0.8 18.341 57.369 21.283 0 0 0
3637 6011 1 -0.8 19.607 55.177 21.283 0 0 0
4092 6012 1 -0.8 19.607 53.716 25.417 0 0 0
4088 6013 1 -0.8 18.341 52.985 27.483 0 0 0
4091 6014 1 -0.8 19.607 52.252 29.55 0 0 0
4090 6015 1 -0.8 18.341 54.446 29.55 0 0 0
4230 6016 1 -0.8 19.607 56.638 29.55 0 0 0
4718 6017 1 -0.8 18.341 55.908 31.617 0 0 0
4720 6018 1 -0.8 18.341 57.369 33.683 0 0 0
4723 6019 1 -0.8 19.607 55.177 33.683 0 0 0
5151 6020 1 -0.8 19.607 53.716 37.817 0 0 0
5148 6021 1 -0.8 18.341 52.985 39.883 0 0 0
5866 6022 1 -0.8 19.607 52.252 41.95 0 0 0
5864 6023 1 -0.8 18.341 54.446 41.95 0 0 0
6030 6024 1 -0.8 19.607 56.638 41.95 0 0 0
6025 6025 1 -0.8 18.341 55.908 44.017 0 0 0
6027 6026 1 -0.8 18.341 57.369 46.083 0 0 0
6029 6027 1 -0.8 19.607 55.177 46.083 0 0 0
6936 6028 1 -0.8 19.607 53.716 50.217 0 0 0
6933 6029 1 -0.8 18.341 52.985 52.283 0 0 0
8064 6030 1 -0.8 19.607 52.252 54.35 0 0 0
8062 6031 1 -0.8 18.341 54.446 54.35 0 0 0
8228 6032 1 -0.8 19.607 56.638 54.35 0 0 0
8223 6033 1 -0.8 18.341 55.908 56.417 0 0 0
8225 6034 1 -0.8 18.341 57.369 58.483 0 0 0
8227 6035 1 -0.8 19.607 55.177 58.483 0 0 0
1253 6036 1 -0.8 18.341 58.83 0 0 0 1
1256 6037 1 -0.8 19.607 58.1 0.617 0 0 0
2143 6038 1 -0.8 18.341 58.83 10.95 0 0 0
2145 6039 1 -0.8 19.607 59.561 8.883 0 0 0
3107 6040 1 -0.8 19.607 58.1 13.017 0 0 0
3638 6041 1 -0.8 19.607 59.561 21.283 0 0 0
3636 6042 1 -0.8 18.341 58.83 23.35 0 0 0
4231 6043 1 -0.8 19.607 58.1 25.417 0 0 0
4724 6044 1 -0.8 19.607 59.561 33.683 0 0 0
4722 6045 1 -0.8 18.341 58.83 35.75 0 0 0
5259 6046 1 -0.8 19.607 58.1 37.817 0 0 0
6031 6047 1 -0.8 19.607 59.561 46.083 0 0 0
7062 6048 1 -0.8 18.341 58.83 48.15 0 0 0
7065 6049 1 -0.8 19.607 58.1 50.217 0 0 0
8229 6050 1 -0.8 19.607 59.561 58.483 0 0 0
79 6051 1 -0.8 22.136 1.096 0.617 0 0 0
83 6052 1 -0.8 23.401 0.365 2.683 0 0 0
88 6053 1 -0.8 24.667 1.096 0.617 0 0 0
1269 6054 1 -0.8 23.401 60.292 0.617 0 0 0
73 6055 1 -0.8 20.87 1.826 0 0 0 1
74 6056 1 -0.8 20.87 3.288 0.617 0 0 0
85 6057 1 -0.8 23.401 1.826 4.75 0 0 0
1266 6058 1 -0.8 22.136 61.022 4.75 0 0 0
1272 6059 1 -0.8 24.667 61.022 4.75 0 0 0
80 6060 1 -0.8 22.136 4.018 4.75 0 0 0
89 6061 1 -0.8 24.667 4.018 4.75 0 0 0
1422 6062 1 -0.8 23.401 3.288 6.817 0 0 0
1424 6063 1 -0.8 23.401 4.749 8.883 0 0 0
1421 6064 1 -0.8 22.136 2.557 8.883 0 0 0
1427 6065 1 -0.8 24.667 2.557 8.883 0 0 0
1420 6066 1 -0.8 20.87 1.826 10.95 0 0 0
1418 6067 1 -0.8 20.87 0.365 8.883 0 0 0
2312 6068 1 -0.8 22.136 1.096 13.017 0 0 0
2316 6069 1 -0.8 23.401 0.365 15.083 0 0 0
2321 6070 1 -0.8 24.667 1.096 13.017 0 0 0
3120 6071 1 -0.8 23.401 60.292 13.017 0 0 0
2307 6072 1 -0.8 20.87 3.288 13.017 0 0 0
2318 6073 1 -0.8 23.401 1.826 17.15 0 0 0
3117 6074 1 -0.8 22.136 61.022 17.15 0 0 0
3123 6075 1 -0.8 24.667 61.022 17.15 0 0 0
2313 6076 1 -0.8 22.136 4.018 17.15 0 0 0
2322 6077 1 -0.8 24.667 4.018 17.15 0 0 0
3273 6078 1 -0.8 23.401 3.288 19.217 0 0 0
3275 6079 1 -0.8 23.401 4.749 21.283 0 0 0
3272 6080 1 -0.8 22.136 2.557 21.283 0 0 0
3278 6081 1 -0.8 24.667 2.557 21.283 0 0 0
3269 6082 1 -0.8 20.87 0.365 21.283 0 0 0
3271 6083 1 -0.8 20.87 1.826 23.35 0 0 0
3801 6084 1 -0.8 22.136 1.096 25.417 0 0 0
3809 6085 1 -0.8 24.667 1.096 25.417 0 0 0
4242 6086 1 -0.8 23.401 60.292 25.417 0 0 0
3805 6087 1 -0.8 23.401 0.365 27.483 0 0 0
3796 6088 1 -0.8 20.87 3.288 25.417 0 0 0
3807 6089 1 -0.8 23.401 1.826 29.55 0 0 0
4240 6090 1 -0.8 22.136 61.022 29.55 0 0 0
4245 6091 1 -0.8 24.667 61.022 29.55 0 0 0
3802 6092 1 -0.8 22.136 4.018 29.55 0 0 0
3810 6093 1 -0.8 24.667 4.018 29.55 0 0 0
4386 6094 1 -0.8 23.401 3.288 31.617 0 0 0
4388 6095 1 -0.8 23.401 4.749 33.683 0 0 0
4384 6096 1 -0.8 22.136 2.557 33.683 0 0 0
4391 6097 1 -0.8 24.667 2.557 33.683 0 0 0
4381 6098 1 -0.8 20.87 0.365 33.683 0 0 0
4383 6099 1 -0.8 20.87 1.826 35.75 0 0 0
4886 6100 1 -0.8 22.136 1.096 37.817 0 0 0
4892 6101 1 -0.8 24.667 1.096 37.817 0 0 0
5266 6102 1 -0.8 23.401 60.292 37.817 0 0 0
4889 6103 1 -0.8 23.401 0.365 39.883 0 0 0
4882 6104 1 -0.8 20.87 3.288 37.817 0 0 0
5381 6105 1 -0.8 23.401 1.826 41.95 0 0 0
6040 6106 1 -0.8 22.136 61.022 41.95 0 0 0
6049 6107 1 -0.8 24.667 61.022 41.95 0 0 0
5380 6108 1 -0.8 22.136 4.018 41.95 0 0 0
5388 6109 1 -0.8 24.667 4.018 41.95 0 0 0
5383 6110 1 -0.8 23.401 3.288 44.017 0 0 0
5385 6111 1 -0.8 23.401 4.749 46.083 0 0 0
5379 6112 1 -0.8 22.136 2.557 46.083 0 0 0
5387 6113 1 -0.8 24.667 2.557 46.083 0 0 0
5376 6114 1 -0.8 20.87 0.365 46.083 0 0 0
6229 6115 1 -0.8 20.87 1.826 48.15 0 0 0
6235 6116 1 -0.8 22.136 1.096 50.217 0 0 0
6242 6117 1 -0.8 24.667 1.096 50.217 0 0 0
7073 6118 1 -0.8 23.401 60.292 50.217 0 0 0
6238 6119 1 -0.8 23.401 0.365 52.283 0 0 0
6231 6120 1 -0.8 20.87 3.288 50.217 0 0 0
7195 6121 1 -0.8 23.401 1.826 54.35 0 0 0
8238 6122 1 -0.8 22.136 61.022 54.35 0 0 0
8247 6123 1 -0.8 24.667 61.022 54.35 0 0 0
7194 6124 1 -0.8 22.136 4.018 54.35 0 0 0
7202 6125 1 -0.8 24.667 4.018 54.35 0 0 0
7197 6126 1 -0.8 23.401 3.288 56.417 0 0 0
7199 6127 1 -0.8 23.401 4.749 58.483 0 0 0
7193 6128 1 -0.8 22.136 2.557 58.483 0 0 0
7201 6129 1 -0.8 24.667 2.557 58.483 0 0 0
7190 6130 1 -0.8 20.87 0.365 58.483 0 0 0
87 6131 1 -0.8 23.401 6.21 0 0 0 1
81 6132 1 -0.8 22.136 5.48 0.617 0 0 0
274 6133 1 -0.8 23.401 7.672 0.617 0 0 0
90 6134 1 -0.8 24.667 5.48 0.617 0 0 0
76 6135 1 -0.8 20.87 4.749 2.683 0 0 0
78 6136 1 -0.8 20.87 6.21 4.75 0 0 0
272 6137 1 -0.8 22.136 8.402 4.75 0 0 0
1542 6138 1 -0.8 20.87 7.672 6.817 0 0 0
1426 6139 1 -0.8 23.401 6.21 10.95 0 0 0
1547 6140 1 -0.8 22.136 6.941 8.883 0 0 0
1551 6141 1 -0.8 24.667 6.941 8.883 0 0 0
1544 6142 1 -0.8 20.87 9.135 8.883 0 0 0
2314 6143 1 -0.8 22.136 5.48 13.017 0 0 0
2507 6144 1 -0.8 23.401 7.672 13.017 0 0 0
2323 6145 1 -0.8 24.667 5.48 13.017 0 0 0
2309 6146 1 -0.8 20.87 4.749 15.083 0 0 0
2311 6147 1 -0.8 20.87 6.21 17.15 0 0 0
2505 6148 1 -0.8 22.136 8.402 17.15 0 0 0
3393 6149 1 -0.8 20.87 7.672 19.217 0 0 0
3398 6150 1 -0.8 22.136 6.941 21.283 0 0 0
3402 6151 1 -0.8 24.667 6.941 21.283 0 0 0
3277 6152 1 -0.8 23.401 6.21 23.35 0 0 0
3395 6153 1 -0.8 20.87 9.135 21.283 0 0 0
3803 6154 1 -0.8 22.136 5.48 25.417 0 0 0
3974 6155 1 -0.8 23.401 7.672 25.417 0 0 0
3811 6156 1 -0.8 24.667 5.48 25.417 0 0 0
3798 6157 1 -0.8 20.87 4.749 27.483 0 0 0
3800 6158 1 -0.8 20.87 6.21 29.55 0 0 0
3972 6159 1 -0.8 22.136 8.402 29.55 0 0 0
4502 6160 1 -0.8 20.87 7.672 31.617 0 0 0
4507 6161 1 -0.8 22.136 6.941 33.683 0 0 0
4508 6162 1 -0.8 24.667 6.941 33.683 0 0 0
4390 6163 1 -0.8 23.401 6.21 35.75 0 0 0
4504 6164 1 -0.8 20.87 9.135 33.683 0 0 0
4887 6165 1 -0.8 22.136 5.48 37.817 0 0 0
5020 6166 1 -0.8 23.401 7.672 37.817 0 0 0
4893 6167 1 -0.8 24.667 5.48 37.817 0 0 0
4884 6168 1 -0.8 20.87 4.749 39.883 0 0 0
5378 6169 1 -0.8 20.87 6.21 41.95 0 0 0
5546 6170 1 -0.8 22.136 8.402 41.95 0 0 0
5541 6171 1 -0.8 20.87 7.672 44.017 0 0 0
5545 6172 1 -0.8 22.136 6.941 46.083 0 0 0
5552 6173 1 -0.8 24.667 6.941 46.083 0 0 0
6240 6174 1 -0.8 23.401 6.21 48.15 0 0 0
5543 6175 1 -0.8 20.87 9.135 46.083 0 0 0
6236 6176 1 -0.8 22.136 5.48 50.217 0 0 0
6389 6177 1 -0.8 23.401 7.672 50.217 0 0 0
6243 6178 1 -0.8 24.667 5.48 50.217 0 0 0
6233 6179 1 -0.8 20.87 4.749 52.283 0 0 0
7192 6180 1 -0.8 20.87 6.21 54.35 0 0 0
7360 6181 1 -0.8 22.136 8.402 54.35 0 0 0
7355 6182 1 -0.8 20.87 7.672 56.417 0 0 0
7359 6183 1 -0.8 22.136 6.941 58.483 0 0 0
7366 6184 1 -0.8 24.667 6.941 58.483 0 0 0
7357 6185 1 -0.8 20.87 9.135 58.483 0 0 0
273 6186 1 -0.8 22.136 9.866 0.617 0 0 0
276 6187 1 -0.8 23.401 9.135 2.683 0 0 0
281 6188 1 -0.8 24.667 9.866 0.617 0 0 0
270 6189 1 -0.8 20.87 10.596 0 0 0 1
271 6190 1 -0.8 20.87 12.058 0.617 0 0 0
278 6191 1 -0.8 23.401 10.596 4.75 0 0 0
280 6192 1 -0.8 24.667 8.402 4.75 0 0 0
1546 6193 1 -0.8 20.87 10.596 10.95 0 0 0
1548 6194 1 -0.8 22.136 11.327 8.883 0 0 0
2506 6195 1 -0.8 22.136 9.866 13.017 0 0 0
2509 6196 1 -0.8 23.401 9.135 15.083 0 0 0
2514 6197 1 -0.8 24.667 9.866 13.017 0 0 0
2504 6198 1 -0.8 20.87 12.058 13.017 0 0 0
2511 6199 1 -0.8 23.401 10.596 17.15 0 0 0
2513 6200 1 -0.8 24.667 8.402 17.15 0 0 0
3399 6201 1 -0.8 22.136 11.327 21.283 0 0 0
3397 6202 1 -0.8 20.87 10.596 23.35 0 0 0
3973 6203 1 -0.8 22.136 9.866 25.417 0 0 0
3980 6204 1 -0.8 24.667 9.866 25.417 0 0 0
3976 6205 1 -0.8 23.401 9.135 27.483 0 0 0
6137 8838 1 -0.8 51.23 60.292 44.017 0 0 0
3978 6207 1 -0.8 23.401 10.596 29.55 0 0 0
3979 6208 1 -0.8 24.667 8.402 29.55 0 0 0
6142 8837 1 -0.8 52.496 61.022 41.95 0 0 0
4506 6210 1 -0.8 20.87 10.596 35.75 0 0 0
5019 6211 1 -0.8 22.136 9.866 37.817 0 0 0
5024 6212 1 -0.8 24.667 9.866 37.817 0 0 0
5022 6213 1 -0.8 23.401 9.135 39.883 0 0 0
5018 6214 1 -0.8 20.87 12.058 37.817 0 0 0
5548 6215 1 -0.8 23.401 10.596 41.95 0 0 0
5553 6216 1 -0.8 24.667 8.402 41.95 0 0 0
5547 6217 1 -0.8 22.136 11.327 46.083 0 0 0
6385 6218 1 -0.8 20.87 10.596 48.15 0 0 0
6388 6219 1 -0.8 22.136 9.866 50.217 0 0 0
6393 6220 1 -0.8 24.667 9.866 50.217 0 0 0
6391 6221 1 -0.8 23.401 9.135 52.283 0 0 0
6387 6222 1 -0.8 20.87 12.058 50.217 0 0 0
7362 6223 1 -0.8 23.401 10.596 54.35 0 0 0
7367 6224 1 -0.8 24.667 8.402 54.35 0 0 0
7361 6225 1 -0.8 22.136 11.327 58.483 0 0 0
436 6226 1 -0.8 20.87 13.519 2.683 0 0 0
442 6227 1 -0.8 22.136 12.788 4.75 0 0 0
1549 6228 1 -0.8 23.401 12.058 6.817 0 0 0
1552 6229 1 -0.8 24.667 11.327 8.883 0 0 0
2651 6230 1 -0.8 20.87 13.519 15.083 0 0 0
2657 6231 1 -0.8 22.136 12.788 17.15 0 0 0
3400 6232 1 -0.8 23.401 12.058 19.217 0 0 0
3403 6233 1 -0.8 24.667 11.327 21.283 0 0 0
6140 8836 1 -0.8 52.496 56.638 41.95 0 0 0
6135 8835 1 -0.8 51.23 58.83 41.95 0 0 0
5310 8834 1 -0.8 51.23 57.369 39.883 0 0 0
5312 8833 1 -0.8 52.496 58.1 37.817 0 0 0
5307 8832 1 -0.8 49.967 58.1 37.817 0 0 0
5687 6239 1 -0.8 22.136 12.788 41.95 0 0 0
5550 6240 1 -0.8 23.401 12.058 44.017 0 0 0
5554 6241 1 -0.8 24.667 11.327 46.083 0 0 0
6505 6242 1 -0.8 20.87 13.519 52.283 0 0 0
7520 6243 1 -0.8 22.136 12.788 54.35 0 0 0
7364 6244 1 -0.8 23.401 12.058 56.417 0 0 0
7368 6245 1 -0.8 24.667 11.327 58.483 0 0 0
1085 6246 1 -0.8 23.401 50.06 0 0 0 1
1082 6247 1 -0.8 22.136 49.33 0.617 0 0 0
1086 6248 1 -0.8 23.401 51.522 0.617 0 0 0
931 6249 1 -0.8 20.87 48.599 2.683 0 0 0
1079 6250 1 -0.8 20.87 50.06 4.75 0 0 0
1083 6251 1 -0.8 22.136 52.252 4.75 0 0 0
2030 6252 1 -0.8 20.87 51.522 6.817 0 0 0
2037 6253 1 -0.8 23.401 50.06 10.95 0 0 0
2035 6254 1 -0.8 22.136 50.791 8.883 0 0 0
2038 6255 1 -0.8 24.667 50.791 8.883 0 0 0
2032 6256 1 -0.8 20.87 52.985 8.883 0 0 0
2933 6257 1 -0.8 22.136 49.33 13.017 0 0 0
2937 6258 1 -0.8 23.401 51.522 13.017 0 0 0
2798 6259 1 -0.8 20.87 48.599 15.083 0 0 0
2930 6260 1 -0.8 20.87 50.06 17.15 0 0 0
2934 6261 1 -0.8 22.136 52.252 17.15 0 0 0
3523 6262 1 -0.8 20.87 51.522 19.217 0 0 0
3528 6263 1 -0.8 22.136 50.791 21.283 0 0 0
3531 6264 1 -0.8 24.667 50.791 21.283 0 0 0
3530 6265 1 -0.8 23.401 50.06 23.35 0 0 0
3525 6266 1 -0.8 20.87 52.985 21.283 0 0 0
4807 8831 1 -0.8 52.496 59.561 33.683 0 0 0
4097 6268 1 -0.8 23.401 51.522 25.417 0 0 0
4800 8830 1 -0.8 48.701 58.83 35.75 0 0 0
4802 8829 1 -0.8 49.967 59.561 33.683 0 0 0
4094 6271 1 -0.8 22.136 52.252 29.55 0 0 0
4602 6272 1 -0.8 20.87 51.522 31.617 0 0 0
4607 6273 1 -0.8 22.136 50.791 33.683 0 0 0
4609 6274 1 -0.8 24.667 50.791 33.683 0 0 0
4608 6275 1 -0.8 23.401 50.06 35.75 0 0 0
4604 6276 1 -0.8 20.87 52.985 33.683 0 0 0
5153 6277 1 -0.8 22.136 49.33 37.817 0 0 0
5156 6278 1 -0.8 23.401 51.522 37.817 0 0 0
5099 6279 1 -0.8 20.87 48.599 39.883 0 0 0
5867 6280 1 -0.8 20.87 50.06 41.95 0 0 0
5874 6281 1 -0.8 22.136 52.252 41.95 0 0 0
5869 6282 1 -0.8 20.87 51.522 44.017 0 0 0
5873 6283 1 -0.8 22.136 50.791 46.083 0 0 0
5877 6284 1 -0.8 24.667 50.791 46.083 0 0 0
6941 6285 1 -0.8 23.401 50.06 48.15 0 0 0
5871 6286 1 -0.8 20.87 52.985 46.083 0 0 0
6939 6287 1 -0.8 22.136 49.33 50.217 0 0 0
6943 6288 1 -0.8 23.401 51.522 50.217 0 0 0
6823 6289 1 -0.8 20.87 48.599 52.283 0 0 0
8065 6290 1 -0.8 20.87 50.06 54.35 0 0 0
8072 6291 1 -0.8 22.136 52.252 54.35 0 0 0
8067 6292 1 -0.8 20.87 51.522 56.417 0 0 0
8071 6293 1 -0.8 22.136 50.791 58.483 0 0 0
8075 6294 1 -0.8 24.667 50.791 58.483 0 0 0
8069 6295 1 -0.8 20.87 52.985 58.483 0 0 0
1084 6296 1 -0.8 22.136 53.716 0.617 0 0 0
1088 6297 1 -0.8 23.401 52.985 2.683 0 0 0
1092 6298 1 -0.8 24.667 53.716 0.617 0 0 0
1081 6299 1 -0.8 20.87 54.446 0 0 0 1
1258 6300 1 -0.8 20.87 55.908 0.617 0 0 0
1090 6301 1 -0.8 23.401 54.446 4.75 0 0 0
1091 6302 1 -0.8 24.667 52.252 4.75 0 0 0
1264 6303 1 -0.8 22.136 56.638 4.75 0 0 0
1270 6304 1 -0.8 24.667 56.638 4.75 0 0 0
2150 6305 1 -0.8 23.401 55.908 6.817 0 0 0
2152 6306 1 -0.8 23.401 57.369 8.883 0 0 0
2148 6307 1 -0.8 22.136 55.177 8.883 0 0 0
2155 6308 1 -0.8 24.667 55.177 8.883 0 0 0
2034 6309 1 -0.8 20.87 54.446 10.95 0 0 0
2935 6310 1 -0.8 22.136 53.716 13.017 0 0 0
2939 6311 1 -0.8 23.401 52.985 15.083 0 0 0
2943 6312 1 -0.8 24.667 53.716 13.017 0 0 0
3109 6313 1 -0.8 20.87 55.908 13.017 0 0 0
2941 6314 1 -0.8 23.401 54.446 17.15 0 0 0
2942 6315 1 -0.8 24.667 52.252 17.15 0 0 0
3115 6316 1 -0.8 22.136 56.638 17.15 0 0 0
3121 6317 1 -0.8 24.667 56.638 17.15 0 0 0
3643 6318 1 -0.8 23.401 55.908 19.217 0 0 0
3645 6319 1 -0.8 23.401 57.369 21.283 0 0 0
3641 6320 1 -0.8 22.136 55.177 21.283 0 0 0
3648 6321 1 -0.8 24.667 55.177 21.283 0 0 0
3527 6322 1 -0.8 20.87 54.446 23.35 0 0 0
4095 6323 1 -0.8 22.136 53.716 25.417 0 0 0
4103 6324 1 -0.8 24.667 53.716 25.417 0 0 0
4099 6325 1 -0.8 23.401 52.985 27.483 0 0 0
4233 6326 1 -0.8 20.87 55.908 25.417 0 0 0
4101 6327 1 -0.8 23.401 54.446 29.55 0 0 0
4102 6328 1 -0.8 24.667 52.252 29.55 0 0 0
4238 6329 1 -0.8 22.136 56.638 29.55 0 0 0
4243 6330 1 -0.8 24.667 56.638 29.55 0 0 0
4731 6331 1 -0.8 23.401 55.908 31.617 0 0 0
4733 6332 1 -0.8 23.401 57.369 33.683 0 0 0
4728 6333 1 -0.8 22.136 55.177 33.683 0 0 0
4736 6334 1 -0.8 24.667 55.177 33.683 0 0 0
4606 6335 1 -0.8 20.87 54.446 35.75 0 0 0
5154 6336 1 -0.8 22.136 53.716 37.817 0 0 0
5160 6337 1 -0.8 24.667 53.716 37.817 0 0 0
5158 6338 1 -0.8 23.401 52.985 39.883 0 0 0
5260 6339 1 -0.8 20.87 55.908 37.817 0 0 0
5876 6340 1 -0.8 23.401 54.446 41.95 0 0 0
5878 6341 1 -0.8 24.667 52.252 41.95 0 0 0
6038 6342 1 -0.8 22.136 56.638 41.95 0 0 0
6047 6343 1 -0.8 24.667 56.638 41.95 0 0 0
6042 6344 1 -0.8 23.401 55.908 44.017 0 0 0
6044 6345 1 -0.8 23.401 57.369 46.083 0 0 0
6037 6346 1 -0.8 22.136 55.177 46.083 0 0 0
6046 6347 1 -0.8 24.667 55.177 46.083 0 0 0
6937 6348 1 -0.8 20.87 54.446 48.15 0 0 0
6940 6349 1 -0.8 22.136 53.716 50.217 0 0 0
6947 6350 1 -0.8 24.667 53.716 50.217 0 0 0
6945 6351 1 -0.8 23.401 52.985 52.283 0 0 0
7066 6352 1 -0.8 20.87 55.908 50.217 0 0 0
8074 6353 1 -0.8 23.401 54.446 54.35 0 0 0
8076 6354 1 -0.8 24.667 52.252 54.35 0 0 0
8236 6355 1 -0.8 22.136 56.638 54.35 0 0 0
8245 6356 1 -0.8 24.667 56.638 54.35 0 0 0
8240 6357 1 -0.8 23.401 55.908 56.417 0 0 0
8242 6358 1 -0.8 23.401 57.369 58.483 0 0 0
8235 6359 1 -0.8 22.136 55.177 58.483 0 0 0
8244 6360 1 -0.8 24.667 55.177 58.483 0 0 0
1268 6361 1 -0.8 23.401 58.83 0 0 0 1
1265 6362 1 -0.8 22.136 58.1 0.617 0 0 0
1271 6363 1 -0.8 24.667 58.1 0.617 0 0 0
1260 6364 1 -0.8 20.87 57.369 2.683 0 0 0
1262 6365 1 -0.8 20.87 58.83 4.75 0 0 0
2146 6366 1 -0.8 20.87 60.292 6.817 0 0 0
2154 6367 1 -0.8 23.401 58.83 10.95 0 0 0
2149 6368 1 -0.8 22.136 59.561 8.883 0 0 0
2156 6369 1 -0.8 24.667 59.561 8.883 0 0 0
3116 6370 1 -0.8 22.136 58.1 13.017 0 0 0
3122 6371 1 -0.8 24.667 58.1 13.017 0 0 0
3111 6372 1 -0.8 20.87 57.369 15.083 0 0 0
3113 6373 1 -0.8 20.87 58.83 17.15 0 0 0
3639 6374 1 -0.8 20.87 60.292 19.217 0 0 0
3642 6375 1 -0.8 22.136 59.561 21.283 0 0 0
3649 6376 1 -0.8 24.667 59.561 21.283 0 0 0
3647 6377 1 -0.8 23.401 58.83 23.35 0 0 0
4239 6378 1 -0.8 22.136 58.1 25.417 0 0 0
4244 6379 1 -0.8 24.667 58.1 25.417 0 0 0
4235 6380 1 -0.8 20.87 57.369 27.483 0 0 0
4237 6381 1 -0.8 20.87 58.83 29.55 0 0 0
4726 6382 1 -0.8 20.87 60.292 31.617 0 0 0
4729 6383 1 -0.8 22.136 59.561 33.683 0 0 0
4737 6384 1 -0.8 24.667 59.561 33.683 0 0 0
4735 6385 1 -0.8 23.401 58.83 35.75 0 0 0
5264 6386 1 -0.8 22.136 58.1 37.817 0 0 0
5267 6387 1 -0.8 24.667 58.1 37.817 0 0 0
5262 6388 1 -0.8 20.87 57.369 39.883 0 0 0
6033 6389 1 -0.8 20.87 58.83 41.95 0 0 0
6035 6390 1 -0.8 20.87 60.292 44.017 0 0 0
6039 6391 1 -0.8 22.136 59.561 46.083 0 0 0
6048 6392 1 -0.8 24.667 59.561 46.083 0 0 0
7071 6393 1 -0.8 23.401 58.83 48.15 0 0 0
7070 6394 1 -0.8 22.136 58.1 50.217 0 0 0
7074 6395 1 -0.8 24.667 58.1 50.217 0 0 0
7068 6396 1 -0.8 20.87 57.369 52.283 0 0 0
8231 6397 1 -0.8 20.87 58.83 54.35 0 0 0
8233 6398 1 -0.8 20.87 60.292 56.417 0 0 0
8237 6399 1 -0.8 22.136 59.561 58.483 0 0 0
8246 6400 1 -0.8 24.667 59.561 58.483 0 0 0
91 6401 1 -0.8 25.93 1.826 0 0 0 1
97 6402 1 -0.8 27.196 1.096 0.617 0 0 0
92 6403 1 -0.8 25.93 3.288 0.617 0 0 0
1430 6404 1 -0.8 25.93 1.826 10.95 0 0 0
1431 6405 1 -0.8 27.196 2.557 8.883 0 0 0
1428 6406 1 -0.8 25.93 0.365 8.883 0 0 0
2330 6407 1 -0.8 27.196 1.096 13.017 0 0 0
2325 6408 1 -0.8 25.93 3.288 13.017 0 0 0
3282 6409 1 -0.8 27.196 2.557 21.283 0 0 0
3279 6410 1 -0.8 25.93 0.365 21.283 0 0 0
3281 6411 1 -0.8 25.93 1.826 23.35 0 0 0
3818 6412 1 -0.8 27.196 1.096 25.417 0 0 0
3813 6413 1 -0.8 25.93 3.288 25.417 0 0 0
4395 6414 1 -0.8 27.196 2.557 33.683 0 0 0
4392 6415 1 -0.8 25.93 0.365 33.683 0 0 0
4394 6416 1 -0.8 25.93 1.826 35.75 0 0 0
4899 6417 1 -0.8 27.196 1.096 37.817 0 0 0
4895 6418 1 -0.8 25.93 3.288 37.817 0 0 0
5392 6419 1 -0.8 27.196 2.557 46.083 0 0 0
5389 6420 1 -0.8 25.93 0.365 46.083 0 0 0
6244 6421 1 -0.8 25.93 1.826 48.15 0 0 0
6250 6422 1 -0.8 27.196 1.096 50.217 0 0 0
6246 6423 1 -0.8 25.93 3.288 50.217 0 0 0
7206 6424 1 -0.8 27.196 2.557 58.483 0 0 0
7203 6425 1 -0.8 25.93 0.365 58.483 0 0 0
99 6426 1 -0.8 27.196 5.48 0.617 0 0 0
94 6427 1 -0.8 25.93 4.749 2.683 0 0 0
98 6428 1 -0.8 27.196 4.018 4.75 0 0 0
96 6429 1 -0.8 25.93 6.21 4.75 0 0 0
285 6430 1 -0.8 27.196 8.402 4.75 0 0 0
1553 6431 1 -0.8 25.93 7.672 6.817 0 0 0
1555 6432 1 -0.8 25.93 9.135 8.883 0 0 0
1559 6433 1 -0.8 27.196 6.941 8.883 0 0 0
2332 6434 1 -0.8 27.196 5.48 13.017 0 0 0
2327 6435 1 -0.8 25.93 4.749 15.083 0 0 0
2331 6436 1 -0.8 27.196 4.018 17.15 0 0 0
2329 6437 1 -0.8 25.93 6.21 17.15 0 0 0
2518 6438 1 -0.8 27.196 8.402 17.15 0 0 0
3404 6439 1 -0.8 25.93 7.672 19.217 0 0 0
3406 6440 1 -0.8 25.93 9.135 21.283 0 0 0
3410 6441 1 -0.8 27.196 6.941 21.283 0 0 0
3820 6442 1 -0.8 27.196 5.48 25.417 0 0 0
3815 6443 1 -0.8 25.93 4.749 27.483 0 0 0
3819 6444 1 -0.8 27.196 4.018 29.55 0 0 0
3817 6445 1 -0.8 25.93 6.21 29.55 0 0 0
3982 6446 1 -0.8 27.196 8.402 29.55 0 0 0
4510 6447 1 -0.8 25.93 7.672 31.617 0 0 0
4512 6448 1 -0.8 25.93 9.135 33.683 0 0 0
4515 6449 1 -0.8 27.196 6.941 33.683 0 0 0
4900 6450 1 -0.8 27.196 5.48 37.817 0 0 0
4897 6451 1 -0.8 25.93 4.749 39.883 0 0 0
5393 6452 1 -0.8 27.196 4.018 41.95 0 0 0
5391 6453 1 -0.8 25.93 6.21 41.95 0 0 0
5562 6454 1 -0.8 27.196 8.402 41.95 0 0 0
5556 6455 1 -0.8 25.93 7.672 44.017 0 0 0
5558 6456 1 -0.8 25.93 9.135 46.083 0 0 0
5561 6457 1 -0.8 27.196 6.941 46.083 0 0 0
6251 6458 1 -0.8 27.196 5.48 50.217 0 0 0
6248 6459 1 -0.8 25.93 4.749 52.283 0 0 0
7207 6460 1 -0.8 27.196 4.018 54.35 0 0 0
7205 6461 1 -0.8 25.93 6.21 54.35 0 0 0
7376 6462 1 -0.8 27.196 8.402 54.35 0 0 0
7370 6463 1 -0.8 25.93 7.672 56.417 0 0 0
7372 6464 1 -0.8 25.93 9.135 58.483 0 0 0
7375 6465 1 -0.8 27.196 6.941 58.483 0 0 0
283 6466 1 -0.8 25.93 10.596 0 0 0 1
286 6467 1 -0.8 27.196 9.866 0.617 0 0 0
1557 6468 1 -0.8 25.93 10.596 10.95 0 0 0
2519 6469 1 -0.8 27.196 9.866 13.017 0 0 0
3408 6470 1 -0.8 25.93 10.596 23.35 0 0 0
3983 6471 1 -0.8 27.196 9.866 25.417 0 0 0
4514 6472 1 -0.8 25.93 10.596 35.75 0 0 0
5026 6473 1 -0.8 27.196 9.866 37.817 0 0 0
6394 6474 1 -0.8 25.93 10.596 48.15 0 0 0
6397 6475 1 -0.8 27.196 9.866 50.217 0 0 0
1097 6476 1 -0.8 27.196 52.252 4.75 0 0 0
2039 6477 1 -0.8 25.93 51.522 6.817 0 0 0
2041 6478 1 -0.8 25.93 52.985 8.883 0 0 0
2044 6479 1 -0.8 27.196 50.791 8.883 0 0 0
2948 6480 1 -0.8 27.196 52.252 17.15 0 0 0
3532 6481 1 -0.8 25.93 51.522 19.217 0 0 0
3534 6482 1 -0.8 25.93 52.985 21.283 0 0 0
3537 6483 1 -0.8 27.196 50.791 21.283 0 0 0
4105 6484 1 -0.8 27.196 52.252 29.55 0 0 0
4611 6485 1 -0.8 25.93 51.522 31.617 0 0 0
4613 6486 1 -0.8 25.93 52.985 33.683 0 0 0
4616 6487 1 -0.8 27.196 50.791 33.683 0 0 0
5887 6488 1 -0.8 27.196 52.252 41.95 0 0 0
5880 6489 1 -0.8 25.93 51.522 44.017 0 0 0
5882 6490 1 -0.8 25.93 52.985 46.083 0 0 0
5886 6491 1 -0.8 27.196 50.791 46.083 0 0 0
8085 6492 1 -0.8 27.196 52.252 54.35 0 0 0
8079 6493 1 -0.8 25.93 51.522 56.417 0 0 0
8081 6494 1 -0.8 25.93 52.985 58.483 0 0 0
8084 6495 1 -0.8 27.196 50.791 58.483 0 0 0
1094 6496 1 -0.8 25.93 54.446 0 0 0 1
1098 6497 1 -0.8 27.196 53.716 0.617 0 0 0
1273 6498 1 -0.8 25.93 55.908 0.617 0 0 0
2043 6499 1 -0.8 25.93 54.446 10.95 0 0 0
2159 6500 1 -0.8 27.196 55.177 8.883 0 0 0
2949 6501 1 -0.8 27.196 53.716 13.017 0 0 0
3124 6502 1 -0.8 25.93 55.908 13.017 0 0 0
3652 6503 1 -0.8 27.196 55.177 21.283 0 0 0
3536 6504 1 -0.8 25.93 54.446 23.35 0 0 0
4106 6505 1 -0.8 27.196 53.716 25.417 0 0 0
4246 6506 1 -0.8 25.93 55.908 25.417 0 0 0
4741 6507 1 -0.8 27.196 55.177 33.683 0 0 0
4615 6508 1 -0.8 25.93 54.446 35.75 0 0 0
5162 6509 1 -0.8 27.196 53.716 37.817 0 0 0
5268 6510 1 -0.8 25.93 55.908 37.817 0 0 0
6054 6511 1 -0.8 27.196 55.177 46.083 0 0 0
6948 6512 1 -0.8 25.93 54.446 48.15 0 0 0
6950 6513 1 -0.8 27.196 53.716 50.217 0 0 0
7075 6514 1 -0.8 25.93 55.908 50.217 0 0 0
8252 6515 1 -0.8 27.196 55.177 58.483 0 0 0
1280 6516 1 -0.8 27.196 58.1 0.617 0 0 0
1275 6517 1 -0.8 25.93 57.369 2.683 0 0 0
1279 6518 1 -0.8 27.196 56.638 4.75 0 0 0
1277 6519 1 -0.8 25.93 58.83 4.75 0 0 0
1281 6520 1 -0.8 27.196 61.022 4.75 0 0 0
2157 6521 1 -0.8 25.93 60.292 6.817 0 0 0
2160 6522 1 -0.8 27.196 59.561 8.883 0 0 0
3131 6523 1 -0.8 27.196 58.1 13.017 0 0 0
3126 6524 1 -0.8 25.93 57.369 15.083 0 0 0
3130 6525 1 -0.8 27.196 56.638 17.15 0 0 0
3128 6526 1 -0.8 25.93 58.83 17.15 0 0 0
3132 6527 1 -0.8 27.196 61.022 17.15 0 0 0
3650 6528 1 -0.8 25.93 60.292 19.217 0 0 0
3653 6529 1 -0.8 27.196 59.561 21.283 0 0 0
4252 6530 1 -0.8 27.196 58.1 25.417 0 0 0
4248 6531 1 -0.8 25.93 57.369 27.483 0 0 0
4251 6532 1 -0.8 27.196 56.638 29.55 0 0 0
4250 6533 1 -0.8 25.93 58.83 29.55 0 0 0
4253 6534 1 -0.8 27.196 61.022 29.55 0 0 0
4739 6535 1 -0.8 25.93 60.292 31.617 0 0 0
4742 6536 1 -0.8 27.196 59.561 33.683 0 0 0
5272 6537 1 -0.8 27.196 58.1 37.817 0 0 0
5270 6538 1 -0.8 25.93 57.369 39.883 0 0 0
6055 6539 1 -0.8 27.196 56.638 41.95 0 0 0
6050 6540 1 -0.8 25.93 58.83 41.95 0 0 0
6057 6541 1 -0.8 27.196 61.022 41.95 0 0 0
6052 6542 1 -0.8 25.93 60.292 44.017 0 0 0
6056 6543 1 -0.8 27.196 59.561 46.083 0 0 0
7079 6544 1 -0.8 27.196 58.1 50.217 0 0 0
7077 6545 1 -0.8 25.93 57.369 52.283 0 0 0
8253 6546 1 -0.8 27.196 56.638 54.35 0 0 0
8248 6547 1 -0.8 25.93 58.83 54.35 0 0 0
8255 6548 1 -0.8 27.196 61.022 54.35 0 0 0
8250 6549 1 -0.8 25.93 60.292 56.417 0 0 0
8254 6550 1 -0.8 27.196 59.561 58.483 0 0 0
106 6551 1 -0.8 29.727 1.096 0.617 0 0 0
101 6552 1 -0.8 28.461 0.365 2.683 0 0 0
1284 6553 1 -0.8 28.461 60.292 0.617 0 0 0
109 6554 1 -0.8 30.99 1.826 0 0 0 1
110 6555 1 -0.8 30.99 3.288 0.617 0 0 0
115 6556 1 -0.8 32.256 1.096 0.617 0 0 0
103 6557 1 -0.8 28.461 1.826 4.75 0 0 0
1287 6558 1 -0.8 29.727 61.022 4.75 0 0 0
107 6559 1 -0.8 29.727 4.018 4.75 0 0 0
1432 6560 1 -0.8 28.461 3.288 6.817 0 0 0
1434 6561 1 -0.8 28.461 4.749 8.883 0 0 0
1437 6562 1 -0.8 29.727 2.557 8.883 0 0 0
1440 6563 1 -0.8 30.99 1.826 10.95 0 0 0
1438 6564 1 -0.8 30.99 0.365 8.883 0 0 0
1441 6565 1 -0.8 32.256 2.557 8.883 0 0 0
2339 6566 1 -0.8 29.727 1.096 13.017 0 0 0
2334 6567 1 -0.8 28.461 0.365 15.083 0 0 0
3135 6568 1 -0.8 28.461 60.292 13.017 0 0 0
2343 6569 1 -0.8 30.99 3.288 13.017 0 0 0
2348 6570 1 -0.8 32.256 1.096 13.017 0 0 0
2336 6571 1 -0.8 28.461 1.826 17.15 0 0 0
3138 6572 1 -0.8 29.727 61.022 17.15 0 0 0
2340 6573 1 -0.8 29.727 4.018 17.15 0 0 0
3283 6574 1 -0.8 28.461 3.288 19.217 0 0 0
3285 6575 1 -0.8 28.461 4.749 21.283 0 0 0
3288 6576 1 -0.8 29.727 2.557 21.283 0 0 0
3289 6577 1 -0.8 30.99 0.365 21.283 0 0 0
3292 6578 1 -0.8 32.256 2.557 21.283 0 0 0
3291 6579 1 -0.8 30.99 1.826 23.35 0 0 0
3826 6580 1 -0.8 29.727 1.096 25.417 0 0 0
4255 6581 1 -0.8 28.461 60.292 25.417 0 0 0
3822 6582 1 -0.8 28.461 0.365 27.483 0 0 0
3830 6583 1 -0.8 30.99 3.288 25.417 0 0 0
3835 6584 1 -0.8 32.256 1.096 25.417 0 0 0
3824 6585 1 -0.8 28.461 1.826 29.55 0 0 0
4258 6586 1 -0.8 29.727 61.022 29.55 0 0 0
3827 6587 1 -0.8 29.727 4.018 29.55 0 0 0
4397 6588 1 -0.8 28.461 3.288 31.617 0 0 0
4399 6589 1 -0.8 28.461 4.749 33.683 0 0 0
4402 6590 1 -0.8 29.727 2.557 33.683 0 0 0
4403 6591 1 -0.8 30.99 0.365 33.683 0 0 0
4406 6592 1 -0.8 32.256 2.557 33.683 0 0 0
4405 6593 1 -0.8 30.99 1.826 35.75 0 0 0
4905 6594 1 -0.8 29.727 1.096 37.817 0 0 0
5274 6595 1 -0.8 28.461 60.292 37.817 0 0 0
4902 6596 1 -0.8 28.461 0.365 39.883 0 0 0
4908 6597 1 -0.8 30.99 3.288 37.817 0 0 0
4912 6598 1 -0.8 32.256 1.096 37.817 0 0 0
5394 6599 1 -0.8 28.461 1.826 41.95 0 0 0
6066 6600 1 -0.8 29.727 61.022 41.95 0 0 0
5401 6601 1 -0.8 29.727 4.018 41.95 0 0 0
5396 6602 1 -0.8 28.461 3.288 44.017 0 0 0
5398 6603 1 -0.8 28.461 4.749 46.083 0 0 0
5400 6604 1 -0.8 29.727 2.557 46.083 0 0 0
5402 6605 1 -0.8 30.99 0.365 46.083 0 0 0
5405 6606 1 -0.8 32.256 2.557 46.083 0 0 0
6259 6607 1 -0.8 30.99 1.826 48.15 0 0 0
6257 6608 1 -0.8 29.727 1.096 50.217 0 0 0
7082 6609 1 -0.8 28.461 60.292 50.217 0 0 0
6253 6610 1 -0.8 28.461 0.365 52.283 0 0 0
6261 6611 1 -0.8 30.99 3.288 50.217 0 0 0
6265 6612 1 -0.8 32.256 1.096 50.217 0 0 0
7208 6613 1 -0.8 28.461 1.826 54.35 0 0 0
8264 6614 1 -0.8 29.727 61.022 54.35 0 0 0
7215 6615 1 -0.8 29.727 4.018 54.35 0 0 0
7210 6616 1 -0.8 28.461 3.288 56.417 0 0 0
7212 6617 1 -0.8 28.461 4.749 58.483 0 0 0
7214 6618 1 -0.8 29.727 2.557 58.483 0 0 0
7216 6619 1 -0.8 30.99 0.365 58.483 0 0 0
7219 6620 1 -0.8 32.256 2.557 58.483 0 0 0
105 6621 1 -0.8 28.461 6.21 0 0 0 1
108 6622 1 -0.8 29.727 5.48 0.617 0 0 0
287 6623 1 -0.8 28.461 7.672 0.617 0 0 0
112 6624 1 -0.8 30.99 4.749 2.683 0 0 0
117 6625 1 -0.8 32.256 5.48 0.617 0 0 0
114 6626 1 -0.8 30.99 6.21 4.75 0 0 0
116 6627 1 -0.8 32.256 4.018 4.75 0 0 0
293 6628 1 -0.8 29.727 8.402 4.75 0 0 0
298 6629 1 -0.8 32.256 8.402 4.75 0 0 0
1562 6630 1 -0.8 30.99 7.672 6.817 0 0 0
1436 6631 1 -0.8 28.461 6.21 10.95 0 0 0
1560 6632 1 -0.8 29.727 6.941 8.883 0 0 0
1564 6633 1 -0.8 30.99 9.135 8.883 0 0 0
1568 6634 1 -0.8 32.256 6.941 8.883 0 0 0
2341 6635 1 -0.8 29.727 5.48 13.017 0 0 0
2520 6636 1 -0.8 28.461 7.672 13.017 0 0 0
2345 6637 1 -0.8 30.99 4.749 15.083 0 0 0
2350 6638 1 -0.8 32.256 5.48 13.017 0 0 0
2347 6639 1 -0.8 30.99 6.21 17.15 0 0 0
2349 6640 1 -0.8 32.256 4.018 17.15 0 0 0
2526 6641 1 -0.8 29.727 8.402 17.15 0 0 0
2531 6642 1 -0.8 32.256 8.402 17.15 0 0 0
3414 6643 1 -0.8 30.99 7.672 19.217 0 0 0
3411 6644 1 -0.8 29.727 6.941 21.283 0 0 0
3287 6645 1 -0.8 28.461 6.21 23.35 0 0 0
3416 6646 1 -0.8 30.99 9.135 21.283 0 0 0
3420 6647 1 -0.8 32.256 6.941 21.283 0 0 0
3828 6648 1 -0.8 29.727 5.48 25.417 0 0 0
3984 6649 1 -0.8 28.461 7.672 25.417 0 0 0
3837 6650 1 -0.8 32.256 5.48 25.417 0 0 0
3832 6651 1 -0.8 30.99 4.749 27.483 0 0 0
3834 6652 1 -0.8 30.99 6.21 29.55 0 0 0
3836 6653 1 -0.8 32.256 4.018 29.55 0 0 0
3988 6654 1 -0.8 29.727 8.402 29.55 0 0 0
3991 6655 1 -0.8 32.256 8.402 29.55 0 0 0
4518 6656 1 -0.8 30.99 7.672 31.617 0 0 0
4516 6657 1 -0.8 29.727 6.941 33.683 0 0 0
4401 6658 1 -0.8 28.461 6.21 35.75 0 0 0
4520 6659 1 -0.8 30.99 9.135 33.683 0 0 0
4523 6660 1 -0.8 32.256 6.941 33.683 0 0 0
4906 6661 1 -0.8 29.727 5.48 37.817 0 0 0
5028 6662 1 -0.8 28.461 7.672 37.817 0 0 0
4913 6663 1 -0.8 32.256 5.48 37.817 0 0 0
4910 6664 1 -0.8 30.99 4.749 39.883 0 0 0
5404 6665 1 -0.8 30.99 6.21 41.95 0 0 0
5406 6666 1 -0.8 32.256 4.018 41.95 0 0 0
5564 6667 1 -0.8 29.727 8.402 41.95 0 0 0
5574 6668 1 -0.8 32.256 8.402 41.95 0 0 0
5568 6669 1 -0.8 30.99 7.672 44.017 0 0 0
5563 6670 1 -0.8 29.727 6.941 46.083 0 0 0
6255 6671 1 -0.8 28.461 6.21 48.15 0 0 0
5570 6672 1 -0.8 30.99 9.135 46.083 0 0 0
5573 6673 1 -0.8 32.256 6.941 46.083 0 0 0
6258 6674 1 -0.8 29.727 5.48 50.217 0 0 0
6398 6675 1 -0.8 28.461 7.672 50.217 0 0 0
6266 6676 1 -0.8 32.256 5.48 50.217 0 0 0
6263 6677 1 -0.8 30.99 4.749 52.283 0 0 0
7218 6678 1 -0.8 30.99 6.21 54.35 0 0 0
7220 6679 1 -0.8 32.256 4.018 54.35 0 0 0
7378 6680 1 -0.8 29.727 8.402 54.35 0 0 0
7387 6681 1 -0.8 32.256 8.402 54.35 0 0 0
7381 6682 1 -0.8 30.99 7.672 56.417 0 0 0
7377 6683 1 -0.8 29.727 6.941 58.483 0 0 0
7383 6684 1 -0.8 30.99 9.135 58.483 0 0 0
7386 6685 1 -0.8 32.256 6.941 58.483 0 0 0
294 6686 1 -0.8 29.727 9.866 0.617 0 0 0
289 6687 1 -0.8 28.461 9.135 2.683 0 0 0
297 6688 1 -0.8 30.99 10.596 0 0 0 1
299 6689 1 -0.8 32.256 9.866 0.617 0 0 0
1566 6690 1 -0.8 30.99 10.596 10.95 0 0 0
2527 6691 1 -0.8 29.727 9.866 13.017 0 0 0
2522 6692 1 -0.8 28.461 9.135 15.083 0 0 0
2532 6693 1 -0.8 32.256 9.866 13.017 0 0 0
3418 6694 1 -0.8 30.99 10.596 23.35 0 0 0
3989 6695 1 -0.8 29.727 9.866 25.417 0 0 0
3986 6696 1 -0.8 28.461 9.135 27.483 0 0 0
3992 6697 1 -0.8 32.256 9.866 25.417 0 0 0
4522 6698 1 -0.8 30.99 10.596 35.75 0 0 0
5033 6699 1 -0.8 29.727 9.866 37.817 0 0 0
5030 6700 1 -0.8 28.461 9.135 39.883 0 0 0
5035 6701 1 -0.8 32.256 9.866 37.817 0 0 0
6407 6702 1 -0.8 30.99 10.596 48.15 0 0 0
6404 6703 1 -0.8 29.727 9.866 50.217 0 0 0
6400 6704 1 -0.8 28.461 9.135 52.283 0 0 0
6409 6705 1 -0.8 32.256 9.866 50.217 0 0 0
1099 6706 1 -0.8 28.461 50.06 0 0 0 1
1100 6707 1 -0.8 28.461 51.522 0.617 0 0 0
1106 6708 1 -0.8 29.727 52.252 4.75 0 0 0
1112 6709 1 -0.8 32.256 52.252 4.75 0 0 0
2048 6710 1 -0.8 30.99 51.522 6.817 0 0 0
2046 6711 1 -0.8 28.461 50.06 10.95 0 0 0
2047 6712 1 -0.8 29.727 50.791 8.883 0 0 0
2050 6713 1 -0.8 30.99 52.985 8.883 0 0 0
2053 6714 1 -0.8 32.256 50.791 8.883 0 0 0
2951 6715 1 -0.8 28.461 51.522 13.017 0 0 0
2957 6716 1 -0.8 29.727 52.252 17.15 0 0 0
2963 6717 1 -0.8 32.256 52.252 17.15 0 0 0
3541 6718 1 -0.8 30.99 51.522 19.217 0 0 0
3540 6719 1 -0.8 29.727 50.791 21.283 0 0 0
3539 6720 1 -0.8 28.461 50.06 23.35 0 0 0
3543 6721 1 -0.8 30.99 52.985 21.283 0 0 0
3546 6722 1 -0.8 32.256 50.791 21.283 0 0 0
4108 6723 1 -0.8 28.461 51.522 25.417 0 0 0
4113 6724 1 -0.8 29.727 52.252 29.55 0 0 0
4116 6725 1 -0.8 32.256 52.252 29.55 0 0 0
4620 6726 1 -0.8 30.99 51.522 31.617 0 0 0
4618 6727 1 -0.8 29.727 50.791 33.683 0 0 0
4617 6728 1 -0.8 28.461 50.06 35.75 0 0 0
4622 6729 1 -0.8 30.99 52.985 33.683 0 0 0
4625 6730 1 -0.8 32.256 50.791 33.683 0 0 0
5164 6731 1 -0.8 28.461 51.522 37.817 0 0 0
5891 6732 1 -0.8 29.727 52.252 41.95 0 0 0
5900 6733 1 -0.8 32.256 52.252 41.95 0 0 0
5895 6734 1 -0.8 30.99 51.522 44.017 0 0 0
5890 6735 1 -0.8 29.727 50.791 46.083 0 0 0
6951 6736 1 -0.8 28.461 50.06 48.15 0 0 0
5897 6737 1 -0.8 30.99 52.985 46.083 0 0 0
5899 6738 1 -0.8 32.256 50.791 46.083 0 0 0
6953 6739 1 -0.8 28.461 51.522 50.217 0 0 0
8089 6740 1 -0.8 29.727 52.252 54.35 0 0 0
8098 6741 1 -0.8 32.256 52.252 54.35 0 0 0
8093 6742 1 -0.8 30.99 51.522 56.417 0 0 0
8088 6743 1 -0.8 29.727 50.791 58.483 0 0 0
8095 6744 1 -0.8 30.99 52.985 58.483 0 0 0
8097 6745 1 -0.8 32.256 50.791 58.483 0 0 0
1107 6746 1 -0.8 29.727 53.716 0.617 0 0 0
1102 6747 1 -0.8 28.461 52.985 2.683 0 0 0
1111 6748 1 -0.8 30.99 54.446 0 0 0 1
1288 6749 1 -0.8 30.99 55.908 0.617 0 0 0
1113 6750 1 -0.8 32.256 53.716 0.617 0 0 0
1104 6751 1 -0.8 28.461 54.446 4.75 0 0 0
1285 6752 1 -0.8 29.727 56.638 4.75 0 0 0
2161 6753 1 -0.8 28.461 55.908 6.817 0 0 0
2163 6754 1 -0.8 28.461 57.369 8.883 0 0 0
2166 6755 1 -0.8 29.727 55.177 8.883 0 0 0
2052 6756 1 -0.8 30.99 54.446 10.95 0 0 0
2170 6757 1 -0.8 32.256 55.177 8.883 0 0 0
2958 6758 1 -0.8 29.727 53.716 13.017 0 0 0
2953 6759 1 -0.8 28.461 52.985 15.083 0 0 0
3139 6760 1 -0.8 30.99 55.908 13.017 0 0 0
2964 6761 1 -0.8 32.256 53.716 13.017 0 0 0
2955 6762 1 -0.8 28.461 54.446 17.15 0 0 0
3136 6763 1 -0.8 29.727 56.638 17.15 0 0 0
3654 6764 1 -0.8 28.461 55.908 19.217 0 0 0
3656 6765 1 -0.8 28.461 57.369 21.283 0 0 0
3659 6766 1 -0.8 29.727 55.177 21.283 0 0 0
3663 6767 1 -0.8 32.256 55.177 21.283 0 0 0
3545 6768 1 -0.8 30.99 54.446 23.35 0 0 0
4114 6769 1 -0.8 29.727 53.716 25.417 0 0 0
4110 6770 1 -0.8 28.461 52.985 27.483 0 0 0
4259 6771 1 -0.8 30.99 55.908 25.417 0 0 0
4117 6772 1 -0.8 32.256 53.716 25.417 0 0 0
4112 6773 1 -0.8 28.461 54.446 29.55 0 0 0
4256 6774 1 -0.8 29.727 56.638 29.55 0 0 0
4744 6775 1 -0.8 28.461 55.908 31.617 0 0 0
4746 6776 1 -0.8 28.461 57.369 33.683 0 0 0
4749 6777 1 -0.8 29.727 55.177 33.683 0 0 0
4754 6778 1 -0.8 32.256 55.177 33.683 0 0 0
4624 6779 1 -0.8 30.99 54.446 35.75 0 0 0
5168 6780 1 -0.8 29.727 53.716 37.817 0 0 0
5166 6781 1 -0.8 28.461 52.985 39.883 0 0 0
5276 6782 1 -0.8 30.99 55.908 37.817 0 0 0
5170 6783 1 -0.8 32.256 53.716 37.817 0 0 0
5889 6784 1 -0.8 28.461 54.446 41.95 0 0 0
6064 6785 1 -0.8 29.727 56.638 41.95 0 0 0
6059 6786 1 -0.8 28.461 55.908 44.017 0 0 0
6061 6787 1 -0.8 28.461 57.369 46.083 0 0 0
6063 6788 1 -0.8 29.727 55.177 46.083 0 0 0
6071 6789 1 -0.8 32.256 55.177 46.083 0 0 0
6959 6790 1 -0.8 30.99 54.446 48.15 0 0 0
6958 6791 1 -0.8 29.727 53.716 50.217 0 0 0
6955 6792 1 -0.8 28.461 52.985 52.283 0 0 0
7084 6793 1 -0.8 30.99 55.908 50.217 0 0 0
6961 6794 1 -0.8 32.256 53.716 50.217 0 0 0
8087 6795 1 -0.8 28.461 54.446 54.35 0 0 0
8262 6796 1 -0.8 29.727 56.638 54.35 0 0 0
8257 6797 1 -0.8 28.461 55.908 56.417 0 0 0
8259 6798 1 -0.8 28.461 57.369 58.483 0 0 0
8261 6799 1 -0.8 29.727 55.177 58.483 0 0 0
8269 6800 1 -0.8 32.256 55.177 58.483 0 0 0
1283 6801 1 -0.8 28.461 58.83 0 0 0 1
1286 6802 1 -0.8 29.727 58.1 0.617 0 0 0
1290 6803 1 -0.8 30.99 57.369 2.683 0 0 0
1295 6804 1 -0.8 32.256 58.1 0.617 0 0 0
1292 6805 1 -0.8 30.99 58.83 4.75 0 0 0
1294 6806 1 -0.8 32.256 56.638 4.75 0 0 0
2168 6807 1 -0.8 30.99 60.292 6.817 0 0 0
1296 6808 1 -0.8 32.256 61.022 4.75 0 0 0
2165 6809 1 -0.8 28.461 58.83 10.95 0 0 0
2167 6810 1 -0.8 29.727 59.561 8.883 0 0 0
2171 6811 1 -0.8 32.256 59.561 8.883 0 0 0
3137 6812 1 -0.8 29.727 58.1 13.017 0 0 0
3141 6813 1 -0.8 30.99 57.369 15.083 0 0 0
3146 6814 1 -0.8 32.256 58.1 13.017 0 0 0
3143 6815 1 -0.8 30.99 58.83 17.15 0 0 0
3145 6816 1 -0.8 32.256 56.638 17.15 0 0 0
3661 6817 1 -0.8 30.99 60.292 19.217 0 0 0
3147 6818 1 -0.8 32.256 61.022 17.15 0 0 0
3660 6819 1 -0.8 29.727 59.561 21.283 0 0 0
3658 6820 1 -0.8 28.461 58.83 23.35 0 0 0
3664 6821 1 -0.8 32.256 59.561 21.283 0 0 0
4257 6822 1 -0.8 29.727 58.1 25.417 0 0 0
4265 6823 1 -0.8 32.256 58.1 25.417 0 0 0
4261 6824 1 -0.8 30.99 57.369 27.483 0 0 0
4263 6825 1 -0.8 30.99 58.83 29.55 0 0 0
4264 6826 1 -0.8 32.256 56.638 29.55 0 0 0
4266 6827 1 -0.8 32.256 61.022 29.55 0 0 0
4752 6828 1 -0.8 30.99 60.292 31.617 0 0 0
4750 6829 1 -0.8 29.727 59.561 33.683 0 0 0
4748 6830 1 -0.8 28.461 58.83 35.75 0 0 0
4755 6831 1 -0.8 32.256 59.561 33.683 0 0 0
5275 6832 1 -0.8 29.727 58.1 37.817 0 0 0
5280 6833 1 -0.8 32.256 58.1 37.817 0 0 0
5278 6834 1 -0.8 30.99 57.369 39.883 0 0 0
6067 6835 1 -0.8 30.99 58.83 41.95 0 0 0
6072 6836 1 -0.8 32.256 56.638 41.95 0 0 0
6074 6837 1 -0.8 32.256 61.022 41.95 0 0 0
6069 6838 1 -0.8 30.99 60.292 44.017 0 0 0
6065 6839 1 -0.8 29.727 59.561 46.083 0 0 0
7080 6840 1 -0.8 28.461 58.83 48.15 0 0 0
6073 6841 1 -0.8 32.256 59.561 46.083 0 0 0
7083 6842 1 -0.8 29.727 58.1 50.217 0 0 0
7088 6843 1 -0.8 32.256 58.1 50.217 0 0 0
7086 6844 1 -0.8 30.99 57.369 52.283 0 0 0
8265 6845 1 -0.8 30.99 58.83 54.35 0 0 0
8270 6846 1 -0.8 32.256 56.638 54.35 0 0 0
8272 6847 1 -0.8 32.256 61.022 54.35 0 0 0
8267 6848 1 -0.8 30.99 60.292 56.417 0 0 0
8263 6849 1 -0.8 29.727 59.561 58.483 0 0 0
8271 6850 1 -0.8 32.256 59.561 58.483 0 0 0
124 6851 1 -0.8 34.787 1.096 0.617 0 0 0
119 6852 1 -0.8 33.521 0.365 2.683 0 0 0
1299 6853 1 -0.8 33.521 60.292 0.617 0 0 0
121 6854 1 -0.8 33.521 1.826 4.75 0 0 0
1302 6855 1 -0.8 34.787 61.022 4.75 0 0 0
125 6856 1 -0.8 34.787 4.018 4.75 0 0 0
1442 6857 1 -0.8 33.521 3.288 6.817 0 0 0
1444 6858 1 -0.8 33.521 4.749 8.883 0 0 0
1447 6859 1 -0.8 34.787 2.557 8.883 0 0 0
2357 6860 1 -0.8 34.787 1.096 13.017 0 0 0
2352 6861 1 -0.8 33.521 0.365 15.083 0 0 0
3150 6862 1 -0.8 33.521 60.292 13.017 0 0 0
2354 6863 1 -0.8 33.521 1.826 17.15 0 0 0
3153 6864 1 -0.8 34.787 61.022 17.15 0 0 0
2358 6865 1 -0.8 34.787 4.018 17.15 0 0 0
3293 6866 1 -0.8 33.521 3.288 19.217 0 0 0
3295 6867 1 -0.8 33.521 4.749 21.283 0 0 0
3298 6868 1 -0.8 34.787 2.557 21.283 0 0 0
3843 6869 1 -0.8 34.787 1.096 25.417 0 0 0
4268 6870 1 -0.8 33.521 60.292 25.417 0 0 0
3839 6871 1 -0.8 33.521 0.365 27.483 0 0 0
3841 6872 1 -0.8 33.521 1.826 29.55 0 0 0
4271 6873 1 -0.8 34.787 61.022 29.55 0 0 0
3844 6874 1 -0.8 34.787 4.018 29.55 0 0 0
4408 6875 1 -0.8 33.521 3.288 31.617 0 0 0
4410 6876 1 -0.8 33.521 4.749 33.683 0 0 0
4413 6877 1 -0.8 34.787 2.557 33.683 0 0 0
4918 6878 1 -0.8 34.787 1.096 37.817 0 0 0
5282 6879 1 -0.8 33.521 60.292 37.817 0 0 0
4915 6880 1 -0.8 33.521 0.365 39.883 0 0 0
5407 6881 1 -0.8 33.521 1.826 41.95 0 0 0
6083 6882 1 -0.8 34.787 61.022 41.95 0 0 0
5414 6883 1 -0.8 34.787 4.018 41.95 0 0 0
5409 6884 1 -0.8 33.521 3.288 44.017 0 0 0
5411 6885 1 -0.8 33.521 4.749 46.083 0 0 0
5413 6886 1 -0.8 34.787 2.557 46.083 0 0 0
6272 6887 1 -0.8 34.787 1.096 50.217 0 0 0
7091 6888 1 -0.8 33.521 60.292 50.217 0 0 0
6268 6889 1 -0.8 33.521 0.365 52.283 0 0 0
7221 6890 1 -0.8 33.521 1.826 54.35 0 0 0
8281 6891 1 -0.8 34.787 61.022 54.35 0 0 0
7228 6892 1 -0.8 34.787 4.018 54.35 0 0 0
7223 6893 1 -0.8 33.521 3.288 56.417 0 0 0
7225 6894 1 -0.8 33.521 4.749 58.483 0 0 0
7227 6895 1 -0.8 34.787 2.557 58.483 0 0 0
123 6896 1 -0.8 33.521 6.21 0 0 0 1
126 6897 1 -0.8 34.787 5.48 0.617 0 0 0
302 6898 1 -0.8 33.521 7.672 0.617 0 0 0
1446 6899 1 -0.8 33.521 6.21 10.95 0 0 0
1569 6900 1 -0.8 34.787 6.941 8.883 0 0 0
2359 6901 1 -0.8 34.787 5.48 13.017 0 0 0
2535 6902 1 -0.8 33.521 7.672 13.017 0 0 0
3422 6903 1 -0.8 34.787 6.941 21.283 0 0 0
3297 6904 1 -0.8 33.521 6.21 23.35 0 0 0
3845 6905 1 -0.8 34.787 5.48 25.417 0 0 0
3993 6906 1 -0.8 33.521 7.672 25.417 0 0 0
4524 6907 1 -0.8 34.787 6.941 33.683 0 0 0
4412 6908 1 -0.8 33.521 6.21 35.75 0 0 0
4919 6909 1 -0.8 34.787 5.48 37.817 0 0 0
5038 6910 1 -0.8 33.521 7.672 37.817 0 0 0
5576 6911 1 -0.8 34.787 6.941 46.083 0 0 0
6270 6912 1 -0.8 33.521 6.21 48.15 0 0 0
6273 6913 1 -0.8 34.787 5.48 50.217 0 0 0
6412 6914 1 -0.8 33.521 7.672 50.217 0 0 0
7388 6915 1 -0.8 34.787 6.941 58.483 0 0 0
307 6916 1 -0.8 34.787 9.866 0.617 0 0 0
304 6917 1 -0.8 33.521 9.135 2.683 0 0 0
306 6918 1 -0.8 34.787 8.402 4.75 0 0 0
2540 6919 1 -0.8 34.787 9.866 13.017 0 0 0
2537 6920 1 -0.8 33.521 9.135 15.083 0 0 0
2539 6921 1 -0.8 34.787 8.402 17.15 0 0 0
3998 6922 1 -0.8 34.787 9.866 25.417 0 0 0
3995 6923 1 -0.8 33.521 9.135 27.483 0 0 0
3997 6924 1 -0.8 34.787 8.402 29.55 0 0 0
5042 6925 1 -0.8 34.787 9.866 37.817 0 0 0
5040 6926 1 -0.8 33.521 9.135 39.883 0 0 0
5577 6927 1 -0.8 34.787 8.402 41.95 0 0 0
6416 6928 1 -0.8 34.787 9.866 50.217 0 0 0
6414 6929 1 -0.8 33.521 9.135 52.283 0 0 0
7389 6930 1 -0.8 34.787 8.402 54.35 0 0 0
1114 6931 1 -0.8 33.521 50.06 0 0 0 1
1120 6932 1 -0.8 34.787 49.33 0.617 0 0 0
1115 6933 1 -0.8 33.521 51.522 0.617 0 0 0
2055 6934 1 -0.8 33.521 50.06 10.95 0 0 0
2056 6935 1 -0.8 34.787 50.791 8.883 0 0 0
2971 6936 1 -0.8 34.787 49.33 13.017 0 0 0
2966 6937 1 -0.8 33.521 51.522 13.017 0 0 0
3549 6938 1 -0.8 34.787 50.791 21.283 0 0 0
3548 6939 1 -0.8 33.521 50.06 23.35 0 0 0
4804 8828 1 -0.8 51.23 60.292 31.617 0 0 0
4119 6941 1 -0.8 33.521 51.522 25.417 0 0 0
4627 6942 1 -0.8 34.787 50.791 33.683 0 0 0
4626 6943 1 -0.8 33.521 50.06 35.75 0 0 0
5176 6944 1 -0.8 34.787 49.33 37.817 0 0 0
5172 6945 1 -0.8 33.521 51.522 37.817 0 0 0
5903 6946 1 -0.8 34.787 50.791 46.083 0 0 0
6962 6947 1 -0.8 33.521 50.06 48.15 0 0 0
6968 6948 1 -0.8 34.787 49.33 50.217 0 0 0
6964 6949 1 -0.8 33.521 51.522 50.217 0 0 0
8101 6950 1 -0.8 34.787 50.791 58.483 0 0 0
1122 6951 1 -0.8 34.787 53.716 0.617 0 0 0
1117 6952 1 -0.8 33.521 52.985 2.683 0 0 0
1121 6953 1 -0.8 34.787 52.252 4.75 0 0 0
1119 6954 1 -0.8 33.521 54.446 4.75 0 0 0
1300 6955 1 -0.8 34.787 56.638 4.75 0 0 0
2172 6956 1 -0.8 33.521 55.908 6.817 0 0 0
2174 6957 1 -0.8 33.521 57.369 8.883 0 0 0
2177 6958 1 -0.8 34.787 55.177 8.883 0 0 0
2973 6959 1 -0.8 34.787 53.716 13.017 0 0 0
2968 6960 1 -0.8 33.521 52.985 15.083 0 0 0
2972 6961 1 -0.8 34.787 52.252 17.15 0 0 0
2970 6962 1 -0.8 33.521 54.446 17.15 0 0 0
3151 6963 1 -0.8 34.787 56.638 17.15 0 0 0
3665 6964 1 -0.8 33.521 55.908 19.217 0 0 0
3667 6965 1 -0.8 33.521 57.369 21.283 0 0 0
3670 6966 1 -0.8 34.787 55.177 21.283 0 0 0
4125 6967 1 -0.8 34.787 53.716 25.417 0 0 0
4121 6968 1 -0.8 33.521 52.985 27.483 0 0 0
4124 6969 1 -0.8 34.787 52.252 29.55 0 0 0
4123 6970 1 -0.8 33.521 54.446 29.55 0 0 0
4269 6971 1 -0.8 34.787 56.638 29.55 0 0 0
4757 6972 1 -0.8 33.521 55.908 31.617 0 0 0
4759 6973 1 -0.8 33.521 57.369 33.683 0 0 0
4762 6974 1 -0.8 34.787 55.177 33.683 0 0 0
5177 6975 1 -0.8 34.787 53.716 37.817 0 0 0
5174 6976 1 -0.8 33.521 52.985 39.883 0 0 0
5904 6977 1 -0.8 34.787 52.252 41.95 0 0 0
5902 6978 1 -0.8 33.521 54.446 41.95 0 0 0
6081 6979 1 -0.8 34.787 56.638 41.95 0 0 0
6076 6980 1 -0.8 33.521 55.908 44.017 0 0 0
6078 6981 1 -0.8 33.521 57.369 46.083 0 0 0
6080 6982 1 -0.8 34.787 55.177 46.083 0 0 0
6969 6983 1 -0.8 34.787 53.716 50.217 0 0 0
6966 6984 1 -0.8 33.521 52.985 52.283 0 0 0
8102 6985 1 -0.8 34.787 52.252 54.35 0 0 0
8100 6986 1 -0.8 33.521 54.446 54.35 0 0 0
8279 6987 1 -0.8 34.787 56.638 54.35 0 0 0
8274 6988 1 -0.8 33.521 55.908 56.417 0 0 0
8276 6989 1 -0.8 33.521 57.369 58.483 0 0 0
8278 6990 1 -0.8 34.787 55.177 58.483 0 0 0
1298 6991 1 -0.8 33.521 58.83 0 0 0 1
1301 6992 1 -0.8 34.787 58.1 0.617 0 0 0
2176 6993 1 -0.8 33.521 58.83 10.95 0 0 0
2178 6994 1 -0.8 34.787 59.561 8.883 0 0 0
3152 6995 1 -0.8 34.787 58.1 13.017 0 0 0
3671 6996 1 -0.8 34.787 59.561 21.283 0 0 0
3669 6997 1 -0.8 33.521 58.83 23.35 0 0 0
4270 6998 1 -0.8 34.787 58.1 25.417 0 0 0
4763 6999 1 -0.8 34.787 59.561 33.683 0 0 0
4761 7000 1 -0.8 33.521 58.83 35.75 0 0 0
5283 7001 1 -0.8 34.787 58.1 37.817 0 0 0
6082 7002 1 -0.8 34.787 59.561 46.083 0 0 0
7089 7003 1 -0.8 33.521 58.83 48.15 0 0 0
7092 7004 1 -0.8 34.787 58.1 50.217 0 0 0
8280 7005 1 -0.8 34.787 59.561 58.483 0 0 0
142 7006 1 -0.8 39.847 1.096 0.617 0 0 0
133 7007 1 -0.8 37.316 1.096 0.617 0 0 0
137 7008 1 -0.8 38.581 0.365 2.683 0 0 0
1314 7009 1 -0.8 38.581 60.292 0.617 0 0 0
127 7010 1 -0.8 36.05 1.826 0 0 0 1
128 7011 1 -0.8 36.05 3.288 0.617 0 0 0
139 7012 1 -0.8 38.581 1.826 4.75 0 0 0
1317 7013 1 -0.8 39.847 61.022 4.75 0 0 0
1311 7014 1 -0.8 37.316 61.022 4.75 0 0 0
143 7015 1 -0.8 39.847 4.018 4.75 0 0 0
134 7016 1 -0.8 37.316 4.018 4.75 0 0 0
1452 7017 1 -0.8 38.581 3.288 6.817 0 0 0
1454 7018 1 -0.8 38.581 4.749 8.883 0 0 0
1457 7019 1 -0.8 39.847 2.557 8.883 0 0 0
1451 7020 1 -0.8 37.316 2.557 8.883 0 0 0
1450 7021 1 -0.8 36.05 1.826 10.95 0 0 0
1448 7022 1 -0.8 36.05 0.365 8.883 0 0 0
2375 7023 1 -0.8 39.847 1.096 13.017 0 0 0
2366 7024 1 -0.8 37.316 1.096 13.017 0 0 0
2370 7025 1 -0.8 38.581 0.365 15.083 0 0 0
3165 7026 1 -0.8 38.581 60.292 13.017 0 0 0
2361 7027 1 -0.8 36.05 3.288 13.017 0 0 0
2372 7028 1 -0.8 38.581 1.826 17.15 0 0 0
3168 7029 1 -0.8 39.847 61.022 17.15 0 0 0
3162 7030 1 -0.8 37.316 61.022 17.15 0 0 0
2376 7031 1 -0.8 39.847 4.018 17.15 0 0 0
2367 7032 1 -0.8 37.316 4.018 17.15 0 0 0
3303 7033 1 -0.8 38.581 3.288 19.217 0 0 0
3305 7034 1 -0.8 38.581 4.749 21.283 0 0 0
3308 7035 1 -0.8 39.847 2.557 21.283 0 0 0
3302 7036 1 -0.8 37.316 2.557 21.283 0 0 0
3299 7037 1 -0.8 36.05 0.365 21.283 0 0 0
3301 7038 1 -0.8 36.05 1.826 23.35 0 0 0
3860 7039 1 -0.8 39.847 1.096 25.417 0 0 0
3852 7040 1 -0.8 37.316 1.096 25.417 0 0 0
4281 7041 1 -0.8 38.581 60.292 25.417 0 0 0
3856 7042 1 -0.8 38.581 0.365 27.483 0 0 0
3847 7043 1 -0.8 36.05 3.288 25.417 0 0 0
3858 7044 1 -0.8 38.581 1.826 29.55 0 0 0
4284 7045 1 -0.8 39.847 61.022 29.55 0 0 0
4279 7046 1 -0.8 37.316 61.022 29.55 0 0 0
3861 7047 1 -0.8 39.847 4.018 29.55 0 0 0
3853 7048 1 -0.8 37.316 4.018 29.55 0 0 0
4419 7049 1 -0.8 38.581 3.288 31.617 0 0 0
4421 7050 1 -0.8 38.581 4.749 33.683 0 0 0
4424 7051 1 -0.8 39.847 2.557 33.683 0 0 0
4417 7052 1 -0.8 37.316 2.557 33.683 0 0 0
4414 7053 1 -0.8 36.05 0.365 33.683 0 0 0
4416 7054 1 -0.8 36.05 1.826 35.75 0 0 0
4931 7055 1 -0.8 39.847 1.096 37.817 0 0 0
4925 7056 1 -0.8 37.316 1.096 37.817 0 0 0
5290 7057 1 -0.8 38.581 60.292 37.817 0 0 0
4928 7058 1 -0.8 38.581 0.365 39.883 0 0 0
4921 7059 1 -0.8 36.05 3.288 37.817 0 0 0
5420 7060 1 -0.8 38.581 1.826 41.95 0 0 0
6100 7061 1 -0.8 39.847 61.022 41.95 0 0 0
6091 7062 1 -0.8 37.316 61.022 41.95 0 0 0
5427 7063 1 -0.8 39.847 4.018 41.95 0 0 0
5419 7064 1 -0.8 37.316 4.018 41.95 0 0 0
5422 7065 1 -0.8 38.581 3.288 44.017 0 0 0
5424 7066 1 -0.8 38.581 4.749 46.083 0 0 0
5426 7067 1 -0.8 39.847 2.557 46.083 0 0 0
5418 7068 1 -0.8 37.316 2.557 46.083 0 0 0
5415 7069 1 -0.8 36.05 0.365 46.083 0 0 0
6274 7070 1 -0.8 36.05 1.826 48.15 0 0 0
6287 7071 1 -0.8 39.847 1.096 50.217 0 0 0
6280 7072 1 -0.8 37.316 1.096 50.217 0 0 0
7100 7073 1 -0.8 38.581 60.292 50.217 0 0 0
6283 7074 1 -0.8 38.581 0.365 52.283 0 0 0
6276 7075 1 -0.8 36.05 3.288 50.217 0 0 0
7234 7076 1 -0.8 38.581 1.826 54.35 0 0 0
8298 7077 1 -0.8 39.847 61.022 54.35 0 0 0
8289 7078 1 -0.8 37.316 61.022 54.35 0 0 0
7241 7079 1 -0.8 39.847 4.018 54.35 0 0 0
7233 7080 1 -0.8 37.316 4.018 54.35 0 0 0
7236 7081 1 -0.8 38.581 3.288 56.417 0 0 0
7238 7082 1 -0.8 38.581 4.749 58.483 0 0 0
7240 7083 1 -0.8 39.847 2.557 58.483 0 0 0
7232 7084 1 -0.8 37.316 2.557 58.483 0 0 0
7229 7085 1 -0.8 36.05 0.365 58.483 0 0 0
141 7086 1 -0.8 38.581 6.21 0 0 0 1
144 7087 1 -0.8 39.847 5.48 0.617 0 0 0
135 7088 1 -0.8 37.316 5.48 0.617 0 0 0
313 7089 1 -0.8 38.581 7.672 0.617 0 0 0
130 7090 1 -0.8 36.05 4.749 2.683 0 0 0
132 7091 1 -0.8 36.05 6.21 4.75 0 0 0
311 7092 1 -0.8 37.316 8.402 4.75 0 0 0
1571 7093 1 -0.8 36.05 7.672 6.817 0 0 0
1456 7094 1 -0.8 38.581 6.21 10.95 0 0 0
1580 7095 1 -0.8 39.847 6.941 8.883 0 0 0
1576 7096 1 -0.8 37.316 6.941 8.883 0 0 0
1573 7097 1 -0.8 36.05 9.135 8.883 0 0 0
2377 7098 1 -0.8 39.847 5.48 13.017 0 0 0
2368 7099 1 -0.8 37.316 5.48 13.017 0 0 0
2546 7100 1 -0.8 38.581 7.672 13.017 0 0 0
2363 7101 1 -0.8 36.05 4.749 15.083 0 0 0
2365 7102 1 -0.8 36.05 6.21 17.15 0 0 0
2544 7103 1 -0.8 37.316 8.402 17.15 0 0 0
3424 7104 1 -0.8 36.05 7.672 19.217 0 0 0
3433 7105 1 -0.8 39.847 6.941 21.283 0 0 0
3429 7106 1 -0.8 37.316 6.941 21.283 0 0 0
3307 7107 1 -0.8 38.581 6.21 23.35 0 0 0
3426 7108 1 -0.8 36.05 9.135 21.283 0 0 0
3862 7109 1 -0.8 39.847 5.48 25.417 0 0 0
3854 7110 1 -0.8 37.316 5.48 25.417 0 0 0
4002 7111 1 -0.8 38.581 7.672 25.417 0 0 0
3849 7112 1 -0.8 36.05 4.749 27.483 0 0 0
3851 7113 1 -0.8 36.05 6.21 29.55 0 0 0
4000 7114 1 -0.8 37.316 8.402 29.55 0 0 0
4526 7115 1 -0.8 36.05 7.672 31.617 0 0 0
4532 7116 1 -0.8 39.847 6.941 33.683 0 0 0
4531 7117 1 -0.8 37.316 6.941 33.683 0 0 0
4423 7118 1 -0.8 38.581 6.21 35.75 0 0 0
4528 7119 1 -0.8 36.05 9.135 33.683 0 0 0
4932 7120 1 -0.8 39.847 5.48 37.817 0 0 0
4926 7121 1 -0.8 37.316 5.48 37.817 0 0 0
5045 7122 1 -0.8 38.581 7.672 37.817 0 0 0
4923 7123 1 -0.8 36.05 4.749 39.883 0 0 0
5417 7124 1 -0.8 36.05 6.21 41.95 0 0 0
5585 7125 1 -0.8 37.316 8.402 41.95 0 0 0
5580 7126 1 -0.8 36.05 7.672 44.017 0 0 0
5591 7127 1 -0.8 39.847 6.941 46.083 0 0 0
5584 7128 1 -0.8 37.316 6.941 46.083 0 0 0
6285 7129 1 -0.8 38.581 6.21 48.15 0 0 0
5582 7130 1 -0.8 36.05 9.135 46.083 0 0 0
6288 7131 1 -0.8 39.847 5.48 50.217 0 0 0
6281 7132 1 -0.8 37.316 5.48 50.217 0 0 0
6421 7133 1 -0.8 38.581 7.672 50.217 0 0 0
6278 7134 1 -0.8 36.05 4.749 52.283 0 0 0
7231 7135 1 -0.8 36.05 6.21 54.35 0 0 0
7397 7136 1 -0.8 37.316 8.402 54.35 0 0 0
7392 7137 1 -0.8 36.05 7.672 56.417 0 0 0
7403 7138 1 -0.8 39.847 6.941 58.483 0 0 0
7396 7139 1 -0.8 37.316 6.941 58.483 0 0 0
7394 7140 1 -0.8 36.05 9.135 58.483 0 0 0
320 7141 1 -0.8 39.847 9.866 0.617 0 0 0
312 7142 1 -0.8 37.316 9.866 0.617 0 0 0
315 7143 1 -0.8 38.581 9.135 2.683 0 0 0
310 7144 1 -0.8 36.05 10.596 0 0 0 1
319 7145 1 -0.8 39.847 8.402 4.75 0 0 0
317 7146 1 -0.8 38.581 10.596 4.75 0 0 0
1575 7147 1 -0.8 36.05 10.596 10.95 0 0 0
1577 7148 1 -0.8 37.316 11.327 8.883 0 0 0
2553 7149 1 -0.8 39.847 9.866 13.017 0 0 0
2545 7150 1 -0.8 37.316 9.866 13.017 0 0 0
2548 7151 1 -0.8 38.581 9.135 15.083 0 0 0
2552 7152 1 -0.8 39.847 8.402 17.15 0 0 0
2550 7153 1 -0.8 38.581 10.596 17.15 0 0 0
3430 7154 1 -0.8 37.316 11.327 21.283 0 0 0
3428 7155 1 -0.8 36.05 10.596 23.35 0 0 0
4008 7156 1 -0.8 39.847 9.866 25.417 0 0 0
4001 7157 1 -0.8 37.316 9.866 25.417 0 0 0
4004 7158 1 -0.8 38.581 9.135 27.483 0 0 0
4007 7159 1 -0.8 39.847 8.402 29.55 0 0 0
4006 7160 1 -0.8 38.581 10.596 29.55 0 0 0
4318 8827 1 -0.8 52.496 61.022 29.55 0 0 0
4530 7162 1 -0.8 36.05 10.596 35.75 0 0 0
5049 7163 1 -0.8 39.847 9.866 37.817 0 0 0
5044 7164 1 -0.8 37.316 9.866 37.817 0 0 0
5047 7165 1 -0.8 38.581 9.135 39.883 0 0 0
5592 7166 1 -0.8 39.847 8.402 41.95 0 0 0
5587 7167 1 -0.8 38.581 10.596 41.95 0 0 0
5586 7168 1 -0.8 37.316 11.327 46.083 0 0 0
6418 7169 1 -0.8 36.05 10.596 48.15 0 0 0
6425 7170 1 -0.8 39.847 9.866 50.217 0 0 0
6420 7171 1 -0.8 37.316 9.866 50.217 0 0 0
6423 7172 1 -0.8 38.581 9.135 52.283 0 0 0
7404 7173 1 -0.8 39.847 8.402 54.35 0 0 0
7399 7174 1 -0.8 38.581 10.596 54.35 0 0 0
7398 7175 1 -0.8 37.316 11.327 58.483 0 0 0
452 7176 1 -0.8 39.847 12.788 4.75 0 0 0
1578 7177 1 -0.8 38.581 12.058 6.817 0 0 0
1581 7178 1 -0.8 39.847 11.327 8.883 0 0 0
2667 7179 1 -0.8 39.847 12.788 17.15 0 0 0
3431 7180 1 -0.8 38.581 12.058 19.217 0 0 0
3434 7181 1 -0.8 39.847 11.327 21.283 0 0 0
4316 8826 1 -0.8 52.496 56.638 29.55 0 0 0
4315 8825 1 -0.8 51.23 58.83 29.55 0 0 0
4313 8824 1 -0.8 51.23 57.369 27.483 0 0 0
5698 7185 1 -0.8 39.847 12.788 41.95 0 0 0
5589 7186 1 -0.8 38.581 12.058 44.017 0 0 0
5593 7187 1 -0.8 39.847 11.327 46.083 0 0 0
7533 7188 1 -0.8 39.847 12.788 54.35 0 0 0
7401 7189 1 -0.8 38.581 12.058 56.417 0 0 0
7405 7190 1 -0.8 39.847 11.327 58.483 0 0 0
1129 7191 1 -0.8 38.581 50.06 0 0 0 1
1135 7192 1 -0.8 39.847 49.33 0.617 0 0 0
1126 7193 1 -0.8 37.316 49.33 0.617 0 0 0
1130 7194 1 -0.8 38.581 51.522 0.617 0 0 0
949 7195 1 -0.8 36.05 48.599 2.683 0 0 0
1123 7196 1 -0.8 36.05 50.06 4.75 0 0 0
1127 7197 1 -0.8 37.316 52.252 4.75 0 0 0
2057 7198 1 -0.8 36.05 51.522 6.817 0 0 0
2064 7199 1 -0.8 38.581 50.06 10.95 0 0 0
2065 7200 1 -0.8 39.847 50.791 8.883 0 0 0
2062 7201 1 -0.8 37.316 50.791 8.883 0 0 0
2059 7202 1 -0.8 36.05 52.985 8.883 0 0 0
2986 7203 1 -0.8 39.847 49.33 13.017 0 0 0
2977 7204 1 -0.8 37.316 49.33 13.017 0 0 0
2981 7205 1 -0.8 38.581 51.522 13.017 0 0 0
2816 7206 1 -0.8 36.05 48.599 15.083 0 0 0
2974 7207 1 -0.8 36.05 50.06 17.15 0 0 0
2978 7208 1 -0.8 37.316 52.252 17.15 0 0 0
3550 7209 1 -0.8 36.05 51.522 19.217 0 0 0
3558 7210 1 -0.8 39.847 50.791 21.283 0 0 0
3555 7211 1 -0.8 37.316 50.791 21.283 0 0 0
3557 7212 1 -0.8 38.581 50.06 23.35 0 0 0
3552 7213 1 -0.8 36.05 52.985 21.283 0 0 0
4317 8823 1 -0.8 52.496 58.1 25.417 0 0 0
4309 8822 1 -0.8 49.967 58.1 25.417 0 0 0
4130 7216 1 -0.8 38.581 51.522 25.417 0 0 0
3708 8821 1 -0.8 52.496 59.561 21.283 0 0 0
3702 8820 1 -0.8 48.701 58.83 23.35 0 0 0
4127 7219 1 -0.8 37.316 52.252 29.55 0 0 0
4629 7220 1 -0.8 36.05 51.522 31.617 0 0 0
4636 7221 1 -0.8 39.847 50.791 33.683 0 0 0
4634 7222 1 -0.8 37.316 50.791 33.683 0 0 0
4635 7223 1 -0.8 38.581 50.06 35.75 0 0 0
4631 7224 1 -0.8 36.05 52.985 33.683 0 0 0
5186 7225 1 -0.8 39.847 49.33 37.817 0 0 0
5179 7226 1 -0.8 37.316 49.33 37.817 0 0 0
5182 7227 1 -0.8 38.581 51.522 37.817 0 0 0
5101 7228 1 -0.8 36.05 48.599 39.883 0 0 0
5905 7229 1 -0.8 36.05 50.06 41.95 0 0 0
5912 7230 1 -0.8 37.316 52.252 41.95 0 0 0
5907 7231 1 -0.8 36.05 51.522 44.017 0 0 0
5915 7232 1 -0.8 39.847 50.791 46.083 0 0 0
5911 7233 1 -0.8 37.316 50.791 46.083 0 0 0
6974 7234 1 -0.8 38.581 50.06 48.15 0 0 0
5909 7235 1 -0.8 36.05 52.985 46.083 0 0 0
6980 7236 1 -0.8 39.847 49.33 50.217 0 0 0
6972 7237 1 -0.8 37.316 49.33 50.217 0 0 0
6976 7238 1 -0.8 38.581 51.522 50.217 0 0 0
6841 7239 1 -0.8 36.05 48.599 52.283 0 0 0
8103 7240 1 -0.8 36.05 50.06 54.35 0 0 0
8110 7241 1 -0.8 37.316 52.252 54.35 0 0 0
8105 7242 1 -0.8 36.05 51.522 56.417 0 0 0
8113 7243 1 -0.8 39.847 50.791 58.483 0 0 0
8109 7244 1 -0.8 37.316 50.791 58.483 0 0 0
8107 7245 1 -0.8 36.05 52.985 58.483 0 0 0
1137 7246 1 -0.8 39.847 53.716 0.617 0 0 0
1128 7247 1 -0.8 37.316 53.716 0.617 0 0 0
1132 7248 1 -0.8 38.581 52.985 2.683 0 0 0
1125 7249 1 -0.8 36.05 54.446 0 0 0 1
1303 7250 1 -0.8 36.05 55.908 0.617 0 0 0
1136 7251 1 -0.8 39.847 52.252 4.75 0 0 0
1134 7252 1 -0.8 38.581 54.446 4.75 0 0 0
1315 7253 1 -0.8 39.847 56.638 4.75 0 0 0
1309 7254 1 -0.8 37.316 56.638 4.75 0 0 0
2183 7255 1 -0.8 38.581 55.908 6.817 0 0 0
2185 7256 1 -0.8 38.581 57.369 8.883 0 0 0
2188 7257 1 -0.8 39.847 55.177 8.883 0 0 0
2181 7258 1 -0.8 37.316 55.177 8.883 0 0 0
2061 7259 1 -0.8 36.05 54.446 10.95 0 0 0
2988 7260 1 -0.8 39.847 53.716 13.017 0 0 0
2979 7261 1 -0.8 37.316 53.716 13.017 0 0 0
2983 7262 1 -0.8 38.581 52.985 15.083 0 0 0
3154 7263 1 -0.8 36.05 55.908 13.017 0 0 0
2987 7264 1 -0.8 39.847 52.252 17.15 0 0 0
2985 7265 1 -0.8 38.581 54.446 17.15 0 0 0
3166 7266 1 -0.8 39.847 56.638 17.15 0 0 0
3160 7267 1 -0.8 37.316 56.638 17.15 0 0 0
3676 7268 1 -0.8 38.581 55.908 19.217 0 0 0
3678 7269 1 -0.8 38.581 57.369 21.283 0 0 0
3681 7270 1 -0.8 39.847 55.177 21.283 0 0 0
3674 7271 1 -0.8 37.316 55.177 21.283 0 0 0
3554 7272 1 -0.8 36.05 54.446 23.35 0 0 0
4136 7273 1 -0.8 39.847 53.716 25.417 0 0 0
4128 7274 1 -0.8 37.316 53.716 25.417 0 0 0
4132 7275 1 -0.8 38.581 52.985 27.483 0 0 0
4272 7276 1 -0.8 36.05 55.908 25.417 0 0 0
4135 7277 1 -0.8 39.847 52.252 29.55 0 0 0
4134 7278 1 -0.8 38.581 54.446 29.55 0 0 0
4282 7279 1 -0.8 39.847 56.638 29.55 0 0 0
4277 7280 1 -0.8 37.316 56.638 29.55 0 0 0
4770 7281 1 -0.8 38.581 55.908 31.617 0 0 0
4772 7282 1 -0.8 38.581 57.369 33.683 0 0 0
4775 7283 1 -0.8 39.847 55.177 33.683 0 0 0
4767 7284 1 -0.8 37.316 55.177 33.683 0 0 0
4633 7285 1 -0.8 36.05 54.446 35.75 0 0 0
5187 7286 1 -0.8 39.847 53.716 37.817 0 0 0
5180 7287 1 -0.8 37.316 53.716 37.817 0 0 0
5184 7288 1 -0.8 38.581 52.985 39.883 0 0 0
5284 7289 1 -0.8 36.05 55.908 37.817 0 0 0
5916 7290 1 -0.8 39.847 52.252 41.95 0 0 0
5914 7291 1 -0.8 38.581 54.446 41.95 0 0 0
6098 7292 1 -0.8 39.847 56.638 41.95 0 0 0
6089 7293 1 -0.8 37.316 56.638 41.95 0 0 0
6093 7294 1 -0.8 38.581 55.908 44.017 0 0 0
6095 7295 1 -0.8 38.581 57.369 46.083 0 0 0
6097 7296 1 -0.8 39.847 55.177 46.083 0 0 0
6088 7297 1 -0.8 37.316 55.177 46.083 0 0 0
6970 7298 1 -0.8 36.05 54.446 48.15 0 0 0
6981 7299 1 -0.8 39.847 53.716 50.217 0 0 0
6973 7300 1 -0.8 37.316 53.716 50.217 0 0 0
6978 7301 1 -0.8 38.581 52.985 52.283 0 0 0
7093 7302 1 -0.8 36.05 55.908 50.217 0 0 0
8114 7303 1 -0.8 39.847 52.252 54.35 0 0 0
8112 7304 1 -0.8 38.581 54.446 54.35 0 0 0
8296 7305 1 -0.8 39.847 56.638 54.35 0 0 0
8287 7306 1 -0.8 37.316 56.638 54.35 0 0 0
8291 7307 1 -0.8 38.581 55.908 56.417 0 0 0
8293 7308 1 -0.8 38.581 57.369 58.483 0 0 0
8295 7309 1 -0.8 39.847 55.177 58.483 0 0 0
8286 7310 1 -0.8 37.316 55.177 58.483 0 0 0
1313 7311 1 -0.8 38.581 58.83 0 0 0 1
1316 7312 1 -0.8 39.847 58.1 0.617 0 0 0
1310 7313 1 -0.8 37.316 58.1 0.617 0 0 0
1305 7314 1 -0.8 36.05 57.369 2.683 0 0 0
1307 7315 1 -0.8 36.05 58.83 4.75 0 0 0
2179 7316 1 -0.8 36.05 60.292 6.817 0 0 0
2187 7317 1 -0.8 38.581 58.83 10.95 0 0 0
2189 7318 1 -0.8 39.847 59.561 8.883 0 0 0
2182 7319 1 -0.8 37.316 59.561 8.883 0 0 0
3167 7320 1 -0.8 39.847 58.1 13.017 0 0 0
3161 7321 1 -0.8 37.316 58.1 13.017 0 0 0
3156 7322 1 -0.8 36.05 57.369 15.083 0 0 0
3158 7323 1 -0.8 36.05 58.83 17.15 0 0 0
3672 7324 1 -0.8 36.05 60.292 19.217 0 0 0
3682 7325 1 -0.8 39.847 59.561 21.283 0 0 0
3675 7326 1 -0.8 37.316 59.561 21.283 0 0 0
3680 7327 1 -0.8 38.581 58.83 23.35 0 0 0
4283 7328 1 -0.8 39.847 58.1 25.417 0 0 0
4278 7329 1 -0.8 37.316 58.1 25.417 0 0 0
4274 7330 1 -0.8 36.05 57.369 27.483 0 0 0
4276 7331 1 -0.8 36.05 58.83 29.55 0 0 0
4765 7332 1 -0.8 36.05 60.292 31.617 0 0 0
4776 7333 1 -0.8 39.847 59.561 33.683 0 0 0
4768 7334 1 -0.8 37.316 59.561 33.683 0 0 0
4774 7335 1 -0.8 38.581 58.83 35.75 0 0 0
5291 7336 1 -0.8 39.847 58.1 37.817 0 0 0
5288 7337 1 -0.8 37.316 58.1 37.817 0 0 0
5286 7338 1 -0.8 36.05 57.369 39.883 0 0 0
6084 7339 1 -0.8 36.05 58.83 41.95 0 0 0
6086 7340 1 -0.8 36.05 60.292 44.017 0 0 0
6099 7341 1 -0.8 39.847 59.561 46.083 0 0 0
6090 7342 1 -0.8 37.316 59.561 46.083 0 0 0
7098 7343 1 -0.8 38.581 58.83 48.15 0 0 0
7101 7344 1 -0.8 39.847 58.1 50.217 0 0 0
7097 7345 1 -0.8 37.316 58.1 50.217 0 0 0
7095 7346 1 -0.8 36.05 57.369 52.283 0 0 0
8282 7347 1 -0.8 36.05 58.83 54.35 0 0 0
8284 7348 1 -0.8 36.05 60.292 56.417 0 0 0
8297 7349 1 -0.8 39.847 59.561 58.483 0 0 0
8288 7350 1 -0.8 37.316 59.561 58.483 0 0 0
151 7351 1 -0.8 42.376 1.096 0.617 0 0 0
155 7352 1 -0.8 43.641 0.365 2.683 0 0 0
160 7353 1 -0.8 44.907 1.096 0.617 0 0 0
1329 7354 1 -0.8 43.641 60.292 0.617 0 0 0
145 7355 1 -0.8 41.11 1.826 0 0 0 1
146 7356 1 -0.8 41.11 3.288 0.617 0 0 0
157 7357 1 -0.8 43.641 1.826 4.75 0 0 0
1326 7358 1 -0.8 42.376 61.022 4.75 0 0 0
1332 7359 1 -0.8 44.907 61.022 4.75 0 0 0
152 7360 1 -0.8 42.376 4.018 4.75 0 0 0
161 7361 1 -0.8 44.907 4.018 4.75 0 0 0
1462 7362 1 -0.8 43.641 3.288 6.817 0 0 0
1464 7363 1 -0.8 43.641 4.749 8.883 0 0 0
1461 7364 1 -0.8 42.376 2.557 8.883 0 0 0
1467 7365 1 -0.8 44.907 2.557 8.883 0 0 0
1460 7366 1 -0.8 41.11 1.826 10.95 0 0 0
1458 7367 1 -0.8 41.11 0.365 8.883 0 0 0
2384 7368 1 -0.8 42.376 1.096 13.017 0 0 0
2388 7369 1 -0.8 43.641 0.365 15.083 0 0 0
2393 7370 1 -0.8 44.907 1.096 13.017 0 0 0
3180 7371 1 -0.8 43.641 60.292 13.017 0 0 0
2379 7372 1 -0.8 41.11 3.288 13.017 0 0 0
2390 7373 1 -0.8 43.641 1.826 17.15 0 0 0
3177 7374 1 -0.8 42.376 61.022 17.15 0 0 0
3183 7375 1 -0.8 44.907 61.022 17.15 0 0 0
2385 7376 1 -0.8 42.376 4.018 17.15 0 0 0
2394 7377 1 -0.8 44.907 4.018 17.15 0 0 0
3313 7378 1 -0.8 43.641 3.288 19.217 0 0 0
3315 7379 1 -0.8 43.641 4.749 21.283 0 0 0
3312 7380 1 -0.8 42.376 2.557 21.283 0 0 0
3318 7381 1 -0.8 44.907 2.557 21.283 0 0 0
3309 7382 1 -0.8 41.11 0.365 21.283 0 0 0
3311 7383 1 -0.8 41.11 1.826 23.35 0 0 0
3869 7384 1 -0.8 42.376 1.096 25.417 0 0 0
3877 7385 1 -0.8 44.907 1.096 25.417 0 0 0
4294 7386 1 -0.8 43.641 60.292 25.417 0 0 0
3873 7387 1 -0.8 43.641 0.365 27.483 0 0 0
3864 7388 1 -0.8 41.11 3.288 25.417 0 0 0
3875 7389 1 -0.8 43.641 1.826 29.55 0 0 0
4292 7390 1 -0.8 42.376 61.022 29.55 0 0 0
4297 7391 1 -0.8 44.907 61.022 29.55 0 0 0
3870 7392 1 -0.8 42.376 4.018 29.55 0 0 0
3878 7393 1 -0.8 44.907 4.018 29.55 0 0 0
4430 7394 1 -0.8 43.641 3.288 31.617 0 0 0
4432 7395 1 -0.8 43.641 4.749 33.683 0 0 0
4428 7396 1 -0.8 42.376 2.557 33.683 0 0 0
4435 7397 1 -0.8 44.907 2.557 33.683 0 0 0
4425 7398 1 -0.8 41.11 0.365 33.683 0 0 0
4427 7399 1 -0.8 41.11 1.826 35.75 0 0 0
4938 7400 1 -0.8 42.376 1.096 37.817 0 0 0
4944 7401 1 -0.8 44.907 1.096 37.817 0 0 0
5298 7402 1 -0.8 43.641 60.292 37.817 0 0 0
4941 7403 1 -0.8 43.641 0.365 39.883 0 0 0
4934 7404 1 -0.8 41.11 3.288 37.817 0 0 0
5433 7405 1 -0.8 43.641 1.826 41.95 0 0 0
6108 7406 1 -0.8 42.376 61.022 41.95 0 0 0
6117 7407 1 -0.8 44.907 61.022 41.95 0 0 0
5432 7408 1 -0.8 42.376 4.018 41.95 0 0 0
5440 7409 1 -0.8 44.907 4.018 41.95 0 0 0
5435 7410 1 -0.8 43.641 3.288 44.017 0 0 0
5437 7411 1 -0.8 43.641 4.749 46.083 0 0 0
5431 7412 1 -0.8 42.376 2.557 46.083 0 0 0
5439 7413 1 -0.8 44.907 2.557 46.083 0 0 0
5428 7414 1 -0.8 41.11 0.365 46.083 0 0 0
6289 7415 1 -0.8 41.11 1.826 48.15 0 0 0
6295 7416 1 -0.8 42.376 1.096 50.217 0 0 0
6302 7417 1 -0.8 44.907 1.096 50.217 0 0 0
7109 7418 1 -0.8 43.641 60.292 50.217 0 0 0
6298 7419 1 -0.8 43.641 0.365 52.283 0 0 0
6291 7420 1 -0.8 41.11 3.288 50.217 0 0 0
7247 7421 1 -0.8 43.641 1.826 54.35 0 0 0
8306 7422 1 -0.8 42.376 61.022 54.35 0 0 0
8315 7423 1 -0.8 44.907 61.022 54.35 0 0 0
7246 7424 1 -0.8 42.376 4.018 54.35 0 0 0
7254 7425 1 -0.8 44.907 4.018 54.35 0 0 0
7249 7426 1 -0.8 43.641 3.288 56.417 0 0 0
7251 7427 1 -0.8 43.641 4.749 58.483 0 0 0
7245 7428 1 -0.8 42.376 2.557 58.483 0 0 0
7253 7429 1 -0.8 44.907 2.557 58.483 0 0 0
7242 7430 1 -0.8 41.11 0.365 58.483 0 0 0
159 7431 1 -0.8 43.641 6.21 0 0 0 1
153 7432 1 -0.8 42.376 5.48 0.617 0 0 0
326 7433 1 -0.8 43.641 7.672 0.617 0 0 0
162 7434 1 -0.8 44.907 5.48 0.617 0 0 0
148 7435 1 -0.8 41.11 4.749 2.683 0 0 0
150 7436 1 -0.8 41.11 6.21 4.75 0 0 0
324 7437 1 -0.8 42.376 8.402 4.75 0 0 0
1582 7438 1 -0.8 41.11 7.672 6.817 0 0 0
1466 7439 1 -0.8 43.641 6.21 10.95 0 0 0
1587 7440 1 -0.8 42.376 6.941 8.883 0 0 0
1591 7441 1 -0.8 44.907 6.941 8.883 0 0 0
1584 7442 1 -0.8 41.11 9.135 8.883 0 0 0
2386 7443 1 -0.8 42.376 5.48 13.017 0 0 0
2559 7444 1 -0.8 43.641 7.672 13.017 0 0 0
2395 7445 1 -0.8 44.907 5.48 13.017 0 0 0
2381 7446 1 -0.8 41.11 4.749 15.083 0 0 0
2383 7447 1 -0.8 41.11 6.21 17.15 0 0 0
2557 7448 1 -0.8 42.376 8.402 17.15 0 0 0
3435 7449 1 -0.8 41.11 7.672 19.217 0 0 0
3440 7450 1 -0.8 42.376 6.941 21.283 0 0 0
3444 7451 1 -0.8 44.907 6.941 21.283 0 0 0
3317 7452 1 -0.8 43.641 6.21 23.35 0 0 0
3437 7453 1 -0.8 41.11 9.135 21.283 0 0 0
3871 7454 1 -0.8 42.376 5.48 25.417 0 0 0
4012 7455 1 -0.8 43.641 7.672 25.417 0 0 0
3879 7456 1 -0.8 44.907 5.48 25.417 0 0 0
3866 7457 1 -0.8 41.11 4.749 27.483 0 0 0
3868 7458 1 -0.8 41.11 6.21 29.55 0 0 0
4010 7459 1 -0.8 42.376 8.402 29.55 0 0 0
4534 7460 1 -0.8 41.11 7.672 31.617 0 0 0
4539 7461 1 -0.8 42.376 6.941 33.683 0 0 0
4540 7462 1 -0.8 44.907 6.941 33.683 0 0 0
4434 7463 1 -0.8 43.641 6.21 35.75 0 0 0
4536 7464 1 -0.8 41.11 9.135 33.683 0 0 0
4939 7465 1 -0.8 42.376 5.48 37.817 0 0 0
5053 7466 1 -0.8 43.641 7.672 37.817 0 0 0
4945 7467 1 -0.8 44.907 5.48 37.817 0 0 0
4936 7468 1 -0.8 41.11 4.749 39.883 0 0 0
5430 7469 1 -0.8 41.11 6.21 41.95 0 0 0
5600 7470 1 -0.8 42.376 8.402 41.95 0 0 0
5595 7471 1 -0.8 41.11 7.672 44.017 0 0 0
5599 7472 1 -0.8 42.376 6.941 46.083 0 0 0
5606 7473 1 -0.8 44.907 6.941 46.083 0 0 0
6300 7474 1 -0.8 43.641 6.21 48.15 0 0 0
5597 7475 1 -0.8 41.11 9.135 46.083 0 0 0
6296 7476 1 -0.8 42.376 5.48 50.217 0 0 0
6430 7477 1 -0.8 43.641 7.672 50.217 0 0 0
6303 7478 1 -0.8 44.907 5.48 50.217 0 0 0
6293 7479 1 -0.8 41.11 4.749 52.283 0 0 0
7244 7480 1 -0.8 41.11 6.21 54.35 0 0 0
7412 7481 1 -0.8 42.376 8.402 54.35 0 0 0
7407 7482 1 -0.8 41.11 7.672 56.417 0 0 0
7411 7483 1 -0.8 42.376 6.941 58.483 0 0 0
7418 7484 1 -0.8 44.907 6.941 58.483 0 0 0
7409 7485 1 -0.8 41.11 9.135 58.483 0 0 0
325 7486 1 -0.8 42.376 9.866 0.617 0 0 0
328 7487 1 -0.8 43.641 9.135 2.683 0 0 0
333 7488 1 -0.8 44.907 9.866 0.617 0 0 0
322 7489 1 -0.8 41.11 10.596 0 0 0 1
323 7490 1 -0.8 41.11 12.058 0.617 0 0 0
330 7491 1 -0.8 43.641 10.596 4.75 0 0 0
332 7492 1 -0.8 44.907 8.402 4.75 0 0 0
1586 7493 1 -0.8 41.11 10.596 10.95 0 0 0
1588 7494 1 -0.8 42.376 11.327 8.883 0 0 0
2558 7495 1 -0.8 42.376 9.866 13.017 0 0 0
2561 7496 1 -0.8 43.641 9.135 15.083 0 0 0
2566 7497 1 -0.8 44.907 9.866 13.017 0 0 0
2556 7498 1 -0.8 41.11 12.058 13.017 0 0 0
2563 7499 1 -0.8 43.641 10.596 17.15 0 0 0
2565 7500 1 -0.8 44.907 8.402 17.15 0 0 0
3441 7501 1 -0.8 42.376 11.327 21.283 0 0 0
3439 7502 1 -0.8 41.11 10.596 23.35 0 0 0
4011 7503 1 -0.8 42.376 9.866 25.417 0 0 0
4018 7504 1 -0.8 44.907 9.866 25.417 0 0 0
4014 7505 1 -0.8 43.641 9.135 27.483 0 0 0
3704 8819 1 -0.8 49.967 59.561 21.283 0 0 0
4016 7507 1 -0.8 43.641 10.596 29.55 0 0 0
4017 7508 1 -0.8 44.907 8.402 29.55 0 0 0
3207 8818 1 -0.8 52.496 61.022 17.15 0 0 0
4538 7510 1 -0.8 41.11 10.596 35.75 0 0 0
5052 7511 1 -0.8 42.376 9.866 37.817 0 0 0
5057 7512 1 -0.8 44.907 9.866 37.817 0 0 0
5055 7513 1 -0.8 43.641 9.135 39.883 0 0 0
5051 7514 1 -0.8 41.11 12.058 37.817 0 0 0
5602 7515 1 -0.8 43.641 10.596 41.95 0 0 0
5607 7516 1 -0.8 44.907 8.402 41.95 0 0 0
5601 7517 1 -0.8 42.376 11.327 46.083 0 0 0
6426 7518 1 -0.8 41.11 10.596 48.15 0 0 0
6429 7519 1 -0.8 42.376 9.866 50.217 0 0 0
6434 7520 1 -0.8 44.907 9.866 50.217 0 0 0
6432 7521 1 -0.8 43.641 9.135 52.283 0 0 0
6428 7522 1 -0.8 41.11 12.058 50.217 0 0 0
7414 7523 1 -0.8 43.641 10.596 54.35 0 0 0
7419 7524 1 -0.8 44.907 8.402 54.35 0 0 0
7413 7525 1 -0.8 42.376 11.327 58.483 0 0 0
462 7526 1 -0.8 43.641 14.98 0 0 0 1
460 7527 1 -0.8 42.376 14.25 0.617 0 0 0
465 7528 1 -0.8 44.907 14.25 0.617 0 0 0
456 7529 1 -0.8 41.11 13.519 2.683 0 0 0
459 7530 1 -0.8 42.376 12.788 4.75 0 0 0
1589 7531 1 -0.8 43.641 12.058 6.817 0 0 0
464 7532 1 -0.8 44.907 12.788 4.75 0 0 0
1672 7533 1 -0.8 43.641 14.98 10.95 0 0 0
1670 7534 1 -0.8 43.641 13.519 8.883 0 0 0
1673 7535 1 -0.8 44.907 15.711 8.883 0 0 0
1592 7536 1 -0.8 44.907 11.327 8.883 0 0 0
2675 7537 1 -0.8 42.376 14.25 13.017 0 0 0
2679 7538 1 -0.8 44.907 14.25 13.017 0 0 0
2671 7539 1 -0.8 41.11 13.519 15.083 0 0 0
2674 7540 1 -0.8 42.376 12.788 17.15 0 0 0
3442 7541 1 -0.8 43.641 12.058 19.217 0 0 0
2678 7542 1 -0.8 44.907 12.788 17.15 0 0 0
3705 8817 1 -0.8 51.23 60.292 19.217 0 0 0
3205 8816 1 -0.8 52.496 56.638 17.15 0 0 0
3203 8815 1 -0.8 51.23 58.83 17.15 0 0 0
3445 7546 1 -0.8 44.907 11.327 21.283 0 0 0
3206 8814 1 -0.8 52.496 58.1 13.017 0 0 0
3201 8813 1 -0.8 51.23 57.369 15.083 0 0 0
3197 8812 1 -0.8 49.967 58.1 13.017 0 0 0
2215 8811 1 -0.8 52.496 59.561 8.883 0 0 0
2211 8810 1 -0.8 49.967 59.561 8.883 0 0 0
2209 8809 1 -0.8 48.701 58.83 10.95 0 0 0
1356 8808 1 -0.8 52.496 61.022 4.75 0 0 0
2212 8807 1 -0.8 51.23 60.292 6.817 0 0 0
1354 8806 1 -0.8 52.496 56.638 4.75 0 0 0
1352 8805 1 -0.8 51.23 58.83 4.75 0 0 0
1355 8804 1 -0.8 52.496 58.1 0.617 0 0 0
1350 8803 1 -0.8 51.23 57.369 2.683 0 0 0
1346 8802 1 -0.8 49.967 58.1 0.617 0 0 0
5700 7560 1 -0.8 42.376 12.788 41.95 0 0 0
5704 7561 1 -0.8 44.907 12.788 41.95 0 0 0
5604 7562 1 -0.8 43.641 12.058 44.017 0 0 0
5702 7563 1 -0.8 43.641 13.519 46.083 0 0 0
5705 7564 1 -0.8 44.907 15.711 46.083 0 0 0
6523 7565 1 -0.8 43.641 14.98 48.15 0 0 0
5608 7566 1 -0.8 44.907 11.327 46.083 0 0 0
6521 7567 1 -0.8 42.376 14.25 50.217 0 0 0
6525 7568 1 -0.8 44.907 14.25 50.217 0 0 0
6518 7569 1 -0.8 41.11 13.519 52.283 0 0 0
7535 7570 1 -0.8 42.376 12.788 54.35 0 0 0
7540 7571 1 -0.8 44.907 12.788 54.35 0 0 0
7416 7572 1 -0.8 43.641 12.058 56.417 0 0 0
7537 7573 1 -0.8 43.641 13.519 58.483 0 0 0
7541 7574 1 -0.8 44.907 15.711 58.483 0 0 0
7420 7575 1 -0.8 44.907 11.327 58.483 0 0 0
964 7576 1 -0.8 43.641 44.215 2.683 0 0 0
969 7577 1 -0.8 44.907 44.946 0.617 0 0 0
966 7578 1 -0.8 43.641 45.676 4.75 0 0 0
968 7579 1 -0.8 44.907 43.482 4.75 0 0 0
960 7580 1 -0.8 42.376 47.868 4.75 0 0 0
1966 7581 1 -0.8 43.641 47.138 6.817 0 0 0
970 7582 1 -0.8 44.907 47.868 4.75 0 0 0
1968 7583 1 -0.8 43.641 48.599 8.883 0 0 0
1969 7584 1 -0.8 44.907 46.407 8.883 0 0 0
2830 7585 1 -0.8 43.641 44.215 15.083 0 0 0
2832 7586 1 -0.8 44.907 44.946 13.017 0 0 0
1343 8801 1 -0.8 48.701 58.83 0 0 0 1
8337 8800 1 -0.8 52.496 55.177 58.483 0 0 0
2827 7589 1 -0.8 42.376 47.868 17.15 0 0 0
8329 8799 1 -0.8 49.967 55.177 58.483 0 0 0
2833 7591 1 -0.8 44.907 47.868 17.15 0 0 0
3483 7592 1 -0.8 43.641 48.599 21.283 0 0 0
8327 8798 1 -0.8 48.701 57.369 58.483 0 0 0
8325 8797 1 -0.8 48.701 55.908 56.417 0 0 0
8330 8796 1 -0.8 49.967 56.638 54.35 0 0 0
8136 8795 1 -0.8 48.701 54.446 54.35 0 0 0
7009 8794 1 -0.8 52.496 53.716 50.217 0 0 0
7120 8793 1 -0.8 51.23 55.908 50.217 0 0 0
7002 8792 1 -0.8 48.701 52.985 52.283 0 0 0
7005 8791 1 -0.8 49.967 53.716 50.217 0 0 0
7006 8790 1 -0.8 51.23 54.446 48.15 0 0 0
6139 8789 1 -0.8 52.496 55.177 46.083 0 0 0
6131 8788 1 -0.8 49.967 55.177 46.083 0 0 0
6129 8787 1 -0.8 48.701 57.369 46.083 0 0 0
6127 8786 1 -0.8 48.701 55.908 44.017 0 0 0
6132 8785 1 -0.8 49.967 56.638 41.95 0 0 0
5781 7607 1 -0.8 42.376 47.868 41.95 0 0 0
5788 7608 1 -0.8 44.907 47.868 41.95 0 0 0
5784 7609 1 -0.8 43.641 47.138 44.017 0 0 0
5786 7610 1 -0.8 43.641 48.599 46.083 0 0 0
5787 7611 1 -0.8 44.907 46.407 46.083 0 0 0
6855 7612 1 -0.8 44.907 44.946 50.217 0 0 0
6853 7613 1 -0.8 43.641 44.215 52.283 0 0 0
7970 7614 1 -0.8 43.641 45.676 54.35 0 0 0
7975 7615 1 -0.8 44.907 43.482 54.35 0 0 0
7968 7616 1 -0.8 42.376 47.868 54.35 0 0 0
7977 7617 1 -0.8 44.907 47.868 54.35 0 0 0
7972 7618 1 -0.8 43.641 47.138 56.417 0 0 0
7974 7619 1 -0.8 43.641 48.599 58.483 0 0 0
7976 7620 1 -0.8 44.907 46.407 58.483 0 0 0
1144 7621 1 -0.8 43.641 50.06 0 0 0 1
1141 7622 1 -0.8 42.376 49.33 0.617 0 0 0
1145 7623 1 -0.8 43.641 51.522 0.617 0 0 0
1150 7624 1 -0.8 44.907 49.33 0.617 0 0 0
958 7625 1 -0.8 41.11 48.599 2.683 0 0 0
1138 7626 1 -0.8 41.11 50.06 4.75 0 0 0
1142 7627 1 -0.8 42.376 52.252 4.75 0 0 0
2066 7628 1 -0.8 41.11 51.522 6.817 0 0 0
2073 7629 1 -0.8 43.641 50.06 10.95 0 0 0
2071 7630 1 -0.8 42.376 50.791 8.883 0 0 0
2074 7631 1 -0.8 44.907 50.791 8.883 0 0 0
2068 7632 1 -0.8 41.11 52.985 8.883 0 0 0
2992 7633 1 -0.8 42.376 49.33 13.017 0 0 0
2996 7634 1 -0.8 43.641 51.522 13.017 0 0 0
3001 7635 1 -0.8 44.907 49.33 13.017 0 0 0
2825 7636 1 -0.8 41.11 48.599 15.083 0 0 0
2989 7637 1 -0.8 41.11 50.06 17.15 0 0 0
2993 7638 1 -0.8 42.376 52.252 17.15 0 0 0
3559 7639 1 -0.8 41.11 51.522 19.217 0 0 0
3564 7640 1 -0.8 42.376 50.791 21.283 0 0 0
3567 7641 1 -0.8 44.907 50.791 21.283 0 0 0
3566 7642 1 -0.8 43.641 50.06 23.35 0 0 0
3561 7643 1 -0.8 41.11 52.985 21.283 0 0 0
5938 8784 1 -0.8 48.701 54.446 41.95 0 0 0
4141 7645 1 -0.8 43.641 51.522 25.417 0 0 0
5210 8783 1 -0.8 52.496 53.716 37.817 0 0 0
5308 8782 1 -0.8 51.23 55.908 37.817 0 0 0
5204 8781 1 -0.8 48.701 52.985 39.883 0 0 0
4138 7649 1 -0.8 42.376 52.252 29.55 0 0 0
4638 7650 1 -0.8 41.11 51.522 31.617 0 0 0
4643 7651 1 -0.8 42.376 50.791 33.683 0 0 0
4645 7652 1 -0.8 44.907 50.791 33.683 0 0 0
4644 7653 1 -0.8 43.641 50.06 35.75 0 0 0
4640 7654 1 -0.8 41.11 52.985 33.683 0 0 0
5189 7655 1 -0.8 42.376 49.33 37.817 0 0 0
5192 7656 1 -0.8 43.641 51.522 37.817 0 0 0
5196 7657 1 -0.8 44.907 49.33 37.817 0 0 0
5104 7658 1 -0.8 41.11 48.599 39.883 0 0 0
5917 7659 1 -0.8 41.11 50.06 41.95 0 0 0
5924 7660 1 -0.8 42.376 52.252 41.95 0 0 0
5919 7661 1 -0.8 41.11 51.522 44.017 0 0 0
5923 7662 1 -0.8 42.376 50.791 46.083 0 0 0
5927 7663 1 -0.8 44.907 50.791 46.083 0 0 0
6986 7664 1 -0.8 43.641 50.06 48.15 0 0 0
5921 7665 1 -0.8 41.11 52.985 46.083 0 0 0
6984 7666 1 -0.8 42.376 49.33 50.217 0 0 0
6988 7667 1 -0.8 43.641 51.522 50.217 0 0 0
6992 7668 1 -0.8 44.907 49.33 50.217 0 0 0
6848 7669 1 -0.8 41.11 48.599 52.283 0 0 0
8115 7670 1 -0.8 41.11 50.06 54.35 0 0 0
8122 7671 1 -0.8 42.376 52.252 54.35 0 0 0
8117 7672 1 -0.8 41.11 51.522 56.417 0 0 0
8121 7673 1 -0.8 42.376 50.791 58.483 0 0 0
8125 7674 1 -0.8 44.907 50.791 58.483 0 0 0
8119 7675 1 -0.8 41.11 52.985 58.483 0 0 0
1143 7676 1 -0.8 42.376 53.716 0.617 0 0 0
1147 7677 1 -0.8 43.641 52.985 2.683 0 0 0
1152 7678 1 -0.8 44.907 53.716 0.617 0 0 0
1140 7679 1 -0.8 41.11 54.446 0 0 0 1
1318 7680 1 -0.8 41.11 55.908 0.617 0 0 0
1149 7681 1 -0.8 43.641 54.446 4.75 0 0 0
1151 7682 1 -0.8 44.907 52.252 4.75 0 0 0
1324 7683 1 -0.8 42.376 56.638 4.75 0 0 0
1330 7684 1 -0.8 44.907 56.638 4.75 0 0 0
2194 7685 1 -0.8 43.641 55.908 6.817 0 0 0
2196 7686 1 -0.8 43.641 57.369 8.883 0 0 0
2192 7687 1 -0.8 42.376 55.177 8.883 0 0 0
2199 7688 1 -0.8 44.907 55.177 8.883 0 0 0
2070 7689 1 -0.8 41.11 54.446 10.95 0 0 0
2994 7690 1 -0.8 42.376 53.716 13.017 0 0 0
2998 7691 1 -0.8 43.641 52.985 15.083 0 0 0
3003 7692 1 -0.8 44.907 53.716 13.017 0 0 0
3169 7693 1 -0.8 41.11 55.908 13.017 0 0 0
3000 7694 1 -0.8 43.641 54.446 17.15 0 0 0
3002 7695 1 -0.8 44.907 52.252 17.15 0 0 0
3175 7696 1 -0.8 42.376 56.638 17.15 0 0 0
3181 7697 1 -0.8 44.907 56.638 17.15 0 0 0
3687 7698 1 -0.8 43.641 55.908 19.217 0 0 0
3689 7699 1 -0.8 43.641 57.369 21.283 0 0 0
3685 7700 1 -0.8 42.376 55.177 21.283 0 0 0
3692 7701 1 -0.8 44.907 55.177 21.283 0 0 0
3563 7702 1 -0.8 41.11 54.446 23.35 0 0 0
4139 7703 1 -0.8 42.376 53.716 25.417 0 0 0
4147 7704 1 -0.8 44.907 53.716 25.417 0 0 0
4143 7705 1 -0.8 43.641 52.985 27.483 0 0 0
4285 7706 1 -0.8 41.11 55.908 25.417 0 0 0
4145 7707 1 -0.8 43.641 54.446 29.55 0 0 0
4146 7708 1 -0.8 44.907 52.252 29.55 0 0 0
4290 7709 1 -0.8 42.376 56.638 29.55 0 0 0
4295 7710 1 -0.8 44.907 56.638 29.55 0 0 0
4783 7711 1 -0.8 43.641 55.908 31.617 0 0 0
4785 7712 1 -0.8 43.641 57.369 33.683 0 0 0
4780 7713 1 -0.8 42.376 55.177 33.683 0 0 0
4788 7714 1 -0.8 44.907 55.177 33.683 0 0 0
4642 7715 1 -0.8 41.11 54.446 35.75 0 0 0
5190 7716 1 -0.8 42.376 53.716 37.817 0 0 0
5197 7717 1 -0.8 44.907 53.716 37.817 0 0 0
5194 7718 1 -0.8 43.641 52.985 39.883 0 0 0
5292 7719 1 -0.8 41.11 55.908 37.817 0 0 0
5926 7720 1 -0.8 43.641 54.446 41.95 0 0 0
5928 7721 1 -0.8 44.907 52.252 41.95 0 0 0
6106 7722 1 -0.8 42.376 56.638 41.95 0 0 0
6115 7723 1 -0.8 44.907 56.638 41.95 0 0 0
6110 7724 1 -0.8 43.641 55.908 44.017 0 0 0
6112 7725 1 -0.8 43.641 57.369 46.083 0 0 0
6105 7726 1 -0.8 42.376 55.177 46.083 0 0 0
6114 7727 1 -0.8 44.907 55.177 46.083 0 0 0
6982 7728 1 -0.8 41.11 54.446 48.15 0 0 0
6985 7729 1 -0.8 42.376 53.716 50.217 0 0 0
6993 7730 1 -0.8 44.907 53.716 50.217 0 0 0
6990 7731 1 -0.8 43.641 52.985 52.283 0 0 0
7102 7732 1 -0.8 41.11 55.908 50.217 0 0 0
8124 7733 1 -0.8 43.641 54.446 54.35 0 0 0
8126 7734 1 -0.8 44.907 52.252 54.35 0 0 0
8304 7735 1 -0.8 42.376 56.638 54.35 0 0 0
8313 7736 1 -0.8 44.907 56.638 54.35 0 0 0
8308 7737 1 -0.8 43.641 55.908 56.417 0 0 0
8310 7738 1 -0.8 43.641 57.369 58.483 0 0 0
8303 7739 1 -0.8 42.376 55.177 58.483 0 0 0
8312 7740 1 -0.8 44.907 55.177 58.483 0 0 0
1328 7741 1 -0.8 43.641 58.83 0 0 0 1
1325 7742 1 -0.8 42.376 58.1 0.617 0 0 0
1331 7743 1 -0.8 44.907 58.1 0.617 0 0 0
1320 7744 1 -0.8 41.11 57.369 2.683 0 0 0
1322 7745 1 -0.8 41.11 58.83 4.75 0 0 0
2190 7746 1 -0.8 41.11 60.292 6.817 0 0 0
2198 7747 1 -0.8 43.641 58.83 10.95 0 0 0
2193 7748 1 -0.8 42.376 59.561 8.883 0 0 0
2200 7749 1 -0.8 44.907 59.561 8.883 0 0 0
3176 7750 1 -0.8 42.376 58.1 13.017 0 0 0
3182 7751 1 -0.8 44.907 58.1 13.017 0 0 0
3171 7752 1 -0.8 41.11 57.369 15.083 0 0 0
3173 7753 1 -0.8 41.11 58.83 17.15 0 0 0
3683 7754 1 -0.8 41.11 60.292 19.217 0 0 0
3686 7755 1 -0.8 42.376 59.561 21.283 0 0 0
3693 7756 1 -0.8 44.907 59.561 21.283 0 0 0
3691 7757 1 -0.8 43.641 58.83 23.35 0 0 0
4291 7758 1 -0.8 42.376 58.1 25.417 0 0 0
4296 7759 1 -0.8 44.907 58.1 25.417 0 0 0
4287 7760 1 -0.8 41.11 57.369 27.483 0 0 0
4289 7761 1 -0.8 41.11 58.83 29.55 0 0 0
4778 7762 1 -0.8 41.11 60.292 31.617 0 0 0
4781 7763 1 -0.8 42.376 59.561 33.683 0 0 0
4789 7764 1 -0.8 44.907 59.561 33.683 0 0 0
4787 7765 1 -0.8 43.641 58.83 35.75 0 0 0
5296 7766 1 -0.8 42.376 58.1 37.817 0 0 0
5299 7767 1 -0.8 44.907 58.1 37.817 0 0 0
5294 7768 1 -0.8 41.11 57.369 39.883 0 0 0
6101 7769 1 -0.8 41.11 58.83 41.95 0 0 0
6103 7770 1 -0.8 41.11 60.292 44.017 0 0 0
6107 7771 1 -0.8 42.376 59.561 46.083 0 0 0
6116 7772 1 -0.8 44.907 59.561 46.083 0 0 0
7107 7773 1 -0.8 43.641 58.83 48.15 0 0 0
7106 7774 1 -0.8 42.376 58.1 50.217 0 0 0
7110 7775 1 -0.8 44.907 58.1 50.217 0 0 0
7104 7776 1 -0.8 41.11 57.369 52.283 0 0 0
8299 7777 1 -0.8 41.11 58.83 54.35 0 0 0
8301 7778 1 -0.8 41.11 60.292 56.417 0 0 0
8305 7779 1 -0.8 42.376 59.561 58.483 0 0 0
8314 7780 1 -0.8 44.907 59.561 58.483 0 0 0
163 7781 1 -0.8 46.17 1.826 0 0 0 1
169 7782 1 -0.8 47.436 1.096 0.617 0 0 0
164 7783 1 -0.8 46.17 3.288 0.617 0 0 0
1470 7784 1 -0.8 46.17 1.826 10.95 0 0 0
1471 7785 1 -0.8 47.436 2.557 8.883 0 0 0
1468 7786 1 -0.8 46.17 0.365 8.883 0 0 0
2402 7787 1 -0.8 47.436 1.096 13.017 0 0 0
2397 7788 1 -0.8 46.17 3.288 13.017 0 0 0
3322 7789 1 -0.8 47.436 2.557 21.283 0 0 0
3319 7790 1 -0.8 46.17 0.365 21.283 0 0 0
3321 7791 1 -0.8 46.17 1.826 23.35 0 0 0
3886 7792 1 -0.8 47.436 1.096 25.417 0 0 0
3881 7793 1 -0.8 46.17 3.288 25.417 0 0 0
4439 7794 1 -0.8 47.436 2.557 33.683 0 0 0
4436 7795 1 -0.8 46.17 0.365 33.683 0 0 0
4438 7796 1 -0.8 46.17 1.826 35.75 0 0 0
4951 7797 1 -0.8 47.436 1.096 37.817 0 0 0
4947 7798 1 -0.8 46.17 3.288 37.817 0 0 0
5444 7799 1 -0.8 47.436 2.557 46.083 0 0 0
5441 7800 1 -0.8 46.17 0.365 46.083 0 0 0
6304 7801 1 -0.8 46.17 1.826 48.15 0 0 0
6310 7802 1 -0.8 47.436 1.096 50.217 0 0 0
6306 7803 1 -0.8 46.17 3.288 50.217 0 0 0
7258 7804 1 -0.8 47.436 2.557 58.483 0 0 0
7255 7805 1 -0.8 46.17 0.365 58.483 0 0 0
171 7806 1 -0.8 47.436 5.48 0.617 0 0 0
166 7807 1 -0.8 46.17 4.749 2.683 0 0 0
170 7808 1 -0.8 47.436 4.018 4.75 0 0 0
168 7809 1 -0.8 46.17 6.21 4.75 0 0 0
337 7810 1 -0.8 47.436 8.402 4.75 0 0 0
1593 7811 1 -0.8 46.17 7.672 6.817 0 0 0
1595 7812 1 -0.8 46.17 9.135 8.883 0 0 0
1598 7813 1 -0.8 47.436 6.941 8.883 0 0 0
2404 7814 1 -0.8 47.436 5.48 13.017 0 0 0
2399 7815 1 -0.8 46.17 4.749 15.083 0 0 0
2403 7816 1 -0.8 47.436 4.018 17.15 0 0 0
2401 7817 1 -0.8 46.17 6.21 17.15 0 0 0
2570 7818 1 -0.8 47.436 8.402 17.15 0 0 0
3446 7819 1 -0.8 46.17 7.672 19.217 0 0 0
3448 7820 1 -0.8 46.17 9.135 21.283 0 0 0
3451 7821 1 -0.8 47.436 6.941 21.283 0 0 0
3888 7822 1 -0.8 47.436 5.48 25.417 0 0 0
3883 7823 1 -0.8 46.17 4.749 27.483 0 0 0
3887 7824 1 -0.8 47.436 4.018 29.55 0 0 0
3885 7825 1 -0.8 46.17 6.21 29.55 0 0 0
4020 7826 1 -0.8 47.436 8.402 29.55 0 0 0
4542 7827 1 -0.8 46.17 7.672 31.617 0 0 0
4544 7828 1 -0.8 46.17 9.135 33.683 0 0 0
4547 7829 1 -0.8 47.436 6.941 33.683 0 0 0
4952 7830 1 -0.8 47.436 5.48 37.817 0 0 0
4949 7831 1 -0.8 46.17 4.749 39.883 0 0 0
5445 7832 1 -0.8 47.436 4.018 41.95 0 0 0
5443 7833 1 -0.8 46.17 6.21 41.95 0 0 0
5615 7834 1 -0.8 47.436 8.402 41.95 0 0 0
5610 7835 1 -0.8 46.17 7.672 44.017 0 0 0
5612 7836 1 -0.8 46.17 9.135 46.083 0 0 0
5614 7837 1 -0.8 47.436 6.941 46.083 0 0 0
6311 7838 1 -0.8 47.436 5.48 50.217 0 0 0
6308 7839 1 -0.8 46.17 4.749 52.283 0 0 0
7259 7840 1 -0.8 47.436 4.018 54.35 0 0 0
7257 7841 1 -0.8 46.17 6.21 54.35 0 0 0
7427 7842 1 -0.8 47.436 8.402 54.35 0 0 0
7422 7843 1 -0.8 46.17 7.672 56.417 0 0 0
7424 7844 1 -0.8 46.17 9.135 58.483 0 0 0
7426 7845 1 -0.8 47.436 6.941 58.483 0 0 0
335 7846 1 -0.8 46.17 10.596 0 0 0 1
336 7847 1 -0.8 46.17 12.058 0.617 0 0 0
338 7848 1 -0.8 47.436 9.866 0.617 0 0 0
1597 7849 1 -0.8 46.17 10.596 10.95 0 0 0
1599 7850 1 -0.8 47.436 11.327 8.883 0 0 0
2569 7851 1 -0.8 46.17 12.058 13.017 0 0 0
2571 7852 1 -0.8 47.436 9.866 13.017 0 0 0
3452 7853 1 -0.8 47.436 11.327 21.283 0 0 0
3450 7854 1 -0.8 46.17 10.596 23.35 0 0 0
5207 8780 1 -0.8 49.967 53.716 37.817 0 0 0
4021 7856 1 -0.8 47.436 9.866 25.417 0 0 0
4660 8779 1 -0.8 51.23 54.446 35.75 0 0 0
4546 7858 1 -0.8 46.17 10.596 35.75 0 0 0
5059 7859 1 -0.8 46.17 12.058 37.817 0 0 0
5060 7860 1 -0.8 47.436 9.866 37.817 0 0 0
5616 7861 1 -0.8 47.436 11.327 46.083 0 0 0
6435 7862 1 -0.8 46.17 10.596 48.15 0 0 0
6437 7863 1 -0.8 46.17 12.058 50.217 0 0 0
6438 7864 1 -0.8 47.436 9.866 50.217 0 0 0
7428 7865 1 -0.8 47.436 11.327 58.483 0 0 0
473 7866 1 -0.8 47.436 14.25 0.617 0 0 0
468 7867 1 -0.8 46.17 13.519 2.683 0 0 0
472 7868 1 -0.8 47.436 12.788 4.75 0 0 0
470 7869 1 -0.8 46.17 14.98 4.75 0 0 0
2685 7870 1 -0.8 47.436 14.25 13.017 0 0 0
2681 7871 1 -0.8 46.17 13.519 15.083 0 0 0
2684 7872 1 -0.8 47.436 12.788 17.15 0 0 0
2683 7873 1 -0.8 46.17 14.98 17.15 0 0 0
4806 8778 1 -0.8 52.496 55.177 33.683 0 0 0
4801 8777 1 -0.8 49.967 55.177 33.683 0 0 0
4798 8776 1 -0.8 48.701 57.369 33.683 0 0 0
4796 8775 1 -0.8 48.701 55.908 31.617 0 0 0
4308 8774 1 -0.8 49.967 56.638 29.55 0 0 0
4156 8773 1 -0.8 48.701 54.446 29.55 0 0 0
5708 7880 1 -0.8 47.436 12.788 41.95 0 0 0
4161 8772 1 -0.8 52.496 53.716 25.417 0 0 0
6529 7882 1 -0.8 47.436 14.25 50.217 0 0 0
6527 7883 1 -0.8 46.17 13.519 52.283 0 0 0
7548 7884 1 -0.8 47.436 12.788 54.35 0 0 0
7543 7885 1 -0.8 46.17 14.98 54.35 0 0 0
565 7886 1 -0.8 46.17 19.366 0 0 0 1
569 7887 1 -0.8 47.436 18.636 0.617 0 0 0
474 7888 1 -0.8 47.436 17.172 4.75 0 0 0
1674 7889 1 -0.8 46.17 16.442 6.817 0 0 0
1676 7890 1 -0.8 46.17 17.905 8.883 0 0 0
1677 7891 1 -0.8 47.436 15.711 8.883 0 0 0
1734 7892 1 -0.8 47.436 20.097 8.883 0 0 0
1732 7893 1 -0.8 46.17 19.366 10.95 0 0 0
2726 7894 1 -0.8 47.436 18.636 13.017 0 0 0
4311 8771 1 -0.8 51.23 55.908 25.417 0 0 0
4154 8770 1 -0.8 48.701 52.985 27.483 0 0 0
4158 8769 1 -0.8 49.967 53.716 25.417 0 0 0
3581 8768 1 -0.8 51.23 54.446 23.35 0 0 0
3707 8767 1 -0.8 52.496 55.177 21.283 0 0 0
3703 8766 1 -0.8 49.967 55.177 21.283 0 0 0
3700 8765 1 -0.8 48.701 57.369 21.283 0 0 0
3698 8764 1 -0.8 48.701 55.908 19.217 0 0 0
3196 8763 1 -0.8 49.967 56.638 17.15 0 0 0
3015 8762 1 -0.8 48.701 54.446 17.15 0 0 0
3024 8761 1 -0.8 52.496 53.716 13.017 0 0 0
3199 8760 1 -0.8 51.23 55.908 13.017 0 0 0
3013 8759 1 -0.8 48.701 52.985 15.083 0 0 0
3018 8758 1 -0.8 49.967 53.716 13.017 0 0 0
2214 8757 1 -0.8 52.496 55.177 8.883 0 0 0
2088 8756 1 -0.8 51.23 54.446 10.95 0 0 0
5707 7911 1 -0.8 46.17 17.905 46.083 0 0 0
5709 7912 1 -0.8 47.436 15.711 46.083 0 0 0
2210 8755 1 -0.8 49.967 55.177 8.883 0 0 0
6596 7914 1 -0.8 46.17 19.366 48.15 0 0 0
6599 7915 1 -0.8 47.436 18.636 50.217 0 0 0
7550 7916 1 -0.8 47.436 17.172 54.35 0 0 0
7545 7917 1 -0.8 46.17 16.442 56.417 0 0 0
7547 7918 1 -0.8 46.17 17.905 58.483 0 0 0
7549 7919 1 -0.8 47.436 15.711 58.483 0 0 0
7630 7920 1 -0.8 47.436 20.097 58.483 0 0 0
976 7921 1 -0.8 47.436 43.482 4.75 0 0 0
1883 7922 1 -0.8 46.17 42.752 6.817 0 0 0
1970 7923 1 -0.8 46.17 44.215 8.883 0 0 0
1888 7924 1 -0.8 47.436 42.021 8.883 0 0 0
2207 8754 1 -0.8 48.701 57.369 8.883 0 0 0
2205 8753 1 -0.8 48.701 55.908 6.817 0 0 0
1345 8752 1 -0.8 49.967 56.638 4.75 0 0 0
1164 8751 1 -0.8 48.701 54.446 4.75 0 0 0
1173 8750 1 -0.8 52.496 53.716 0.617 0 0 0
1348 8749 1 -0.8 51.23 55.908 0.617 0 0 0
1170 8748 1 -0.8 51.23 54.446 0 0 0 1
1162 8747 1 -0.8 48.701 52.985 2.683 0 0 0
1167 8746 1 -0.8 49.967 53.716 0.617 0 0 0
8145 8745 1 -0.8 52.496 50.791 58.483 0 0 0
5789 7935 1 -0.8 46.17 44.215 46.083 0 0 0
8143 8744 1 -0.8 51.23 52.985 58.483 0 0 0
7980 7937 1 -0.8 47.436 43.482 54.35 0 0 0
7855 7938 1 -0.8 46.17 42.752 56.417 0 0 0
7978 7939 1 -0.8 46.17 44.215 58.483 0 0 0
7861 7940 1 -0.8 47.436 42.021 58.483 0 0 0
971 7941 1 -0.8 46.17 45.676 0 0 0 1
977 7942 1 -0.8 47.436 44.946 0.617 0 0 0
972 7943 1 -0.8 46.17 47.138 0.617 0 0 0
1972 7944 1 -0.8 46.17 45.676 10.95 0 0 0
1973 7945 1 -0.8 47.436 46.407 8.883 0 0 0
2839 7946 1 -0.8 47.436 44.946 13.017 0 0 0
2835 7947 1 -0.8 46.17 47.138 13.017 0 0 0
8137 8743 1 -0.8 49.967 50.791 58.483 0 0 0
8141 8742 1 -0.8 51.23 51.522 56.417 0 0 0
8146 8741 1 -0.8 52.496 52.252 54.35 0 0 0
8138 8740 1 -0.8 49.967 52.252 54.35 0 0 0
7995 8739 1 -0.8 52.496 47.868 54.35 0 0 0
8139 8738 1 -0.8 51.23 50.06 54.35 0 0 0
6871 8737 1 -0.8 51.23 48.599 52.283 0 0 0
7008 8736 1 -0.8 52.496 49.33 50.217 0 0 0
5791 7956 1 -0.8 47.436 46.407 46.083 0 0 0
6856 7957 1 -0.8 46.17 45.676 48.15 0 0 0
6862 7958 1 -0.8 47.436 44.946 50.217 0 0 0
6858 7959 1 -0.8 46.17 47.138 50.217 0 0 0
7981 7960 1 -0.8 47.436 46.407 58.483 0 0 0
1156 7961 1 -0.8 47.436 49.33 0.617 0 0 0
974 7962 1 -0.8 46.17 48.599 2.683 0 0 0
1153 7963 1 -0.8 46.17 50.06 4.75 0 0 0
978 7964 1 -0.8 47.436 47.868 4.75 0 0 0
1157 7965 1 -0.8 47.436 52.252 4.75 0 0 0
2075 7966 1 -0.8 46.17 51.522 6.817 0 0 0
2077 7967 1 -0.8 46.17 52.985 8.883 0 0 0
2080 7968 1 -0.8 47.436 50.791 8.883 0 0 0
3007 7969 1 -0.8 47.436 49.33 13.017 0 0 0
2837 7970 1 -0.8 46.17 48.599 15.083 0 0 0
3004 7971 1 -0.8 46.17 50.06 17.15 0 0 0
2840 7972 1 -0.8 47.436 47.868 17.15 0 0 0
3008 7973 1 -0.8 47.436 52.252 17.15 0 0 0
3568 7974 1 -0.8 46.17 51.522 19.217 0 0 0
3570 7975 1 -0.8 46.17 52.985 21.283 0 0 0
3573 7976 1 -0.8 47.436 50.791 21.283 0 0 0
7000 8735 1 -0.8 48.701 51.522 50.217 0 0 0
7004 8734 1 -0.8 49.967 49.33 50.217 0 0 0
5947 8733 1 -0.8 52.496 50.791 46.083 0 0 0
5945 8732 1 -0.8 51.23 52.985 46.083 0 0 0
4149 7981 1 -0.8 47.436 52.252 29.55 0 0 0
4647 7982 1 -0.8 46.17 51.522 31.617 0 0 0
4649 7983 1 -0.8 46.17 52.985 33.683 0 0 0
4652 7984 1 -0.8 47.436 50.791 33.683 0 0 0
5199 7985 1 -0.8 47.436 49.33 37.817 0 0 0
5106 7986 1 -0.8 46.17 48.599 39.883 0 0 0
5929 7987 1 -0.8 46.17 50.06 41.95 0 0 0
5792 7988 1 -0.8 47.436 47.868 41.95 0 0 0
5936 7989 1 -0.8 47.436 52.252 41.95 0 0 0
5931 7990 1 -0.8 46.17 51.522 44.017 0 0 0
5933 7991 1 -0.8 46.17 52.985 46.083 0 0 0
5935 7992 1 -0.8 47.436 50.791 46.083 0 0 0
6996 7993 1 -0.8 47.436 49.33 50.217 0 0 0
6860 7994 1 -0.8 46.17 48.599 52.283 0 0 0
8127 7995 1 -0.8 46.17 50.06 54.35 0 0 0
7982 7996 1 -0.8 47.436 47.868 54.35 0 0 0
8134 7997 1 -0.8 47.436 52.252 54.35 0 0 0
8129 7998 1 -0.8 46.17 51.522 56.417 0 0 0
8131 7999 1 -0.8 46.17 52.985 58.483 0 0 0
8133 8000 1 -0.8 47.436 50.791 58.483 0 0 0
1155 8001 1 -0.8 46.17 54.446 0 0 0 1
1158 8002 1 -0.8 47.436 53.716 0.617 0 0 0
1333 8003 1 -0.8 46.17 55.908 0.617 0 0 0
2079 8004 1 -0.8 46.17 54.446 10.95 0 0 0
2203 8005 1 -0.8 47.436 55.177 8.883 0 0 0
3009 8006 1 -0.8 47.436 53.716 13.017 0 0 0
3184 8007 1 -0.8 46.17 55.908 13.017 0 0 0
3696 8008 1 -0.8 47.436 55.177 21.283 0 0 0
3572 8009 1 -0.8 46.17 54.446 23.35 0 0 0
4150 8010 1 -0.8 47.436 53.716 25.417 0 0 0
4298 8011 1 -0.8 46.17 55.908 25.417 0 0 0
4793 8012 1 -0.8 47.436 55.177 33.683 0 0 0
4651 8013 1 -0.8 46.17 54.446 35.75 0 0 0
5200 8014 1 -0.8 47.436 53.716 37.817 0 0 0
5300 8015 1 -0.8 46.17 55.908 37.817 0 0 0
6122 8016 1 -0.8 47.436 55.177 46.083 0 0 0
6994 8017 1 -0.8 46.17 54.446 48.15 0 0 0
6997 8018 1 -0.8 47.436 53.716 50.217 0 0 0
7111 8019 1 -0.8 46.17 55.908 50.217 0 0 0
8320 8020 1 -0.8 47.436 55.177 58.483 0 0 0
1340 8021 1 -0.8 47.436 58.1 0.617 0 0 0
1335 8022 1 -0.8 46.17 57.369 2.683 0 0 0
1339 8023 1 -0.8 47.436 56.638 4.75 0 0 0
1337 8024 1 -0.8 46.17 58.83 4.75 0 0 0
1341 8025 1 -0.8 47.436 61.022 4.75 0 0 0
2201 8026 1 -0.8 46.17 60.292 6.817 0 0 0
2204 8027 1 -0.8 47.436 59.561 8.883 0 0 0
3191 8028 1 -0.8 47.436 58.1 13.017 0 0 0
3186 8029 1 -0.8 46.17 57.369 15.083 0 0 0
3190 8030 1 -0.8 47.436 56.638 17.15 0 0 0
3188 8031 1 -0.8 46.17 58.83 17.15 0 0 0
3192 8032 1 -0.8 47.436 61.022 17.15 0 0 0
3694 8033 1 -0.8 46.17 60.292 19.217 0 0 0
3697 8034 1 -0.8 47.436 59.561 21.283 0 0 0
4304 8035 1 -0.8 47.436 58.1 25.417 0 0 0
4300 8036 1 -0.8 46.17 57.369 27.483 0 0 0
4303 8037 1 -0.8 47.436 56.638 29.55 0 0 0
4302 8038 1 -0.8 46.17 58.83 29.55 0 0 0
4305 8039 1 -0.8 47.436 61.022 29.55 0 0 0
4791 8040 1 -0.8 46.17 60.292 31.617 0 0 0
4794 8041 1 -0.8 47.436 59.561 33.683 0 0 0
5304 8042 1 -0.8 47.436 58.1 37.817 0 0 0
5302 8043 1 -0.8 46.17 57.369 39.883 0 0 0
6123 8044 1 -0.8 47.436 56.638 41.95 0 0 0
6118 8045 1 -0.8 46.17 58.83 41.95 0 0 0
6125 8046 1 -0.8 47.436 61.022 41.95 0 0 0
6120 8047 1 -0.8 46.17 60.292 44.017 0 0 0
6124 8048 1 -0.8 47.436 59.561 46.083 0 0 0
7115 8049 1 -0.8 47.436 58.1 50.217 0 0 0
7113 8050 1 -0.8 46.17 57.369 52.283 0 0 0
8321 8051 1 -0.8 47.436 56.638 54.35 0 0 0
8316 8052 1 -0.8 46.17 58.83 54.35 0 0 0
8323 8053 1 -0.8 47.436 61.022 54.35 0 0 0
8318 8054 1 -0.8 46.17 60.292 56.417 0 0 0
8322 8055 1 -0.8 47.436 59.561 58.483 0 0 0
178 8056 1 -0.8 49.967 1.096 0.617 0 0 0
173 8057 1 -0.8 48.701 0.365 2.683 0 0 0
1344 8058 1 -0.8 48.701 60.292 0.617 0 0 0
181 8059 1 -0.8 51.23 1.826 0 0 0 1
182 8060 1 -0.8 51.23 3.288 0.617 0 0 0
187 8061 1 -0.8 52.496 1.096 0.617 0 0 0
175 8062 1 -0.8 48.701 1.826 4.75 0 0 0
1347 8063 1 -0.8 49.967 61.022 4.75 0 0 0
179 8064 1 -0.8 49.967 4.018 4.75 0 0 0
1472 8065 1 -0.8 48.701 3.288 6.817 0 0 0
1474 8066 1 -0.8 48.701 4.749 8.883 0 0 0
1477 8067 1 -0.8 49.967 2.557 8.883 0 0 0
1480 8068 1 -0.8 51.23 1.826 10.95 0 0 0
1478 8069 1 -0.8 51.23 0.365 8.883 0 0 0
1481 8070 1 -0.8 52.496 2.557 8.883 0 0 0
2411 8071 1 -0.8 49.967 1.096 13.017 0 0 0
2406 8072 1 -0.8 48.701 0.365 15.083 0 0 0
3195 8073 1 -0.8 48.701 60.292 13.017 0 0 0
2415 8074 1 -0.8 51.23 3.288 13.017 0 0 0
2420 8075 1 -0.8 52.496 1.096 13.017 0 0 0
2408 8076 1 -0.8 48.701 1.826 17.15 0 0 0
3198 8077 1 -0.8 49.967 61.022 17.15 0 0 0
2412 8078 1 -0.8 49.967 4.018 17.15 0 0 0
3323 8079 1 -0.8 48.701 3.288 19.217 0 0 0
3325 8080 1 -0.8 48.701 4.749 21.283 0 0 0
3328 8081 1 -0.8 49.967 2.557 21.283 0 0 0
3329 8082 1 -0.8 51.23 0.365 21.283 0 0 0
3332 8083 1 -0.8 52.496 2.557 21.283 0 0 0
3331 8084 1 -0.8 51.23 1.826 23.35 0 0 0
3894 8085 1 -0.8 49.967 1.096 25.417 0 0 0
4307 8086 1 -0.8 48.701 60.292 25.417 0 0 0
3890 8087 1 -0.8 48.701 0.365 27.483 0 0 0
3898 8088 1 -0.8 51.23 3.288 25.417 0 0 0
3903 8089 1 -0.8 52.496 1.096 25.417 0 0 0
3892 8090 1 -0.8 48.701 1.826 29.55 0 0 0
4310 8091 1 -0.8 49.967 61.022 29.55 0 0 0
3895 8092 1 -0.8 49.967 4.018 29.55 0 0 0
4441 8093 1 -0.8 48.701 3.288 31.617 0 0 0
4443 8094 1 -0.8 48.701 4.749 33.683 0 0 0
4446 8095 1 -0.8 49.967 2.557 33.683 0 0 0
4447 8096 1 -0.8 51.23 0.365 33.683 0 0 0
4450 8097 1 -0.8 52.496 2.557 33.683 0 0 0
4449 8098 1 -0.8 51.23 1.826 35.75 0 0 0
4957 8099 1 -0.8 49.967 1.096 37.817 0 0 0
5306 8100 1 -0.8 48.701 60.292 37.817 0 0 0
4954 8101 1 -0.8 48.701 0.365 39.883 0 0 0
4960 8102 1 -0.8 51.23 3.288 37.817 0 0 0
4964 8103 1 -0.8 52.496 1.096 37.817 0 0 0
5446 8104 1 -0.8 48.701 1.826 41.95 0 0 0
6134 8105 1 -0.8 49.967 61.022 41.95 0 0 0
5453 8106 1 -0.8 49.967 4.018 41.95 0 0 0
5448 8107 1 -0.8 48.701 3.288 44.017 0 0 0
5450 8108 1 -0.8 48.701 4.749 46.083 0 0 0
5452 8109 1 -0.8 49.967 2.557 46.083 0 0 0
5454 8110 1 -0.8 51.23 0.365 46.083 0 0 0
5457 8111 1 -0.8 52.496 2.557 46.083 0 0 0
6319 8112 1 -0.8 51.23 1.826 48.15 0 0 0
6317 8113 1 -0.8 49.967 1.096 50.217 0 0 0
7118 8114 1 -0.8 48.701 60.292 50.217 0 0 0
6313 8115 1 -0.8 48.701 0.365 52.283 0 0 0
6321 8116 1 -0.8 51.23 3.288 50.217 0 0 0
6325 8117 1 -0.8 52.496 1.096 50.217 0 0 0
7260 8118 1 -0.8 48.701 1.826 54.35 0 0 0
8332 8119 1 -0.8 49.967 61.022 54.35 0 0 0
7267 8120 1 -0.8 49.967 4.018 54.35 0 0 0
7262 8121 1 -0.8 48.701 3.288 56.417 0 0 0
7264 8122 1 -0.8 48.701 4.749 58.483 0 0 0
7266 8123 1 -0.8 49.967 2.557 58.483 0 0 0
7268 8124 1 -0.8 51.23 0.365 58.483 0 0 0
7271 8125 1 -0.8 52.496 2.557 58.483 0 0 0
177 8126 1 -0.8 48.701 6.21 0 0 0 1
180 8127 1 -0.8 49.967 5.48 0.617 0 0 0
339 8128 1 -0.8 48.701 7.672 0.617 0 0 0
184 8129 1 -0.8 51.23 4.749 2.683 0 0 0
189 8130 1 -0.8 52.496 5.48 0.617 0 0 0
186 8131 1 -0.8 51.23 6.21 4.75 0 0 0
188 8132 1 -0.8 52.496 4.018 4.75 0 0 0
345 8133 1 -0.8 49.967 8.402 4.75 0 0 0
350 8134 1 -0.8 52.496 8.402 4.75 0 0 0
1604 8135 1 -0.8 51.23 7.672 6.817 0 0 0
1476 8136 1 -0.8 48.701 6.21 10.95 0 0 0
1602 8137 1 -0.8 49.967 6.941 8.883 0 0 0
1606 8138 1 -0.8 51.23 9.135 8.883 0 0 0
1609 8139 1 -0.8 52.496 6.941 8.883 0 0 0
2413 8140 1 -0.8 49.967 5.48 13.017 0 0 0
2572 8141 1 -0.8 48.701 7.672 13.017 0 0 0
2417 8142 1 -0.8 51.23 4.749 15.083 0 0 0
2422 8143 1 -0.8 52.496 5.48 13.017 0 0 0
2419 8144 1 -0.8 51.23 6.21 17.15 0 0 0
2421 8145 1 -0.8 52.496 4.018 17.15 0 0 0
2578 8146 1 -0.8 49.967 8.402 17.15 0 0 0
2583 8147 1 -0.8 52.496 8.402 17.15 0 0 0
3457 8148 1 -0.8 51.23 7.672 19.217 0 0 0
3455 8149 1 -0.8 49.967 6.941 21.283 0 0 0
3327 8150 1 -0.8 48.701 6.21 23.35 0 0 0
3459 8151 1 -0.8 51.23 9.135 21.283 0 0 0
3462 8152 1 -0.8 52.496 6.941 21.283 0 0 0
3896 8153 1 -0.8 49.967 5.48 25.417 0 0 0
4022 8154 1 -0.8 48.701 7.672 25.417 0 0 0
3905 8155 1 -0.8 52.496 5.48 25.417 0 0 0
3900 8156 1 -0.8 51.23 4.749 27.483 0 0 0
3902 8157 1 -0.8 51.23 6.21 29.55 0 0 0
3904 8158 1 -0.8 52.496 4.018 29.55 0 0 0
4027 8159 1 -0.8 49.967 8.402 29.55 0 0 0
4030 8160 1 -0.8 52.496 8.402 29.55 0 0 0
4550 8161 1 -0.8 51.23 7.672 31.617 0 0 0
4548 8162 1 -0.8 49.967 6.941 33.683 0 0 0
4445 8163 1 -0.8 48.701 6.21 35.75 0 0 0
4552 8164 1 -0.8 51.23 9.135 33.683 0 0 0
4555 8165 1 -0.8 52.496 6.941 33.683 0 0 0
4958 8166 1 -0.8 49.967 5.48 37.817 0 0 0
5061 8167 1 -0.8 48.701 7.672 37.817 0 0 0
4965 8168 1 -0.8 52.496 5.48 37.817 0 0 0
4962 8169 1 -0.8 51.23 4.749 39.883 0 0 0
5456 8170 1 -0.8 51.23 6.21 41.95 0 0 0
5458 8171 1 -0.8 52.496 4.018 41.95 0 0 0
5622 8172 1 -0.8 49.967 8.402 41.95 0 0 0
5630 8173 1 -0.8 52.496 8.402 41.95 0 0 0
5625 8174 1 -0.8 51.23 7.672 44.017 0 0 0
5621 8175 1 -0.8 49.967 6.941 46.083 0 0 0
6315 8176 1 -0.8 48.701 6.21 48.15 0 0 0
5627 8177 1 -0.8 51.23 9.135 46.083 0 0 0
5629 8178 1 -0.8 52.496 6.941 46.083 0 0 0
6318 8179 1 -0.8 49.967 5.48 50.217 0 0 0
6439 8180 1 -0.8 48.701 7.672 50.217 0 0 0
6326 8181 1 -0.8 52.496 5.48 50.217 0 0 0
6323 8182 1 -0.8 51.23 4.749 52.283 0 0 0
7270 8183 1 -0.8 51.23 6.21 54.35 0 0 0
7272 8184 1 -0.8 52.496 4.018 54.35 0 0 0
7434 8185 1 -0.8 49.967 8.402 54.35 0 0 0
7442 8186 1 -0.8 52.496 8.402 54.35 0 0 0
7437 8187 1 -0.8 51.23 7.672 56.417 0 0 0
7433 8188 1 -0.8 49.967 6.941 58.483 0 0 0
7439 8189 1 -0.8 51.23 9.135 58.483 0 0 0
7441 8190 1 -0.8 52.496 6.941 58.483 0 0 0
346 8191 1 -0.8 49.967 9.866 0.617 0 0 0
341 8192 1 -0.8 48.701 9.135 2.683 0 0 0
348 8193 1 -0.8 51.23 10.596 0 0 0 1
349 8194 1 -0.8 51.23 12.058 0.617 0 0 0
351 8195 1 -0.8 52.496 9.866 0.617 0 0 0
343 8196 1 -0.8 48.701 10.596 4.75 0 0 0
1603 8197 1 -0.8 49.967 11.327 8.883 0 0 0
1608 8198 1 -0.8 51.23 10.596 10.95 0 0 0
1610 8199 1 -0.8 52.496 11.327 8.883 0 0 0
2579 8200 1 -0.8 49.967 9.866 13.017 0 0 0
2574 8201 1 -0.8 48.701 9.135 15.083 0 0 0
2582 8202 1 -0.8 51.23 12.058 13.017 0 0 0
2584 8203 1 -0.8 52.496 9.866 13.017 0 0 0
2576 8204 1 -0.8 48.701 10.596 17.15 0 0 0
3456 8205 1 -0.8 49.967 11.327 21.283 0 0 0
3463 8206 1 -0.8 52.496 11.327 21.283 0 0 0
3461 8207 1 -0.8 51.23 10.596 23.35 0 0 0
4028 8208 1 -0.8 49.967 9.866 25.417 0 0 0
4024 8209 1 -0.8 48.701 9.135 27.483 0 0 0
6998 8731 1 -0.8 48.701 50.06 48.15 0 0 0
4031 8211 1 -0.8 52.496 9.866 25.417 0 0 0
4026 8212 1 -0.8 48.701 10.596 29.55 0 0 0
5939 8730 1 -0.8 49.967 50.791 46.083 0 0 0
5943 8729 1 -0.8 51.23 51.522 44.017 0 0 0
4554 8215 1 -0.8 51.23 10.596 35.75 0 0 0
5065 8216 1 -0.8 49.967 9.866 37.817 0 0 0
5063 8217 1 -0.8 48.701 9.135 39.883 0 0 0
5067 8218 1 -0.8 51.23 12.058 37.817 0 0 0
5068 8219 1 -0.8 52.496 9.866 37.817 0 0 0
5617 8220 1 -0.8 48.701 10.596 41.95 0 0 0
5623 8221 1 -0.8 49.967 11.327 46.083 0 0 0
5631 8222 1 -0.8 52.496 11.327 46.083 0 0 0
6444 8223 1 -0.8 51.23 10.596 48.15 0 0 0
6443 8224 1 -0.8 49.967 9.866 50.217 0 0 0
6441 8225 1 -0.8 48.701 9.135 52.283 0 0 0
6446 8226 1 -0.8 51.23 12.058 50.217 0 0 0
6447 8227 1 -0.8 52.496 9.866 50.217 0 0 0
7429 8228 1 -0.8 48.701 10.596 54.35 0 0 0
7435 8229 1 -0.8 49.967 11.327 58.483 0 0 0
7443 8230 1 -0.8 52.496 11.327 58.483 0 0 0
475 8231 1 -0.8 48.701 14.98 0 0 0 1
476 8232 1 -0.8 48.701 16.442 0.617 0 0 0
481 8233 1 -0.8 49.967 14.25 0.617 0 0 0
484 8234 1 -0.8 51.23 13.519 2.683 0 0 0
489 8235 1 -0.8 52.496 14.25 0.617 0 0 0
480 8236 1 -0.8 49.967 12.788 4.75 0 0 0
1600 8237 1 -0.8 48.701 12.058 6.817 0 0 0
486 8238 1 -0.8 51.23 14.98 4.75 0 0 0
488 8239 1 -0.8 52.496 12.788 4.75 0 0 0
1680 8240 1 -0.8 48.701 14.98 10.95 0 0 0
1678 8241 1 -0.8 48.701 13.519 8.883 0 0 0
1681 8242 1 -0.8 49.967 15.711 8.883 0 0 0
2687 8243 1 -0.8 48.701 16.442 13.017 0 0 0
2690 8244 1 -0.8 49.967 14.25 13.017 0 0 0
2692 8245 1 -0.8 51.23 13.519 15.083 0 0 0
2696 8246 1 -0.8 52.496 14.25 13.017 0 0 0
2689 8247 1 -0.8 49.967 12.788 17.15 0 0 0
3453 8248 1 -0.8 48.701 12.058 19.217 0 0 0
2694 8249 1 -0.8 51.23 14.98 17.15 0 0 0
2695 8250 1 -0.8 52.496 12.788 17.15 0 0 0
5948 8728 1 -0.8 52.496 52.252 41.95 0 0 0
5940 8727 1 -0.8 49.967 52.252 41.95 0 0 0
5802 8726 1 -0.8 52.496 47.868 41.95 0 0 0
5941 8725 1 -0.8 51.23 50.06 41.95 0 0 0
5108 8724 1 -0.8 51.23 48.599 39.883 0 0 0
5209 8723 1 -0.8 52.496 49.33 37.817 0 0 0
5202 8722 1 -0.8 48.701 51.522 37.817 0 0 0
5206 8721 1 -0.8 49.967 49.33 37.817 0 0 0
4661 8720 1 -0.8 52.496 50.791 33.683 0 0 0
4658 8719 1 -0.8 51.23 52.985 33.683 0 0 0
4653 8718 1 -0.8 48.701 50.06 35.75 0 0 0
4654 8717 1 -0.8 49.967 50.791 33.683 0 0 0
4656 8716 1 -0.8 51.23 51.522 31.617 0 0 0
4160 8715 1 -0.8 52.496 52.252 29.55 0 0 0
4157 8714 1 -0.8 49.967 52.252 29.55 0 0 0
4152 8709 1 -0.8 48.701 51.522 25.417 0 0 0
3582 8707 1 -0.8 52.496 50.791 21.283 0 0 0
3579 8706 1 -0.8 51.23 52.985 21.283 0 0 0
5712 8269 1 -0.8 49.967 12.788 41.95 0 0 0
5619 8270 1 -0.8 48.701 12.058 44.017 0 0 0
3575 8705 1 -0.8 48.701 50.06 23.35 0 0 0
5716 8272 1 -0.8 52.496 12.788 41.95 0 0 0
5710 8273 1 -0.8 48.701 13.519 46.083 0 0 0
5713 8274 1 -0.8 49.967 15.711 46.083 0 0 0
6530 8275 1 -0.8 48.701 14.98 48.15 0 0 0
6532 8276 1 -0.8 48.701 16.442 50.217 0 0 0
6536 8277 1 -0.8 49.967 14.25 50.217 0 0 0
6540 8278 1 -0.8 52.496 14.25 50.217 0 0 0
6538 8279 1 -0.8 51.23 13.519 52.283 0 0 0
7553 8280 1 -0.8 49.967 12.788 54.35 0 0 0
7431 8281 1 -0.8 48.701 12.058 56.417 0 0 0
7556 8282 1 -0.8 51.23 14.98 54.35 0 0 0
7561 8283 1 -0.8 52.496 12.788 54.35 0 0 0
7551 8284 1 -0.8 48.701 13.519 58.483 0 0 0
7554 8285 1 -0.8 49.967 15.711 58.483 0 0 0
573 8286 1 -0.8 49.967 18.636 0.617 0 0 0
478 8287 1 -0.8 48.701 17.905 2.683 0 0 0
576 8288 1 -0.8 51.23 19.366 0 0 0 1
577 8289 1 -0.8 51.23 20.828 0.617 0 0 0
582 8290 1 -0.8 52.496 18.636 0.617 0 0 0
482 8291 1 -0.8 49.967 17.172 4.75 0 0 0
1682 8292 1 -0.8 51.23 16.442 6.817 0 0 0
490 8293 1 -0.8 52.496 17.172 4.75 0 0 0
570 8294 1 -0.8 48.701 19.366 4.75 0 0 0
1684 8295 1 -0.8 51.23 17.905 8.883 0 0 0
1685 8296 1 -0.8 52.496 15.711 8.883 0 0 0
1740 8297 1 -0.8 49.967 20.097 8.883 0 0 0
1744 8298 1 -0.8 52.496 20.097 8.883 0 0 0
1743 8299 1 -0.8 51.23 19.366 10.95 0 0 0
2727 8300 1 -0.8 49.967 18.636 13.017 0 0 0
3576 8704 1 -0.8 49.967 50.791 21.283 0 0 0
3577 8703 1 -0.8 51.23 51.522 19.217 0 0 0
2729 8303 1 -0.8 52.496 18.636 13.017 0 0 0
3023 8702 1 -0.8 52.496 52.252 17.15 0 0 0
3017 8701 1 -0.8 49.967 52.252 17.15 0 0 0
2852 8700 1 -0.8 52.496 47.868 17.15 0 0 0
3019 8699 1 -0.8 51.23 50.06 17.15 0 0 0
3022 8698 1 -0.8 52.496 49.33 13.017 0 0 0
2849 8697 1 -0.8 51.23 48.599 15.083 0 0 0
3011 8696 1 -0.8 48.701 51.522 13.017 0 0 0
3016 8695 1 -0.8 49.967 49.33 13.017 0 0 0
2089 8694 1 -0.8 52.496 50.791 8.883 0 0 0
2086 8693 1 -0.8 51.23 52.985 8.883 0 0 0
2083 8692 1 -0.8 49.967 50.791 8.883 0 0 0
2082 8691 1 -0.8 48.701 50.06 10.95 0 0 0
2084 8690 1 -0.8 51.23 51.522 6.817 0 0 0
1172 8689 1 -0.8 52.496 52.252 4.75 0 0 0
1166 8688 1 -0.8 49.967 52.252 4.75 0 0 0
994 8687 1 -0.8 52.496 47.868 4.75 0 0 0
1168 8686 1 -0.8 51.23 50.06 4.75 0 0 0
1171 8685 1 -0.8 52.496 49.33 0.617 0 0 0
990 8684 1 -0.8 51.23 48.599 2.683 0 0 0
1160 8683 1 -0.8 48.701 51.522 0.617 0 0 0
1165 8682 1 -0.8 49.967 49.33 0.617 0 0 0
1159 8681 1 -0.8 48.701 50.06 0 0 0 1
7994 8680 1 -0.8 52.496 46.407 58.483 0 0 0
7989 8679 1 -0.8 49.967 46.407 58.483 0 0 0
7987 8678 1 -0.8 48.701 48.599 58.483 0 0 0
7985 8677 1 -0.8 48.701 47.138 56.417 0 0 0
7990 8676 1 -0.8 49.967 47.868 54.35 0 0 0
7983 8675 1 -0.8 48.701 45.676 54.35 0 0 0
6873 8674 1 -0.8 52.496 44.946 50.217 0 0 0
6869 8673 1 -0.8 51.23 47.138 50.217 0 0 0
5715 8334 1 -0.8 51.23 17.905 46.083 0 0 0
5717 8335 1 -0.8 52.496 15.711 46.083 0 0 0
6864 8672 1 -0.8 48.701 44.215 52.283 0 0 0
6866 8671 1 -0.8 49.967 44.946 50.217 0 0 0
6603 8338 1 -0.8 51.23 19.366 48.15 0 0 0
6601 8339 1 -0.8 49.967 18.636 50.217 0 0 0
6534 8340 1 -0.8 48.701 17.905 52.283 0 0 0
6605 8341 1 -0.8 51.23 20.828 50.217 0 0 0
6609 8342 1 -0.8 52.496 18.636 50.217 0 0 0
7555 8343 1 -0.8 49.967 17.172 54.35 0 0 0
7563 8344 1 -0.8 52.496 17.172 54.35 0 0 0
7558 8345 1 -0.8 51.23 16.442 56.417 0 0 0
7631 8346 1 -0.8 48.701 19.366 54.35 0 0 0
7560 8347 1 -0.8 51.23 17.905 58.483 0 0 0
7562 8348 1 -0.8 52.496 15.711 58.483 0 0 0
7637 8349 1 -0.8 49.967 20.097 58.483 0 0 0
7642 8350 1 -0.8 52.496 20.097 58.483 0 0 0
572 8351 1 -0.8 48.701 23.75 0 0 0 1
650 8352 1 -0.8 48.701 25.212 0.617 0 0 0
575 8353 1 -0.8 49.967 23.02 0.617 0 0 0
579 8354 1 -0.8 51.23 22.289 2.683 0 0 0
584 8355 1 -0.8 52.496 23.02 0.617 0 0 0
574 8356 1 -0.8 49.967 21.558 4.75 0 0 0
1735 8357 1 -0.8 48.701 20.828 6.817 0 0 0
581 8358 1 -0.8 51.23 23.75 4.75 0 0 0
583 8359 1 -0.8 52.496 21.558 4.75 0 0 0
1741 8360 1 -0.8 49.967 24.481 8.883 0 0 0
1739 8361 1 -0.8 48.701 23.75 10.95 0 0 0
1737 8362 1 -0.8 48.701 22.289 8.883 0 0 0
6867 8670 1 -0.8 51.23 45.676 48.15 0 0 0
5801 8669 1 -0.8 52.496 46.407 46.083 0 0 0
5797 8668 1 -0.8 49.967 46.407 46.083 0 0 0
5796 8667 1 -0.8 48.701 48.599 46.083 0 0 0

Velocities

10 0 0 0
1830 0 0 0
12 0 0 0
14 0 0 0
1383 0 0 0
1379 0 0 0
2243 0 0 0
2234 0 0 0
2245 0 0 0
2247 0 0 0
3234 0 0 0
3230 0 0 0
3736 0 0 0
3727 0 0 0
3738 0 0 0
4341 0 0 0
4343 0 0 0
4338 0 0 0
4836 0 0 0
4829 0 0 0
4838 0 0 0
5330 0 0 0
5332 0 0 0
5325 0 0 0
6177 0 0 0
6170 0 0 0
6179 0 0 0
7144 0 0 0
7146 0 0 0
7139 0 0 0
744 0 0 0
3 0 0 0
5 0 0 0
217 0 0 0
1385 0 0 0
1499 0 0 0
2248 0 0 0
2236 0 0 0
2238 0 0 0
2450 0 0 0
3236 0 0 0
3350 0 0 0
3740 0 0 0
3729 0 0 0
3731 0 0 0
4469 0 0 0
4345 0 0 0
4471 0 0 0
4839 0 0 0
4831 0 0 0
4833 0 0 0
5480 0 0 0
5334 0 0 0
5482 0 0 0
6181 0 0 0
6172 0 0 0
6174 0 0 0
7294 0 0 0
7148 0 0 0
7296 0 0 0
223 0 0 0
739 0 0 0
225 0 0 0
1501 0 0 0
2456 0 0 0
2451 0 0 0
2458 0 0 0
3352 0 0 0
3935 0 0 0
3931 0 0 0
3937 0 0 0
4473 0 0 0
4989 0 0 0
4985 0 0 0
4991 0 0 0
5484 0 0 0
6354 0 0 0
6350 0 0 0
6356 0 0 0
7298 0 0 0
745 0 0 0
373 0 0 0
227 0 0 0
375 0 0 0
1631 0 0 0
1506 0 0 0
2612 0 0 0
2606 0 0 0
2460 0 0 0
2608 0 0 0
6687 0 0 0
3357 0 0 0
6690 0 0 0
6685 0 0 0
6688 0 0 0
6693 0 0 0
733 0 0 0
736 0 0 0
731 0 0 0
734 0 0 0
5489 0 0 0
5082 0 0 0
5659 0 0 0
5491 0 0 0
6467 0 0 0
6462 0 0 0
7303 0 0 0
6464 0 0 0
7475 0 0 0
7305 0 0 0
383 0 0 0
7721 0 0 0
377 0 0 0
385 0 0 0
1627 0 0 0
1698 0 0 0
2614 0 0 0
2713 0 0 0
738 0 0 0
7710 0 0 0
7711 0 0 0
6638 0 0 0
6641 0 0 0
6645 0 0 0
646 0 0 0
649 0 0 0
644 0 0 0
648 0 0 0
653 0 0 0
6752 0 0 0
6753 0 0 0
6750 0 0 0
5654 0 0 0
6850 0 0 0
6469 0 0 0
6560 0 0 0
7467 0 0 0
6471 0 0 0
7469 0 0 0
7582 0 0 0
7722 0 0 0
517 0 0 0
525 0 0 0
519 0 0 0
1705 0 0 0
1703 0 0 0
6852 0 0 0
2743 0 0 0
2742 0 0 0
2828 0 0 0
2829 0 0 0
825 0 0 0
826 0 0 0
823 0 0 0
961 0 0 0
963 0 0 0
6593 0 0 0
6595 0 0 0
6592 0 0 0
6594 0 0 0
6597 0 0 0
2723 0 0 0
2724 0 0 0
2725 0 0 0
6567 0 0 0
6562 0 0 0
7588 0 0 0
6564 0 0 0
7592 0 0 0
7590 0 0 0
613 0 0 0
606 0 0 0
615 0 0 0
1765 0 0 0
2818 0 0 0
2819 0 0 0
2812 0 0 0
2814 0 0 0
2817 0 0 0
951 0 0 0
952 0 0 0
945 0 0 0
947 0 0 0
950 0 0 0
7527 0 0 0
7385 0 0 0
6627 0 0 0
7668 0 0 0
6629 0 0 0
7670 0 0 0
7782 0 0 0
686 0 0 0
617 0 0 0
688 0 0 0
1770 0 0 0
1767 0 0 0
7526 0 0 0
7379 0 0 0
7384 0 0 0
4521 0 0 0
1664 0 0 0
1567 0 0 0
1663 0 0 0
1561 0 0 0
1565 0 0 0
6833 0 0 0
6957 0 0 0
6832 0 0 0
6831 0 0 0
6952 0 0 0
4107 0 0 0
2808 0 0 0
2956 0 0 0
2807 0 0 0
2806 0 0 0
6659 0 0 0
7677 0 0 0
6661 0 0 0
7679 0 0 0
7672 0 0 0
6700 0 0 0
696 0 0 0
690 0 0 0
698 0 0 0
1812 0 0 0
1808 0 0 0
2950 0 0 0
7848 0 0 0
7846 0 0 0
7849 0 0 0
7847 0 0 0
7844 0 0 0
1879 0 0 0
1877 0 0 0
1880 0 0 0
1878 0 0 0
1875 0 0 0
7621 0 0 0
7618 0 0 0
7623 0 0 0
7620 0 0 0
7617 0 0 0
562 0 0 0
564 0 0 0
561 0 0 0
6664 0 0 0
7746 0 0 0
6666 0 0 0
7753 0 0 0
7748 0 0 0
752 0 0 0
780 0 0 0
788 0 0 0
782 0 0 0
1851 0 0 0
1844 0 0 0
563 0 0 0
6647 0 0 0
941 0 0 0
1105 0 0 0
940 0 0 0
939 0 0 0
834 0 0 0
7779 0 0 0
7780 0 0 0
7785 0 0 0
1828 0 0 0
1829 0 0 0
1831 0 0 0
7712 0 0 0
7713 0 0 0
7719 0 0 0
6692 0 0 0
6697 0 0 0
6717 0 0 0
6719 0 0 0
7813 0 0 0
6721 0 0 0
7815 0 0 0
7804 0 0 0
1832 0 0 0
784 0 0 0
1853 0 0 0
1847 0 0 0
2734 0 0 0
6701 0 0 0
6691 0 0 0
6696 0 0 0
6699 0 0 0
1789 0 0 0
1790 0 0 0
1794 0 0 0
737 0 0 0
742 0 0 0
746 0 0 0
7857 0 0 0
6724 0 0 0
7806 0 0 0
7817 0 0 0
7808 0 0 0
878 0 0 0
1833 0 0 0
880 0 0 0
882 0 0 0
1927 0 0 0
1923 0 0 0
2758 0 0 0
2751 0 0 0
7859 0 0 0
2760 0 0 0
7863 0 0 0
7850 0 0 0
7852 0 0 0
7854 0 0 0
6754 0 0 0
6755 0 0 0
6757 0 0 0
1885 0 0 0
1887 0 0 0
1890 0 0 0
827 0 0 0
5734 0 0 0
5736 0 0 0
5731 0 0 0
6787 0 0 0
6781 0 0 0
6789 0 0 0
7911 0 0 0
7913 0 0 0
7906 0 0 0
6698 0 0 0
872 0 0 0
874 0 0 0
1020 0 0 0
2000 0 0 0
1995 0 0 0
2876 0 0 0
2753 0 0 0
2755 0 0 0
2871 0 0 0
3493 0 0 0
3488 0 0 0
4052 0 0 0
828 0 0 0
829 0 0 0
4565 0 0 0
830 0 0 0
4567 0 0 0
5115 0 0 0
833 0 0 0
5092 0 0 0
5820 0 0 0
5827 0 0 0
5822 0 0 0
6894 0 0 0
6783 0 0 0
6785 0 0 0
8018 0 0 0
8025 0 0 0
8020 0 0 0
1027 0 0 0
6694 0 0 0
1029 0 0 0
1207 0 0 0
2107 0 0 0
1997 0 0 0
2878 0 0 0
2872 0 0 0
2880 0 0 0
3058 0 0 0
3600 0 0 0
3490 0 0 0
4054 0 0 0
4049 0 0 0
4056 0 0 0
4678 0 0 0
4680 0 0 0
4569 0 0 0
5117 0 0 0
5112 0 0 0
5119 0 0 0
5973 0 0 0
5975 0 0 0
5824 0 0 0
6896 0 0 0
6890 0 0 0
6898 0 0 0
8171 0 0 0
8173 0 0 0
8022 0 0 0
7781 0 0 0
1199 0 0 0
1201 0 0 0
1203 0 0 0
2109 0 0 0
2103 0 0 0
3059 0 0 0
3050 0 0 0
3052 0 0 0
3054 0 0 0
3602 0 0 0
3596 0 0 0
4189 0 0 0
4182 0 0 0
4184 0 0 0
4673 0 0 0
4682 0 0 0
4675 0 0 0
5233 0 0 0
5229 0 0 0
5231 0 0 0
5966 0 0 0
5977 0 0 0
5968 0 0 0
7036 0 0 0
7031 0 0 0
7033 0 0 0
8164 0 0 0
8175 0 0 0
8166 0 0 0
7788 0 0 0
1389 0 0 0
2252 0 0 0
3240 0 0 0
3744 0 0 0
4349 0 0 0
4842 0 0 0
5338 0 0 0
6185 0 0 0
7152 0 0 0
21 0 0 0
23 0 0 0
230 0 0 0
1510 0 0 0
2254 0 0 0
2256 0 0 0
2463 0 0 0
3361 0 0 0
3746 0 0 0
3748 0 0 0
4477 0 0 0
4479 0 0 0
4844 0 0 0
4846 0 0 0
5495 0 0 0
5497 0 0 0
6187 0 0 0
6189 0 0 0
7309 0 0 0
7311 0 0 0
7784 0 0 0
1512 0 0 0
2464 0 0 0
3363 0 0 0
3941 0 0 0
4481 0 0 0
4993 0 0 0
5499 0 0 0
6359 0 0 0
7313 0 0 0
389 0 0 0
391 0 0 0
2617 0 0 0
2619 0 0 0
7862 0 0 0
6686 0 0 0
6689 0 0 0
5083 0 0 0
6473 0 0 0
6475 0 0 0
7786 0 0 0
393 0 0 0
1635 0 0 0
1709 0 0 0
2716 0 0 0
6695 0 0 0
732 0 0 0
735 0 0 0
740 0 0 0
6637 0 0 0
6640 0 0 0
6643 0 0 0
643 0 0 0
647 0 0 0
5662 0 0 0
651 0 0 0
6571 0 0 0
7480 0 0 0
7482 0 0 0
7596 0 0 0
532 0 0 0
534 0 0 0
7709 0 0 0
7628 0 0 0
7636 0 0 0
1788 0 0 0
1733 0 0 0
1738 0 0 0
6573 0 0 0
6575 0 0 0
621 0 0 0
1773 0 0 0
6639 0 0 0
6598 0 0 0
6600 0 0 0
566 0 0 0
568 0 0 0
571 0 0 0
7683 0 0 0
7685 0 0 0
7787 0 0 0
702 0 0 0
704 0 0 0
1775 0 0 0
645 0 0 0
567 0 0 0
840 0 0 0
7967 0 0 0
7969 0 0 0
7973 0 0 0
6843 0 0 0
6845 0 0 0
6847 0 0 0
5780 0 0 0
5782 0 0 0
5785 0 0 0
2821 0 0 0
6668 0 0 0
6670 0 0 0
7687 0 0 0
706 0 0 0
1815 0 0 0
2822 0 0 0
2824 0 0 0
1964 0 0 0
1965 0 0 0
1967 0 0 0
953 0 0 0
7757 0 0 0
7759 0 0 0
841 0 0 0
795 0 0 0
797 0 0 0
1857 0 0 0
955 0 0 0
957 0 0 0
7851 0 0 0
7853 0 0 0
7856 0 0 0
6751 0 0 0
6851 0 0 0
6854 0 0 0
1881 0 0 0
1882 0 0 0
1884 0 0 0
824 0 0 0
6727 0 0 0
6729 0 0 0
6731 0 0 0
7821 0 0 0
799 0 0 0
1860 0 0 0
962 0 0 0
965 0 0 0
1729 0 0 0
1730 0 0 0
1731 0 0 0
7539 0 0 0
7823 0 0 0
7825 0 0 0
753 0 0 0
1931 0 0 0
2763 0 0 0
7542 0 0 0
7544 0 0 0
7534 0 0 0
7536 0 0 0
5741 0 0 0
6792 0 0 0
7919 0 0 0
888 0 0 0
890 0 0 0
1035 0 0 0
2004 0 0 0
2765 0 0 0
2767 0 0 0
2886 0 0 0
3497 0 0 0
7538 0 0 0
6514 0 0 0
4574 0 0 0
4576 0 0 0
6516 0 0 0
5094 0 0 0
5832 0 0 0
5834 0 0 0
6794 0 0 0
6796 0 0 0
8030 0 0 0
8032 0 0 0
839 0 0 0
2006 0 0 0
2887 0 0 0
3499 0 0 0
4060 0 0 0
4578 0 0 0
5122 0 0 0
5836 0 0 0
6902 0 0 0
8034 0 0 0
1214 0 0 0
1216 0 0 0
1218 0 0 0
2114 0 0 0
3065 0 0 0
3067 0 0 0
3069 0 0 0
3607 0 0 0
4195 0 0 0
4197 0 0 0
4686 0 0 0
4688 0 0 0
5237 0 0 0
5239 0 0 0
5983 0 0 0
5985 0 0 0
7040 0 0 0
7042 0 0 0
8181 0 0 0
8183 0 0 0
28 0 0 0
848 0 0 0
30 0 0 0
32 0 0 0
1393 0 0 0
1399 0 0 0
2261 0 0 0
2270 0 0 0
2263 0 0 0
2265 0 0 0
3244 0 0 0
3250 0 0 0
3753 0 0 0
3761 0 0 0
3755 0 0 0
4352 0 0 0
4354 0 0 0
4360 0 0 0
4849 0 0 0
4855 0 0 0
4851 0 0 0
5343 0 0 0
5345 0 0 0
5351 0 0 0
6192 0 0 0
6200 0 0 0
6194 0 0 0
7157 0 0 0
7159 0 0 0
7165 0 0 0
843 0 0 0
39 0 0 0
41 0 0 0
243 0 0 0
1395 0 0 0
1521 0 0 0
2266 0 0 0
2272 0 0 0
2274 0 0 0
2476 0 0 0
3246 0 0 0
3372 0 0 0
3757 0 0 0
3763 0 0 0
3765 0 0 0
4485 0 0 0
4356 0 0 0
4487 0 0 0
4852 0 0 0
4857 0 0 0
4859 0 0 0
5510 0 0 0
5347 0 0 0
5512 0 0 0
6196 0 0 0
6202 0 0 0
6204 0 0 0
7324 0 0 0
7161 0 0 0
7326 0 0 0
236 0 0 0
838 0 0 0
238 0 0 0
1523 0 0 0
2469 0 0 0
2477 0 0 0
2471 0 0 0
3374 0 0 0
3945 0 0 0
3951 0 0 0
3947 0 0 0
4489 0 0 0
4997 0 0 0
5001 0 0 0
4999 0 0 0
5514 0 0 0
6363 0 0 0
6368 0 0 0
6365 0 0 0
7328 0 0 0
1889 0 0 0
405 0 0 0
240 0 0 0
407 0 0 0
1639 0 0 0
1517 0 0 0
2623 0 0 0
2628 0 0 0
2473 0 0 0
2630 0 0 0
6519 0 0 0
3368 0 0 0
5087 0 0 0
2673 0 0 0
2676 0 0 0
2677 0 0 0
451 0 0 0
454 0 0 0
457 0 0 0
458 0 0 0
5504 0 0 0
5084 0 0 0
5667 0 0 0
5506 0 0 0
6478 0 0 0
6484 0 0 0
7318 0 0 0
6486 0 0 0
7488 0 0 0
7320 0 0 0
399 0 0 0
845 0 0 0
409 0 0 0
401 0 0 0
1643 0 0 0
1720 0 0 0
2625 0 0 0
2719 0 0 0
461 0 0 0
847 0 0 0
7965 0 0 0
7966 0 0 0
8111 0 0 0
6844 0 0 0
6846 0 0 0
6849 0 0 0
6837 0 0 0
6838 0 0 0
6840 0 0 0
5778 0 0 0
5779 0 0 0
5913 0 0 0
5670 0 0 0
5105 0 0 0
6480 0 0 0
6582 0 0 0
7493 0 0 0
6482 0 0 0
7495 0 0 0
7610 0 0 0
1891 0 0 0
540 0 0 0
549 0 0 0
1716 0 0 0
1714 0 0 0
3556 0 0 0
2811 0 0 0
2813 0 0 0
2815 0 0 0
1962 0 0 0
1963 0 0 0
2063 0 0 0
954 0 0 0
956 0 0 0
959 0 0 0
944 0 0 0
946 0 0 0
948 0 0 0
7530 0 0 0
7531 0 0 0
6578 0 0 0
7602 0 0 0
6586 0 0 0
7606 0 0 0
7604 0 0 0
628 0 0 0
630 0 0 0
7402 0 0 0
6513 0 0 0
6515 0 0 0
6517 0 0 0
5695 0 0 0
5696 0 0 0
6633 0 0 0
6635 0 0 0
632 0 0 0
1778 0 0 0
5588 0 0 0
3432 0 0 0
2663 0 0 0
2664 0 0 0
2551 0 0 0
2666 0 0 0
7692 0 0 0
7694 0 0 0
1894 0 0 0
712 0 0 0
714 0 0 0
1819 0 0 0
2668 0 0 0
2670 0 0 0
448 0 0 0
449 0 0 0
318 0 0 0
450 0 0 0
453 0 0 0
455 0 0 0
6512 0 0 0
6417 0 0 0
6419 0 0 0
2662 0 0 0
2541 0 0 0
6673 0 0 0
6675 0 0 0
7764 0 0 0
810 0 0 0
803 0 0 0
1864 0 0 0
2543 0 0 0
447 0 0 0
308 0 0 0
1897 0 0 0
7961 0 0 0
7962 0 0 0
8099 0 0 0
3547 0 0 0
1960 0 0 0
6739 0 0 0
7830 0 0 0
7832 0 0 0
1900 0 0 0
814 0 0 0
1866 0 0 0
1873 0 0 0
2736 0 0 0
1961 0 0 0
2054 0 0 0
7528 0 0 0
7390 0 0 0
7395 0 0 0
4529 0 0 0
1665 0 0 0
1570 0 0 0
1574 0 0 0
6410 0 0 0
6411 0 0 0
6734 0 0 0
7840 0 0 0
7834 0 0 0
7842 0 0 0
894 0 0 0
1795 0 0 0
896 0 0 0
898 0 0 0
1935 0 0 0
1939 0 0 0
2770 0 0 0
2775 0 0 0
6415 0 0 0
2772 0 0 0
5036 0 0 0
5037 0 0 0
5041 0 0 0
3996 0 0 0
2533 0 0 0
2534 0 0 0
2538 0 0 0
300 0 0 0
301 0 0 0
305 0 0 0
6834 0 0 0
5744 0 0 0
5746 0 0 0
5751 0 0 0
6798 0 0 0
6803 0 0 0
6800 0 0 0
7924 0 0 0
7926 0 0 0
7932 0 0 0
6761 0 0 0
904 0 0 0
906 0 0 0
1050 0 0 0
2009 0 0 0
2013 0 0 0
2891 0 0 0
2777 0 0 0
2779 0 0 0
2901 0 0 0
3502 0 0 0
3506 0 0 0
4063 0 0 0
6835 0 0 0
6963 0 0 0
4583 0 0 0
5171 0 0 0
4585 0 0 0
5125 0 0 0
4619 0 0 0
5096 0 0 0
5844 0 0 0
5839 0 0 0
5846 0 0 0
6906 0 0 0
6805 0 0 0
6807 0 0 0
8042 0 0 0
8037 0 0 0
8044 0 0 0
1042 0 0 0
661 0 0 0
1044 0 0 0
1222 0 0 0
2118 0 0 0
2015 0 0 0
2893 0 0 0
2902 0 0 0
2895 0 0 0
3073 0 0 0
3611 0 0 0
3508 0 0 0
4065 0 0 0
4071 0 0 0
4067 0 0 0
4691 0 0 0
4693 0 0 0
4587 0 0 0
5127 0 0 0
5132 0 0 0
5129 0 0 0
5990 0 0 0
5992 0 0 0
5848 0 0 0
6908 0 0 0
6914 0 0 0
6910 0 0 0
8188 0 0 0
8190 0 0 0
8046 0 0 0
749 0 0 0
1229 0 0 0
1231 0 0 0
1233 0 0 0
2120 0 0 0
2125 0 0 0
3074 0 0 0
3080 0 0 0
3082 0 0 0
3084 0 0 0
3613 0 0 0
3618 0 0 0
4202 0 0 0
4208 0 0 0
4210 0 0 0
4699 0 0 0
4695 0 0 0
4701 0 0 0
5241 0 0 0
5245 0 0 0
5247 0 0 0
6000 0 0 0
5994 0 0 0
6002 0 0 0
7045 0 0 0
7049 0 0 0
7051 0 0 0
8198 0 0 0
8192 0 0 0
8200 0 0 0
46 0 0 0
751 0 0 0
48 0 0 0
50 0 0 0
1403 0 0 0
1409 0 0 0
2279 0 0 0
2288 0 0 0
2281 0 0 0
2283 0 0 0
3254 0 0 0
3260 0 0 0
3770 0 0 0
3778 0 0 0
3772 0 0 0
4363 0 0 0
4365 0 0 0
4371 0 0 0
4862 0 0 0
4868 0 0 0
4864 0 0 0
5356 0 0 0
5358 0 0 0
5364 0 0 0
6207 0 0 0
6215 0 0 0
6209 0 0 0
7170 0 0 0
7172 0 0 0
7178 0 0 0
747 0 0 0
57 0 0 0
59 0 0 0
256 0 0 0
1405 0 0 0
1532 0 0 0
2284 0 0 0
2290 0 0 0
2292 0 0 0
2489 0 0 0
3256 0 0 0
3383 0 0 0
3774 0 0 0
3780 0 0 0
3782 0 0 0
4493 0 0 0
4367 0 0 0
4495 0 0 0
4865 0 0 0
4870 0 0 0
4872 0 0 0
5525 0 0 0
5360 0 0 0
5527 0 0 0
6211 0 0 0
6217 0 0 0
6219 0 0 0
7339 0 0 0
7174 0 0 0
7341 0 0 0
249 0 0 0
660 0 0 0
251 0 0 0
1534 0 0 0
2482 0 0 0
2490 0 0 0
2484 0 0 0
3385 0 0 0
3955 0 0 0
3961 0 0 0
3957 0 0 0
4497 0 0 0
5005 0 0 0
5009 0 0 0
5007 0 0 0
5529 0 0 0
6372 0 0 0
6377 0 0 0
6374 0 0 0
7343 0 0 0
658 0 0 0
421 0 0 0
253 0 0 0
423 0 0 0
1647 0 0 0
1528 0 0 0
2634 0 0 0
2639 0 0 0
2486 0 0 0
2641 0 0 0
2959 0 0 0
3379 0 0 0
2960 0 0 0
2961 0 0 0
2809 0 0 0
2810 0 0 0
2965 0 0 0
1108 0 0 0
1109 0 0 0
1110 0 0 0
5519 0 0 0
5085 0 0 0
5675 0 0 0
5521 0 0 0
6489 0 0 0
6495 0 0 0
7333 0 0 0
6497 0 0 0
7501 0 0 0
7335 0 0 0
417 0 0 0
942 0 0 0
943 0 0 0
657 0 0 0
6493 0 0 0
910 0 0 0
914 0 0 0
1943 0 0 0
2782 0 0 0
2784 0 0 0
1959 0 0 0
1958 0 0 0
2045 0 0 0
6403 0 0 0
6402 0 0 0
5754 0 0 0
5756 0 0 0
6809 0 0 0
7937 0 0 0
7939 0 0 0
7644 0 0 0
920 0 0 0
922 0 0 0
1065 0 0 0
2018 0 0 0
2022 0 0 0
2906 0 0 0
2789 0 0 0
2791 0 0 0
2916 0 0 0
3511 0 0 0
3515 0 0 0
4074 0 0 0
6401 0 0 0
5034 0 0 0
4592 0 0 0
3987 0 0 0
4594 0 0 0
5135 0 0 0
3990 0 0 0
5098 0 0 0
5856 0 0 0
5851 0 0 0
5858 0 0 0
6918 0 0 0
6817 0 0 0
6819 0 0 0
8054 0 0 0
8049 0 0 0
8056 0 0 0
1057 0 0 0
7718 0 0 0
1059 0 0 0
1237 0 0 0
2129 0 0 0
2024 0 0 0
2908 0 0 0
2917 0 0 0
2910 0 0 0
3088 0 0 0
3622 0 0 0
3517 0 0 0
4076 0 0 0
4082 0 0 0
4078 0 0 0
4704 0 0 0
4706 0 0 0
4596 0 0 0
5137 0 0 0
5142 0 0 0
5139 0 0 0
6007 0 0 0
6009 0 0 0
5860 0 0 0
6920 0 0 0
6926 0 0 0
6922 0 0 0
8205 0 0 0
8207 0 0 0
8058 0 0 0
7716 0 0 0
1244 0 0 0
1246 0 0 0
1248 0 0 0
2131 0 0 0
2136 0 0 0
3089 0 0 0
3095 0 0 0
3097 0 0 0
3099 0 0 0
3624 0 0 0
3629 0 0 0
4215 0 0 0
4221 0 0 0
4223 0 0 0
4712 0 0 0
4708 0 0 0
4714 0 0 0
5249 0 0 0
5253 0 0 0
5255 0 0 0
6017 0 0 0
6011 0 0 0
6019 0 0 0
7054 0 0 0
7058 0 0 0
7060 0 0 0
8215 0 0 0
8209 0 0 0
8217 0 0 0
64 0 0 0
66 0 0 0
68 0 0 0
1413 0 0 0
2297 0 0 0
2299 0 0 0
2301 0 0 0
3264 0 0 0
3787 0 0 0
3789 0 0 0
4374 0 0 0
4376 0 0 0
4875 0 0 0
4877 0 0 0
5369 0 0 0
5371 0 0 0
6222 0 0 0
6224 0 0 0
7183 0 0 0
7185 0 0 0
7720 0 0 0
1415 0 0 0
2302 0 0 0
3266 0 0 0
3791 0 0 0
4378 0 0 0
4878 0 0 0
5373 0 0 0
6226 0 0 0
7187 0 0 0
262 0 0 0
264 0 0 0
2495 0 0 0
2497 0 0 0
3965 0 0 0
3967 0 0 0
5013 0 0 0
5015 0 0 0
6381 0 0 0
6383 0 0 0
266 0 0 0
1539 0 0 0
2499 0 0 0
3390 0 0 0
2525 0 0 0
2524 0 0 0
5534 0 0 0
5536 0 0 0
7348 0 0 0
7350 0 0 0
7714 0 0 0
2027 0 0 0
2921 0 0 0
3520 0 0 0
4085 0 0 0
2523 0 0 0
5145 0 0 0
5863 0 0 0
6930 0 0 0
8061 0 0 0
1072 0 0 0
1074 0 0 0
1252 0 0 0
2140 0 0 0
2923 0 0 0
2925 0 0 0
3103 0 0 0
3633 0 0 0
4087 0 0 0
4089 0 0 0
4717 0 0 0
4719 0 0 0
5147 0 0 0
5149 0 0 0
6024 0 0 0
6026 0 0 0
6932 0 0 0
6934 0 0 0
8222 0 0 0
8224 0 0 0
6644 0 0 0
2142 0 0 0
3104 0 0 0
3635 0 0 0
4228 0 0 0
4721 0 0 0
5257 0 0 0
6028 0 0 0
7063 0 0 0
8226 0 0 0
82 0 0 0
6646 0 0 0
84 0 0 0
86 0 0 0
1423 0 0 0
1419 0 0 0
2315 0 0 0
2306 0 0 0
2317 0 0 0
2319 0 0 0
3274 0 0 0
3270 0 0 0
3804 0 0 0
3795 0 0 0
3806 0 0 0
4385 0 0 0
4387 0 0 0
4382 0 0 0
4888 0 0 0
4881 0 0 0
4890 0 0 0
5382 0 0 0
5384 0 0 0
5377 0 0 0
6237 0 0 0
6230 0 0 0
6239 0 0 0
7196 0 0 0
7198 0 0 0
7191 0 0 0
6702 0 0 0
75 0 0 0
77 0 0 0
269 0 0 0
1425 0 0 0
1543 0 0 0
2320 0 0 0
2308 0 0 0
2310 0 0 0
2502 0 0 0
3276 0 0 0
3394 0 0 0
3808 0 0 0
3797 0 0 0
3799 0 0 0
4501 0 0 0
4389 0 0 0
4503 0 0 0
4891 0 0 0
4883 0 0 0
4885 0 0 0
5540 0 0 0
5386 0 0 0
5542 0 0 0
6241 0 0 0
6232 0 0 0
6234 0 0 0
7354 0 0 0
7200 0 0 0
7356 0 0 0
275 0 0 0
6759 0 0 0
277 0 0 0
1545 0 0 0
2508 0 0 0
2503 0 0 0
2510 0 0 0
3396 0 0 0
3975 0 0 0
3971 0 0 0
3977 0 0 0
4505 0 0 0
5021 0 0 0
5017 0 0 0
5023 0 0 0
5544 0 0 0
6390 0 0 0
6386 0 0 0
6392 0 0 0
7358 0 0 0
1080 0 0 0
2031 0 0 0
2931 0 0 0
3524 0 0 0
4601 0 0 0
4603 0 0 0
5868 0 0 0
5870 0 0 0
8066 0 0 0
8068 0 0 0
1087 0 0 0
6765 0 0 0
1089 0 0 0
1267 0 0 0
2151 0 0 0
2033 0 0 0
2938 0 0 0
2932 0 0 0
2940 0 0 0
3118 0 0 0
3644 0 0 0
3526 0 0 0
4098 0 0 0
4093 0 0 0
4100 0 0 0
4730 0 0 0
4732 0 0 0
4605 0 0 0
5157 0 0 0
5152 0 0 0
5159 0 0 0
6041 0 0 0
6043 0 0 0
5872 0 0 0
6944 0 0 0
6938 0 0 0
6946 0 0 0
8239 0 0 0
8241 0 0 0
8070 0 0 0
6763 0 0 0
1259 0 0 0
1261 0 0 0
1263 0 0 0
2153 0 0 0
2147 0 0 0
3119 0 0 0
3110 0 0 0
3112 0 0 0
3114 0 0 0
3646 0 0 0
3640 0 0 0
4241 0 0 0
4234 0 0 0
4236 0 0 0
4725 0 0 0
4734 0 0 0
4727 0 0 0
5265 0 0 0
5261 0 0 0
5263 0 0 0
6034 0 0 0
6045 0 0 0
6036 0 0 0
7072 0 0 0
7067 0 0 0
7069 0 0 0
8232 0 0 0
8243 0 0 0
8234 0 0 0
7869 0 0 0
1429 0 0 0
2324 0 0 0
3280 0 0 0
3812 0 0 0
4393 0 0 0
4894 0 0 0
5390 0 0 0
6245 0 0 0
7204 0 0 0
93 0 0 0
95 0 0 0
282 0 0 0
1554 0 0 0
2326 0 0 0
2328 0 0 0
2515 0 0 0
3405 0 0 0
3814 0 0 0
3816 0 0 0
4509 0 0 0
4511 0 0 0
4896 0 0 0
4898 0 0 0
5555 0 0 0
5557 0 0 0
6247 0 0 0
6249 0 0 0
7369 0 0 0
7371 0 0 0
2040 0 0 0
3533 0 0 0
4612 0 0 0
5881 0 0 0
8080 0 0 0
7864 0 0 0
2042 0 0 0
2945 0 0 0
3535 0 0 0
4104 0 0 0
4614 0 0 0
5161 0 0 0
5883 0 0 0
6949 0 0 0
8082 0 0 0
1274 0 0 0
1276 0 0 0
1278 0 0 0
2158 0 0 0
3125 0 0 0
3127 0 0 0
3129 0 0 0
3651 0 0 0
4247 0 0 0
4249 0 0 0
4738 0 0 0
4740 0 0 0
5269 0 0 0
5271 0 0 0
6051 0 0 0
6053 0 0 0
7076 0 0 0
7078 0 0 0
8249 0 0 0
8251 0 0 0
100 0 0 0
7872 0 0 0
102 0 0 0
104 0 0 0
1433 0 0 0
1439 0 0 0
2333 0 0 0
2342 0 0 0
2335 0 0 0
2337 0 0 0
3284 0 0 0
3290 0 0 0
3821 0 0 0
3829 0 0 0
3823 0 0 0
4396 0 0 0
4398 0 0 0
4404 0 0 0
4901 0 0 0
4907 0 0 0
4903 0 0 0
5395 0 0 0
5397 0 0 0
5403 0 0 0
6252 0 0 0
6260 0 0 0
6254 0 0 0
7209 0 0 0
7211 0 0 0
7217 0 0 0
7877 0 0 0
111 0 0 0
113 0 0 0
296 0 0 0
1435 0 0 0
1563 0 0 0
2338 0 0 0
2344 0 0 0
2346 0 0 0
2529 0 0 0
3286 0 0 0
3415 0 0 0
3825 0 0 0
3831 0 0 0
3833 0 0 0
4517 0 0 0
4400 0 0 0
4519 0 0 0
4904 0 0 0
4909 0 0 0
4911 0 0 0
5567 0 0 0
5399 0 0 0
5569 0 0 0
6256 0 0 0
6262 0 0 0
6264 0 0 0
7380 0 0 0
7213 0 0 0
7382 0 0 0
288 0 0 0
2521 0 0 0
3985 0 0 0
5029 0 0 0
6399 0 0 0
2049 0 0 0
3542 0 0 0
4621 0 0 0
5896 0 0 0
8094 0 0 0
1101 0 0 0
7866 0 0 0
1103 0 0 0
1282 0 0 0
2162 0 0 0
2051 0 0 0
2952 0 0 0
2962 0 0 0
2954 0 0 0
3133 0 0 0
3655 0 0 0
3544 0 0 0
4109 0 0 0
4115 0 0 0
4111 0 0 0
4743 0 0 0
4745 0 0 0
4623 0 0 0
5165 0 0 0
5169 0 0 0
5167 0 0 0
6058 0 0 0
6060 0 0 0
5898 0 0 0
6954 0 0 0
6960 0 0 0
6956 0 0 0
8256 0 0 0
8258 0 0 0
8096 0 0 0
7868 0 0 0
1289 0 0 0
1291 0 0 0
1293 0 0 0
2164 0 0 0
2169 0 0 0
3134 0 0 0
3140 0 0 0
3142 0 0 0
3144 0 0 0
3657 0 0 0
3662 0 0 0
4254 0 0 0
4260 0 0 0
4262 0 0 0
4751 0 0 0
4747 0 0 0
4753 0 0 0
5273 0 0 0
5277 0 0 0
5279 0 0 0
6068 0 0 0
6062 0 0 0
6070 0 0 0
7081 0 0 0
7085 0 0 0
7087 0 0 0
8266 0 0 0
8260 0 0 0
8268 0 0 0
118 0 0 0
120 0 0 0
122 0 0 0
1443 0 0 0
2351 0 0 0
2353 0 0 0
2355 0 0 0
3294 0 0 0
3838 0 0 0
3840 0 0 0
4407 0 0 0
4409 0 0 0
4914 0 0 0
4916 0 0 0
5408 0 0 0
5410 0 0 0
6267 0 0 0
6269 0 0 0
7222 0 0 0
7224 0 0 0
7876 0 0 0
1445 0 0 0
2356 0 0 0
3296 0 0 0
3842 0 0 0
4411 0 0 0
4917 0 0 0
5412 0 0 0
6271 0 0 0
7226 0 0 0
303 0 0 0
2536 0 0 0
3994 0 0 0
5039 0 0 0
6413 0 0 0
1116 0 0 0
1118 0 0 0
1297 0 0 0
2173 0 0 0
2967 0 0 0
2969 0 0 0
3148 0 0 0
3666 0 0 0
4120 0 0 0
4122 0 0 0
4756 0 0 0
4758 0 0 0
5173 0 0 0
5175 0 0 0
6075 0 0 0
6077 0 0 0
6965 0 0 0
6967 0 0 0
8273 0 0 0
8275 0 0 0
836 0 0 0
2175 0 0 0
3149 0 0 0
3668 0 0 0
4267 0 0 0
4760 0 0 0
5281 0 0 0
6079 0 0 0
7090 0 0 0
8277 0 0 0
136 0 0 0
837 0 0 0
138 0 0 0
140 0 0 0
1453 0 0 0
1449 0 0 0
2369 0 0 0
2360 0 0 0
2371 0 0 0
2373 0 0 0
3304 0 0 0
3300 0 0 0
3855 0 0 0
3846 0 0 0
3857 0 0 0
4418 0 0 0
4420 0 0 0
4415 0 0 0
4927 0 0 0
4920 0 0 0
4929 0 0 0
5421 0 0 0
5423 0 0 0
5416 0 0 0
6282 0 0 0
6275 0 0 0
6284 0 0 0
7235 0 0 0
7237 0 0 0
7230 0 0 0
984 0 0 0
129 0 0 0
131 0 0 0
309 0 0 0
1455 0 0 0
1572 0 0 0
2374 0 0 0
2362 0 0 0
2364 0 0 0
2542 0 0 0
3306 0 0 0
3425 0 0 0
3859 0 0 0
3848 0 0 0
3850 0 0 0
4525 0 0 0
4422 0 0 0
4527 0 0 0
4930 0 0 0
4922 0 0 0
4924 0 0 0
5579 0 0 0
5425 0 0 0
5581 0 0 0
6286 0 0 0
6277 0 0 0
6279 0 0 0
7391 0 0 0
7239 0 0 0
7393 0 0 0
314 0 0 0
316 0 0 0
2547 0 0 0
2549 0 0 0
4003 0 0 0
4005 0 0 0
5046 0 0 0
5048 0 0 0
6422 0 0 0
6424 0 0 0
1898 0 0 0
1124 0 0 0
2058 0 0 0
2980 0 0 0
2975 0 0 0
3551 0 0 0
4129 0 0 0
4628 0 0 0
4630 0 0 0
5181 0 0 0
5906 0 0 0
5908 0 0 0
6975 0 0 0
8104 0 0 0
8106 0 0 0
1131 0 0 0
992 0 0 0
1133 0 0 0
1312 0 0 0
2184 0 0 0
2060 0 0 0
2982 0 0 0
2976 0 0 0
2984 0 0 0
3163 0 0 0
3677 0 0 0
3553 0 0 0
4131 0 0 0
4126 0 0 0
4133 0 0 0
4769 0 0 0
4771 0 0 0
4632 0 0 0
5183 0 0 0
5178 0 0 0
5185 0 0 0
6092 0 0 0
6094 0 0 0
5910 0 0 0
6977 0 0 0
6971 0 0 0
6979 0 0 0
8290 0 0 0
8292 0 0 0
8108 0 0 0
1893 0 0 0
1304 0 0 0
1306 0 0 0
1308 0 0 0
2186 0 0 0
2180 0 0 0
3164 0 0 0
3155 0 0 0
3157 0 0 0
3159 0 0 0
3679 0 0 0
3673 0 0 0
4280 0 0 0
4273 0 0 0
4275 0 0 0
4764 0 0 0
4773 0 0 0
4766 0 0 0
5289 0 0 0
5285 0 0 0
5287 0 0 0
6085 0 0 0
6096 0 0 0
6087 0 0 0
7099 0 0 0
7094 0 0 0
7096 0 0 0
8283 0 0 0
8294 0 0 0
8285 0 0 0
154 0 0 0
1895 0 0 0
156 0 0 0
158 0 0 0
1463 0 0 0
1459 0 0 0
2387 0 0 0
2378 0 0 0
2389 0 0 0
2391 0 0 0
3314 0 0 0
3310 0 0 0
3872 0 0 0
3863 0 0 0
3874 0 0 0
4429 0 0 0
4431 0 0 0
4426 0 0 0
4940 0 0 0
4933 0 0 0
4942 0 0 0
5434 0 0 0
5436 0 0 0
5429 0 0 0
6297 0 0 0
6290 0 0 0
6299 0 0 0
7248 0 0 0
7250 0 0 0
7243 0 0 0
1978 0 0 0
147 0 0 0
149 0 0 0
321 0 0 0
1465 0 0 0
1583 0 0 0
2392 0 0 0
2380 0 0 0
2382 0 0 0
2554 0 0 0
3316 0 0 0
3436 0 0 0
3876 0 0 0
3865 0 0 0
3867 0 0 0
4533 0 0 0
4433 0 0 0
4535 0 0 0
4943 0 0 0
4935 0 0 0
4937 0 0 0
5594 0 0 0
5438 0 0 0
5596 0 0 0
6301 0 0 0
6292 0 0 0
6294 0 0 0
7406 0 0 0
7252 0 0 0
7408 0 0 0
327 0 0 0
1901 0 0 0
329 0 0 0
1585 0 0 0
2560 0 0 0
2555 0 0 0
2562 0 0 0
3438 0 0 0
4013 0 0 0
4009 0 0 0
4015 0 0 0
4537 0 0 0
5054 0 0 0
5050 0 0 0
5056 0 0 0
5598 0 0 0
6431 0 0 0
6427 0 0 0
6433 0 0 0
7410 0 0 0
331 0 0 0
1590 0 0 0
2564 0 0 0
3443 0 0 0
2661 0 0 0
2528 0 0 0
5603 0 0 0
5605 0 0 0
7415 0 0 0
7417 0 0 0
967 0 0 0
2831 0 0 0
2530 0 0 0
5783 0 0 0
7971 0 0 0
2746 0 0 0
1139 0 0 0
2072 0 0 0
2067 0 0 0
2995 0 0 0
2990 0 0 0
3565 0 0 0
3560 0 0 0
4140 0 0 0
4637 0 0 0
292 0 0 0
4639 0 0 0
5191 0 0 0
5918 0 0 0
5925 0 0 0
5920 0 0 0
6987 0 0 0
8116 0 0 0
8123 0 0 0
8118 0 0 0
1146 0 0 0
1745 0 0 0
1148 0 0 0
1327 0 0 0
2195 0 0 0
2069 0 0 0
2997 0 0 0
2991 0 0 0
2999 0 0 0
3178 0 0 0
3688 0 0 0
3562 0 0 0
4142 0 0 0
4137 0 0 0
4144 0 0 0
4782 0 0 0
4784 0 0 0
4641 0 0 0
5193 0 0 0
5188 0 0 0
5195 0 0 0
6109 0 0 0
6111 0 0 0
5922 0 0 0
6989 0 0 0
6983 0 0 0
6991 0 0 0
8307 0 0 0
8309 0 0 0
8120 0 0 0
1793 0 0 0
1319 0 0 0
1321 0 0 0
1323 0 0 0
2197 0 0 0
2191 0 0 0
3179 0 0 0
3170 0 0 0
3172 0 0 0
3174 0 0 0
3690 0 0 0
3684 0 0 0
4293 0 0 0
4286 0 0 0
4288 0 0 0
4777 0 0 0
4786 0 0 0
4779 0 0 0
5297 0 0 0
5293 0 0 0
5295 0 0 0
6102 0 0 0
6113 0 0 0
6104 0 0 0
7108 0 0 0
7103 0 0 0
7105 0 0 0
8300 0 0 0
8311 0 0 0
8302 0 0 0
659 0 0 0
1469 0 0 0
2396 0 0 0
3320 0 0 0
3880 0 0 0
4437 0 0 0
4946 0 0 0
5442 0 0 0
6305 0 0 0
7256 0 0 0
165 0 0 0
167 0 0 0
334 0 0 0
1594 0 0 0
2398 0 0 0
2400 0 0 0
2567 0 0 0
3447 0 0 0
3882 0 0 0
3884 0 0 0
4541 0 0 0
4543 0 0 0
4948 0 0 0
4950 0 0 0
5609 0 0 0
5611 0 0 0
6307 0 0 0
6309 0 0 0
7421 0 0 0
7423 0 0 0
1791 0 0 0
1596 0 0 0
2568 0 0 0
3449 0 0 0
4019 0 0 0
4545 0 0 0
5058 0 0 0
5613 0 0 0
6436 0 0 0
7425 0 0 0
467 0 0 0
469 0 0 0
2680 0 0 0
2682 0 0 0
291 0 0 0
290 0 0 0
446 0 0 0
5088 0 0 0
6526 0 0 0
6528 0 0 0
1675 0 0 0
295 0 0 0
654 0 0 0
5706 0 0 0
7546 0 0 0
652 0 0 0
1971 0 0 0
2834 0 0 0
5885 0 0 0
5884 0 0 0
5879 0 0 0
4610 0 0 0
5790 0 0 0
6857 0 0 0
7979 0 0 0
973 0 0 0
975 0 0 0
1154 0 0 0
2076 0 0 0
2836 0 0 0
2838 0 0 0
3005 0 0 0
3569 0 0 0
2947 0 0 0
2946 0 0 0
4646 0 0 0
4648 0 0 0
2944 0 0 0
5107 0 0 0
5930 0 0 0
5932 0 0 0
6859 0 0 0
6861 0 0 0
8128 0 0 0
8130 0 0 0
655 0 0 0
2078 0 0 0
3006 0 0 0
3571 0 0 0
4148 0 0 0
4650 0 0 0
5198 0 0 0
5934 0 0 0
6995 0 0 0
8132 0 0 0
1334 0 0 0
1336 0 0 0
1338 0 0 0
2202 0 0 0
3185 0 0 0
3187 0 0 0
3189 0 0 0
3695 0 0 0
4299 0 0 0
4301 0 0 0
4790 0 0 0
4792 0 0 0
5301 0 0 0
5303 0 0 0
6119 0 0 0
6121 0 0 0
7112 0 0 0
7114 0 0 0
8317 0 0 0
8319 0 0 0
172 0 0 0
7635 0 0 0
174 0 0 0
176 0 0 0
1473 0 0 0
1479 0 0 0
2405 0 0 0
2414 0 0 0
2407 0 0 0
2409 0 0 0
3324 0 0 0
3330 0 0 0
3889 0 0 0
3897 0 0 0
3891 0 0 0
4440 0 0 0
4442 0 0 0
4448 0 0 0
4953 0 0 0
4959 0 0 0
4955 0 0 0
5447 0 0 0
5449 0 0 0
5455 0 0 0
6312 0 0 0
6320 0 0 0
6314 0 0 0
7261 0 0 0
7263 0 0 0
7269 0 0 0
7639 0 0 0
183 0 0 0
185 0 0 0
347 0 0 0
1475 0 0 0
1605 0 0 0
2410 0 0 0
2416 0 0 0
2418 0 0 0
2580 0 0 0
3326 0 0 0
3458 0 0 0
3893 0 0 0
3899 0 0 0
3901 0 0 0
4549 0 0 0
4444 0 0 0
4551 0 0 0
4956 0 0 0
4961 0 0 0
4963 0 0 0
5624 0 0 0
5451 0 0 0
5626 0 0 0
6316 0 0 0
6322 0 0 0
6324 0 0 0
7436 0 0 0
7265 0 0 0
7438 0 0 0
340 0 0 0
7643 0 0 0
342 0 0 0
1607 0 0 0
2573 0 0 0
2581 0 0 0
2575 0 0 0
3460 0 0 0
4023 0 0 0
4029 0 0 0
4025 0 0 0
4553 0 0 0
5062 0 0 0
5066 0 0 0
5064 0 0 0
5628 0 0 0
6440 0 0 0
6445 0 0 0
6442 0 0 0
7440 0 0 0
7641 0 0 0
483 0 0 0
344 0 0 0
485 0 0 0
1679 0 0 0
1601 0 0 0
2686 0 0 0
2691 0 0 0
2577 0 0 0
2693 0 0 0
1096 0 0 0
3454 0 0 0
1095 0 0 0
1093 0 0 0
7525 0 0 0
7374 0 0 0
7373 0 0 0
6511 0 0 0
6396 0 0 0
6395 0 0 0
5618 0 0 0
5089 0 0 0
5711 0 0 0
5620 0 0 0
6531 0 0 0
6537 0 0 0
7430 0 0 0
6539 0 0 0
7552 0 0 0
7432 0 0 0
477 0 0 0
7633 0 0 0
487 0 0 0
479 0 0 0
1683 0 0 0
1742 0 0 0
2688 0 0 0
2728 0 0 0
5025 0 0 0
4513 0 0 0
3981 0 0 0
3409 0 0 0
3407 0 0 0
1662 0 0 0
1558 0 0 0
1556 0 0 0
445 0 0 0
284 0 0 0
7638 0 0 0
5155 0 0 0
938 0 0 0
937 0 0 0
5714 0 0 0
6607 0 0 0
6533 0 0 0
6604 0 0 0
7557 0 0 0
6535 0 0 0
7559 0 0 0
7640 0 0 0
578 0 0 0
580 0 0 0
1736 0 0 0
7958 0 0 0
7957 0 0 0
8073 0 0 0
6828 0 0 0
6826 0 0 0
6824 0 0 0
6827 0 0 0
6825 0 0 0
6822 0 0 0
6606 0 0 0
6608 0 0 0
7634 0 0 0
656 0 0 0
1792 0 0 0
5773 0 0 0
5772 0 0 0
5875 0 0 0
5100 0 0 0
3529 0 0 0
2803 0 0 0
7715 0 0 0
7717 0 0 0
6610 0 0 0
2801 0 0 0
2799 0 0 0
2802 0 0 0
2800 0 0 0
750 0 0 0
2797 0 0 0
1957 0 0 0
1956 0 0 0
7783 0 0 0
6602 0 0 0
842 0 0 0
844 0 0 0
1896 0 0 0
2036 0 0 0
936 0 0 0
934 0 0 0
932 0 0 0
935 0 0 0
933 0 0 0
930 0 0 0
7524 0 0 0
7523 0 0 0
7365 0 0 0
6510 0 0 0
6508 0 0 0
6760 0 0 0
6762 0 0 0
6764 0 0 0
7871 0 0 0
846 0 0 0
1892 0 0 0
1899 0 0 0
6506 0 0 0
6509 0 0 0
6507 0 0 0
6504 0 0 0
5691 0 0 0
5689 0 0 0
5551 0 0 0
5086 0 0 0
5690 0 0 0
7873 0 0 0
7867 0 0 0
7875 0 0 0
979 0 0 0
6642 0 0 0
981 0 0 0
983 0 0 0
1975 0 0 0
1979 0 0 0
2841 0 0 0
2846 0 0 0
5688 0 0 0
2843 0 0 0
5549 0 0 0
2656 0 0 0
2654 0 0 0
2652 0 0 0
2659 0 0 0
2658 0 0 0
2512 0 0 0
2655 0 0 0
2653 0 0 0
2650 0 0 0
441 0 0 0
5793 0 0 0
5795 0 0 0
5800 0 0 0
6863 0 0 0
6868 0 0 0
6865 0 0 0
7984 0 0 0
7986 0 0 0
7992 0 0 0
6756 0 0 0
989 0 0 0
991 0 0 0
1169 0 0 0
2081 0 0 0
2085 0 0 0
3010 0 0 0
2848 0 0 0
2850 0 0 0
3020 0 0 0
3574 0 0 0
3578 0 0 0
4151 0 0 0
439 0 0 0
437 0 0 0
4655 0 0 0
444 0 0 0
4657 0 0 0
5201 0 0 0
443 0 0 0
5109 0 0 0
5942 0 0 0
5937 0 0 0
5944 0 0 0
6999 0 0 0
6870 0 0 0
6872 0 0 0
8140 0 0 0
8135 0 0 0
8142 0 0 0
1161 0 0 0
5799 0 0 0
1163 0 0 0
1342 0 0 0
2206 0 0 0
2087 0 0 0
3012 0 0 0
3021 0 0 0
3014 0 0 0
3193 0 0 0
3699 0 0 0
3580 0 0 0
4153 0 0 0
4159 0 0 0
4155 0 0 0
4795 0 0 0
4797 0 0 0
4659 0 0 0
5203 0 0 0
5208 0 0 0
5205 0 0 0
6126 0 0 0
6128 0 0 0
5946 0 0 0
7001 0 0 0
7007 0 0 0
7003 0 0 0
8324 0 0 0
8326 0 0 0
8144 0 0 0
6758 0 0 0
1349 0 0 0
1351 0 0 0
1353 0 0 0
2208 0 0 0
2213 0 0 0
3194 0 0 0
3200 0 0 0
3202 0 0 0
3204 0 0 0
3701 0 0 0
3706 0 0 0
4306 0 0 0
4312 0 0 0
4314 0 0 0
4803 0 0 0
4799 0 0 0
4805 0 0 0
5305 0 0 0
5309 0 0 0
5311 0 0 0
6136 0 0 0
6130 0 0 0
6138 0 0 0
7117 0 0 0
7121 0 0 0
7123 0 0 0
8334 0 0 0
8328 0 0 0
8336 0 0 0
190 0 0 0
192 0 0 0
194 0 0 0
1483 0 0 0
2423 0 0 0
2425 0 0 0
2427 0 0 0
3334 0 0 0
3906 0 0 0
3908 0 0 0
4451 0 0 0
4453 0 0 0
4966 0 0 0
4968 0 0 0
5460 0 0 0
5462 0 0 0
6327 0 0 0
6329 0 0 0
7274 0 0 0
7276 0 0 0
7988 0 0 0
1485 0 0 0
2428 0 0 0
3336 0 0 0
3910 0 0 0
4455 0 0 0
4969 0 0 0
5464 0 0 0
6331 0 0 0
7278 0 0 0
353 0 0 0
355 0 0 0
2586 0 0 0
2588 0 0 0
4033 0 0 0
4035 0 0 0
5070 0 0 0
5072 0 0 0
6449 0 0 0
6451 0 0 0
7993 0 0 0
357 0 0 0
1687 0 0 0
1612 0 0 0
2697 0 0 0
2590 0 0 0
279 0 0 0
3465 0 0 0
440 0 0 0
438 0 0 0
435 0 0 0
7956 0 0 0
7953 0 0 0
5633 0 0 0
5719 0 0 0
5635 0 0 0
6542 0 0 0
7445 0 0 0
7565 0 0 0
7447 0 0 0
493 0 0 0
495 0 0 0
2699 0 0 0
7950 0 0 0
7955 0 0 0
7952 0 0 0
7948 0 0 0
5771 0 0 0
6544 0 0 0
6546 0 0 0
7874 0 0 0
586 0 0 0
1749 0 0 0
1747 0 0 0
5769 0 0 0
5767 0 0 0
5765 0 0 0
929 0 0 0
927 0 0 0
926 0 0 0
7519 0 0 0
7517 0 0 0
7516 0 0 0
6503 0 0 0
6501 0 0 0
6500 0 0 0
6611 0 0 0
7646 0 0 0
7650 0 0 0
7648 0 0 0
663 0 0 0
665 0 0 0
5686 0 0 0
5684 0 0 0
5683 0 0 0
2649 0 0 0
2646 0 0 0
2645 0 0 0
6649 0 0 0
6651 0 0 0
667 0 0 0
1797 0 0 0
1659 0 0 0
1658 0 0 0
1656 0 0 0
434 0 0 0
431 0 0 0
7870 0 0 0
7724 0 0 0
7726 0 0 0
7991 0 0 0
756 0 0 0
758 0 0 0
1835 0 0 0
2794 0 0 0
2792 0 0 0
2787 0 0 0
5764 0 0 0
5761 0 0 0
5760 0 0 0
821 0 0 0
917 0 0 0
912 0 0 0
6749 0 0 0
6748 0 0 0
6746 0 0 0
2741 0 0 0
6704 0 0 0
6706 0 0 0
7790 0 0 0
850 0 0 0
1903 0 0 0
2740 0 0 0
2738 0 0 0
822 0 0 0
820 0 0 0
7878 0 0 0
7622 0 0 0
7880 0 0 0
7882 0 0 0
985 0 0 0
1905 0 0 0
2747 0 0 0
7619 0 0 0
7615 0 0 0
560 0 0 0
558 0 0 0
556 0 0 0
6767 0 0 0
7884 0 0 0
995 0 0 0
997 0 0 0
999 0 0 0
1983 0 0 0
2853 0 0 0
7514 0 0 0
2855 0 0 0
7511 0 0 0
7508 0 0 0
6591 0 0 0
6590 0 0 0
6491 0 0 0
5679 0 0 0
5678 0 0 0
5803 0 0 0
5805 0 0 0
6874 0 0 0
6876 0 0 0
7997 0 0 0
7999 0 0 0
980 0 0 0
2090 0 0 0
3025 0 0 0
3583 0 0 0
4162 0 0 0
2722 0 0 0
5211 0 0 0
5949 0 0 0
7011 0 0 0
8147 0 0 0
1176 0 0 0
1178 0 0 0
1357 0 0 0
2217 0 0 0
3027 0 0 0
3029 0 0 0
3208 0 0 0
3710 0 0 0
4164 0 0 0
4166 0 0 0
4808 0 0 0
4810 0 0 0
5213 0 0 0
5215 0 0 0
6143 0 0 0
6145 0 0 0
7013 0 0 0
7015 0 0 0
8341 0 0 0
8343 0 0 0
987 0 0 0
2219 0 0 0
3209 0 0 0
3712 0 0 0
4319 0 0 0
4812 0 0 0
5313 0 0 0
6147 0 0 0
7126 0 0 0
8345 0 0 0
208 0 0 0
988 0 0 0
210 0 0 0
212 0 0 0
1493 0 0 0
1489 0 0 0
2441 0 0 0
2432 0 0 0
2443 0 0 0
2445 0 0 0
3344 0 0 0
3340 0 0 0
3923 0 0 0
3914 0 0 0
3925 0 0 0
4462 0 0 0
4464 0 0 0
4459 0 0 0
4979 0 0 0
4972 0 0 0
4981 0 0 0
5473 0 0 0
5475 0 0 0
5468 0 0 0
6342 0 0 0
6335 0 0 0
6344 0 0 0
7287 0 0 0
7289 0 0 0
7282 0 0 0
993 0 0 0
201 0 0 0
203 0 0 0
360 0 0 0
1495 0 0 0
1616 0 0 0
2446 0 0 0
2434 0 0 0
2436 0 0 0
2593 0 0 0
3346 0 0 0
3469 0 0 0
3927 0 0 0
3916 0 0 0
3918 0 0 0
4557 0 0 0
4466 0 0 0
4559 0 0 0
4982 0 0 0
4974 0 0 0
4976 0 0 0
5639 0 0 0
5477 0 0 0
5641 0 0 0
6346 0 0 0
6337 0 0 0
6339 0 0 0
7451 0 0 0
7291 0 0 0
7453 0 0 0
366 0 0 0
982 0 0 0
368 0 0 0
1618 0 0 0
2599 0 0 0
2594 0 0 0
2601 0 0 0
3471 0 0 0
4043 0 0 0
4039 0 0 0
4045 0 0 0
4561 0 0 0
5078 0 0 0
5074 0 0 0
5080 0 0 0
5643 0 0 0
6458 0 0 0
6454 0 0 0
6460 0 0 0
7455 0 0 0
986 0 0 0
499 0 0 0
370 0 0 0
501 0 0 0
1695 0 0 0
1623 0 0 0
2708 0 0 0
2702 0 0 0
2603 0 0 0
2704 0 0 0
2721 0 0 0
3476 0 0 0
2636 0 0 0
429 0 0 0
426 0 0 0
425 0 0 0
559 0 0 0
557 0 0 0
415 0 0 0
6744 0 0 0
5648 0 0 0
5090 0 0 0
5727 0 0 0
5650 0 0 0
6553 0 0 0
6548 0 0 0
7460 0 0 0
6550 0 0 0
7578 0 0 0
7462 0 0 0
509 0 0 0
1974 0 0 0
503 0 0 0
511 0 0 0
1691 0 0 0
1753 0 0 0
2710 0 0 0
2731 0 0 0
6743 0 0 0
6741 0 0 0
6684 0 0 0
6680 0 0 0
6737 0 0 0
1826 0 0 0
1824 0 0 0
1870 0 0 0
817 0 0 0
816 0 0 0
812 0 0 0
7778 0 0 0
7774 0 0 0
7770 0 0 0
5722 0 0 0
7777 0 0 0
6555 0 0 0
6615 0 0 0
7570 0 0 0
6557 0 0 0
7572 0 0 0
7654 0 0 0
1976 0 0 0
593 0 0 0
601 0 0 0
595 0 0 0
1760 0 0 0
1758 0 0 0
7773 0 0 0
7768 0 0 0
1827 0 0 0
1825 0 0 0
1822 0 0 0
729 0 0 0
725 0 0 0
722 0 0 0
7708 0 0 0
7705 0 0 0
7702 0 0 0
1787 0 0 0
1785 0 0 0
1783 0 0 0
730 0 0 0
726 0 0 0
720 0 0 0
642 0 0 0
6622 0 0 0
6617 0 0 0
7660 0 0 0
6619 0 0 0
7664 0 0 0
7662 0 0 0
678 0 0 0
671 0 0 0
680 0 0 0
1800 0 0 0
640 0 0 0
1977 0 0 0
7707 0 0 0
7704 0 0 0
7698 0 0 0
641 0 0 0
639 0 0 0
636 0 0 0
6589 0 0 0
6588 0 0 0
6584 0 0 0
554 0 0 0
6655 0 0 0
7730 0 0 0
6657 0 0 0
7732 0 0 0
1980 0 0 0
762 0 0 0
682 0 0 0
764 0 0 0
1805 0 0 0
1802 0 0 0
553 0 0 0
547 0 0 0
728 0 0 0
723 0 0 0
1981 0 0 0
7947 0 0 0
7944 0 0 0
7943 0 0 0
3419 0 0 0
3412 0 0 0
3413 0 0 0
3417 0 0 0
5163 0 0 0
5693 0 0 0
5572 0 0 0
5565 0 0 0
5566 0 0 0
5571 0 0 0
1728 0 0 0
6708 0 0 0
7739 0 0 0
6710 0 0 0
7741 0 0 0
7734 0 0 0
2844 0 0 0
772 0 0 0
766 0 0 0
774 0 0 0
1842 0 0 0
1838 0 0 0
1725 0 0 0
1726 0 0 0
1727 0 0 0
1724 0 0 0
7963 0 0 0
7964 0 0 0
6836 0 0 0
6839 0 0 0
6842 0 0 0
5103 0 0 0
5102 0 0 0
2795 0 0 0
1954 0 0 0
1955 0 0 0
1952 0 0 0
2820 0 0 0
2823 0 0 0
2826 0 0 0
741 0 0 0
6713 0 0 0
7794 0 0 0
6715 0 0 0
7801 0 0 0
7796 0 0 0
2842 0 0 0
857 0 0 0
865 0 0 0
859 0 0 0
1916 0 0 0
1909 0 0 0
743 0 0 0
748 0 0 0
2660 0 0 0
2517 0 0 0
2516 0 0 0
3421 0 0 0
3423 0 0 0
3427 0 0 0
3401 0 0 0
8077 0 0 0
8083 0 0 0
8078 0 0 0
7775 0 0 0
7772 0 0 0
7838 0 0 0
7624 0 0 0
7625 0 0 0
7626 0 0 0
6770 0 0 0
6772 0 0 0
7897 0 0 0
6774 0 0 0
7899 0 0 0
7888 0 0 0
2847 0 0 0
861 0 0 0
1918 0 0 0
1912 0 0 0
2749 0 0 0
1948 0 0 0
1949 0 0 0
1946 0 0 0
5694 0 0 0
5697 0 0 0
5590 0 0 0
5692 0 0 0
5560 0 0 0
5559 0 0 0
5699 0 0 0
5701 0 0 0
6777 0 0 0
7890 0 0 0
7901 0 0 0
7892 0 0 0
1011 0 0 0
2851 0 0 0
1013 0 0 0
1015 0 0 0
1991 0 0 0
1987 0 0 0
2865 0 0 0
2858 0 0 0
5703 0 0 0
2867 0 0 0
6683 0 0 0
6681 0 0 0
6677 0 0 0
1668 0 0 0
1669 0 0 0
1671 0 0 0
4118 0 0 0
1652 0 0 0
1653 0 0 0
1651 0 0 0
4096 0 0 0
5813 0 0 0
5815 0 0 0
5810 0 0 0
6885 0 0 0
6879 0 0 0
6887 0 0 0
8010 0 0 0
8012 0 0 0
8005 0 0 0
2845 0 0 0
1005 0 0 0
1007 0 0 0
1184 0 0 0
2099 0 0 0
2094 0 0 0
3040 0 0 0
2860 0 0 0
2862 0 0 0
3035 0 0 0
3592 0 0 0
3587 0 0 0
4173 0 0 0
727 0 0 0
724 0 0 0
4664 0 0 0
718 0 0 0
4666 0 0 0
5221 0 0 0
5043 0 0 0
5111 0 0 0
5954 0 0 0
5961 0 0 0
5956 0 0 0
7023 0 0 0
6881 0 0 0
6883 0 0 0
8152 0 0 0
8159 0 0 0
8154 0 0 0
1191 0 0 0
3484 0 0 0
1193 0 0 0
1372 0 0 0
2228 0 0 0
2096 0 0 0
3042 0 0 0
3036 0 0 0
3044 0 0 0
3223 0 0 0
3721 0 0 0
3589 0 0 0
4175 0 0 0
4170 0 0 0
4177 0 0 0
4821 0 0 0
4823 0 0 0
4668 0 0 0
5223 0 0 0
5218 0 0 0
5225 0 0 0
6160 0 0 0
6162 0 0 0
5958 0 0 0
7025 0 0 0
7019 0 0 0
7027 0 0 0
8358 0 0 0
8360 0 0 0
8156 0 0 0
5798 0 0 0
1364 0 0 0
1366 0 0 0
1368 0 0 0
2230 0 0 0
2224 0 0 0
3224 0 0 0
3215 0 0 0
3217 0 0 0
3219 0 0 0
3723 0 0 0
3717 0 0 0
4332 0 0 0
4325 0 0 0
4327 0 0 0
4816 0 0 0
4825 0 0 0
4818 0 0 0
5321 0 0 0
5317 0 0 0
5319 0 0 0
6153 0 0 0
6164 0 0 0
6155 0 0 0
7135 0 0 0
7130 0 0 0
7132 0 0 0
8351 0 0 0
8362 0 0 0
8353 0 0 0
7 0 0 0
11 0 0 0
16 0 0 0
1209 0 0 0
1 0 0 0
214 0 0 0
2 0 0 0
13 0 0 0
1206 0 0 0
1212 0 0 0
8 0 0 0
17 0 0 0
1382 0 0 0
1384 0 0 0
1381 0 0 0
1387 0 0 0
1497 0 0 0
1380 0 0 0
1378 0 0 0
2240 0 0 0
2244 0 0 0
2249 0 0 0
3060 0 0 0
2447 0 0 0
2235 0 0 0
2246 0 0 0
3057 0 0 0
3063 0 0 0
2241 0 0 0
2250 0 0 0
3233 0 0 0
3235 0 0 0
3232 0 0 0
3238 0 0 0
3348 0 0 0
3229 0 0 0
3231 0 0 0
3733 0 0 0
3741 0 0 0
4190 0 0 0
3737 0 0 0
3928 0 0 0
3728 0 0 0
3739 0 0 0
4188 0 0 0
4193 0 0 0
3734 0 0 0
3742 0 0 0
4342 0 0 0
4344 0 0 0
4340 0 0 0
4347 0 0 0
4468 0 0 0
4337 0 0 0
4339 0 0 0
4834 0 0 0
4840 0 0 0
5234 0 0 0
4837 0 0 0
4983 0 0 0
4830 0 0 0
5329 0 0 0
5972 0 0 0
5981 0 0 0
5328 0 0 0
5336 0 0 0
5331 0 0 0
5333 0 0 0
5327 0 0 0
5335 0 0 0
5478 0 0 0
5324 0 0 0
6169 0 0 0
6175 0 0 0
6182 0 0 0
7037 0 0 0
6178 0 0 0
6347 0 0 0
6171 0 0 0
7143 0 0 0
8170 0 0 0
8179 0 0 0
7142 0 0 0
7150 0 0 0
7145 0 0 0
7147 0 0 0
7141 0 0 0
7149 0 0 0
7292 0 0 0
7138 0 0 0
15 0 0 0
9 0 0 0
222 0 0 0
18 0 0 0
216 0 0 0
4 0 0 0
215 0 0 0
6 0 0 0
371 0 0 0
220 0 0 0
1498 0 0 0
1386 0 0 0
1503 0 0 0
1507 0 0 0
1500 0 0 0
1624 0 0 0
2242 0 0 0
2455 0 0 0
2251 0 0 0
2449 0 0 0
2237 0 0 0
2448 0 0 0
2239 0 0 0
2604 0 0 0
2453 0 0 0
3349 0 0 0
3354 0 0 0
3358 0 0 0
3237 0 0 0
3351 0 0 0
3477 0 0 0
3735 0 0 0
3934 0 0 0
3743 0 0 0
3930 0 0 0
3730 0 0 0
3929 0 0 0
3732 0 0 0
4047 0 0 0
3932 0 0 0
4470 0 0 0
4475 0 0 0
4476 0 0 0
4346 0 0 0
4472 0 0 0
4564 0 0 0
4835 0 0 0
4988 0 0 0
4841 0 0 0
4984 0 0 0
4832 0 0 0
5479 0 0 0
5326 0 0 0
5652 0 0 0
5486 0 0 0
5481 0 0 0
5485 0 0 0
5492 0 0 0
6180 0 0 0
5483 0 0 0
5651 0 0 0
6176 0 0 0
6353 0 0 0
6183 0 0 0
6348 0 0 0
6173 0 0 0
7293 0 0 0
7140 0 0 0
7464 0 0 0
7300 0 0 0
7295 0 0 0
7299 0 0 0
7306 0 0 0
7297 0 0 0
7463 0 0 0
221 0 0 0
224 0 0 0
229 0 0 0
218 0 0 0
219 0 0 0
372 0 0 0
226 0 0 0
228 0 0 0
1625 0 0 0
1502 0 0 0
1504 0 0 0
2454 0 0 0
2457 0 0 0
2462 0 0 0
2452 0 0 0
2605 0 0 0
2459 0 0 0
2461 0 0 0
3478 0 0 0
3355 0 0 0
3353 0 0 0
3933 0 0 0
3940 0 0 0
3936 0 0 0
6829 0 0 0
4048 0 0 0
3938 0 0 0
3939 0 0 0
6830 0 0 0
6942 0 0 0
4474 0 0 0
4987 0 0 0
4992 0 0 0
4990 0 0 0
4986 0 0 0
5081 0 0 0
5488 0 0 0
5493 0 0 0
5653 0 0 0
5487 0 0 0
6349 0 0 0
6352 0 0 0
6357 0 0 0
6355 0 0 0
6351 0 0 0
6461 0 0 0
7302 0 0 0
7307 0 0 0
7465 0 0 0
7301 0 0 0
381 0 0 0
382 0 0 0
379 0 0 0
387 0 0 0
513 0 0 0
374 0 0 0
378 0 0 0
1505 0 0 0
386 0 0 0
512 0 0 0
376 0 0 0
1632 0 0 0
1630 0 0 0
1629 0 0 0
1633 0 0 0
1508 0 0 0
2613 0 0 0
2611 0 0 0
2616 0 0 0
2712 0 0 0
2607 0 0 0
2610 0 0 0
3356 0 0 0
2615 0 0 0
2711 0 0 0
2609 0 0 0
1786 0 0 0
1784 0 0 0
1781 0 0 0
7521 0 0 0
3359 0 0 0
7522 0 0 0
7363 0 0 0
7959 0 0 0
7960 0 0 0
8086 0 0 0
1666 0 0 0
1667 0 0 0
1579 0 0 0
7845 0 0 0
6812 0 0 0
6811 0 0 0
7776 0 0 0
6682 0 0 0
6679 0 0 0
5027 0 0 0
5032 0 0 0
5031 0 0 0
7858 0 0 0
7860 0 0 0
7865 0 0 0
5656 0 0 0
5660 0 0 0
5490 0 0 0
5728 0 0 0
923 0 0 0
5658 0 0 0
5657 0 0 0
5661 0 0 0
6466 0 0 0
5494 0 0 0
6468 0 0 0
6465 0 0 0
6472 0 0 0
6558 0 0 0
6463 0 0 0
7471 0 0 0
7476 0 0 0
7304 0 0 0
7579 0 0 0
7466 0 0 0
7474 0 0 0
7472 0 0 0
7477 0 0 0
7308 0 0 0
521 0 0 0
384 0 0 0
527 0 0 0
515 0 0 0
516 0 0 0
603 0 0 0
514 0 0 0
380 0 0 0
1626 0 0 0
524 0 0 0
388 0 0 0
1628 0 0 0
1697 0 0 0
1762 0 0 0
1700 0 0 0
1699 0 0 0
2714 0 0 0
924 0 0 0
2715 0 0 0
5794 0 0 0
2733 0 0 0
5774 0 0 0
5775 0 0 0
5888 0 0 0
6520 0 0 0
6522 0 0 0
6524 0 0 0
5575 0 0 0
5578 0 0 0
5583 0 0 0
5776 0 0 0
5777 0 0 0
5901 0 0 0
6820 0 0 0
6821 0 0 0
6815 0 0 0
6405 0 0 0
6406 0 0 0
6408 0 0 0
831 0 0 0
832 0 0 0
835 0 0 0
1886 0 0 0
2744 0 0 0
2745 0 0 0
8090 0 0 0
8091 0 0 0
8092 0 0 0
7627 0 0 0
7629 0 0 0
7632 0 0 0
7509 0 0 0
7510 0 0 0
7506 0 0 0
3999 0 0 0
7706 0 0 0
5655 0 0 0
5729 0 0 0
7703 0 0 0
7700 0 0 0
6559 0 0 0
6565 0 0 0
6568 0 0 0
6470 0 0 0
6561 0 0 0
6623 0 0 0
7581 0 0 0
7473 0 0 0
7468 0 0 0
7587 0 0 0
7478 0 0 0
7470 0 0 0
7580 0 0 0
7665 0 0 0
7584 0 0 0
526 0 0 0
612 0 0 0
523 0 0 0
529 0 0 0
605 0 0 0
518 0 0 0
522 0 0 0
1702 0 0 0
528 0 0 0
604 0 0 0
520 0 0 0
1701 0 0 0
1708 0 0 0
1706 0 0 0
1704 0 0 0
1707 0 0 0
7529 0 0 0
7532 0 0 0
7400 0 0 0
2804 0 0 0
2805 0 0 0
2936 0 0 0
1660 0 0 0
1661 0 0 0
1550 0 0 0
5892 0 0 0
5893 0 0 0
5894 0 0 0
3538 0 0 0
463 0 0 0
466 0 0 0
471 0 0 0
2665 0 0 0
2669 0 0 0
2672 0 0 0
8356 0 0 0
8352 0 0 0
8350 0 0 0
7131 0 0 0
7133 0 0 0
7134 0 0 0
6158 0 0 0
6154 0 0 0
6152 0 0 0
5318 0 0 0
5320 0 0 0
4826 0 0 0
4820 0 0 0
4817 0 0 0
4328 0 0 0
4326 0 0 0
4330 0 0 0
3724 0 0 0
3719 0 0 0
3716 0 0 0
3218 0 0 0
3216 0 0 0
3221 0 0 0
2226 0 0 0
2231 0 0 0
2223 0 0 0
6626 0 0 0
6566 0 0 0
6569 0 0 0
6624 0 0 0
6563 0 0 0
7585 0 0 0
7594 0 0 0
7589 0 0 0
7666 0 0 0
7583 0 0 0
7586 0 0 0
7595 0 0 0
7591 0 0 0
7593 0 0 0
610 0 0 0
614 0 0 0
619 0 0 0
683 0 0 0
609 0 0 0
1764 0 0 0
616 0 0 0
618 0 0 0
1763 0 0 0
1766 0 0 0
1367 0 0 0
1365 0 0 0
1370 0 0 0
1373 0 0 0
8354 0 0 0
8361 0 0 0
8359 0 0 0
8355 0 0 0
8160 0 0 0
7129 0 0 0
7026 0 0 0
7021 0 0 0
7018 0 0 0
6156 0 0 0
6163 0 0 0
6161 0 0 0
6157 0 0 0
5962 0 0 0
5316 0 0 0
5224 0 0 0
5220 0 0 0
4669 0 0 0
4819 0 0 0
4824 0 0 0
4822 0 0 0
4329 0 0 0
4178 0 0 0
4324 0 0 0
4176 0 0 0
4172 0 0 0
6625 0 0 0
6630 0 0 0
6628 0 0 0
7742 0 0 0
7673 0 0 0
7669 0 0 0
7676 0 0 0
7680 0 0 0
7667 0 0 0
7671 0 0 0
607 0 0 0
608 0 0 0
684 0 0 0
775 0 0 0
691 0 0 0
687 0 0 0
611 0 0 0
1769 0 0 0
620 0 0 0
689 0 0 0
685 0 0 0
1811 0 0 0
1768 0 0 0
1771 0 0 0
1806 0 0 0
3590 0 0 0
3718 0 0 0
3722 0 0 0
3720 0 0 0
3220 0 0 0
3045 0 0 0
3214 0 0 0
3043 0 0 0
3039 0 0 0
2097 0 0 0
2225 0 0 0
2229 0 0 0
2227 0 0 0
1369 0 0 0
1194 0 0 0
1363 0 0 0
1185 0 0 0
1192 0 0 0
1188 0 0 0
8155 0 0 0
8157 0 0 0
8153 0 0 0
8158 0 0 0
8151 0 0 0
6882 0 0 0
7024 0 0 0
7020 0 0 0
5957 0 0 0
7022 0 0 0
5959 0 0 0
5955 0 0 0
5960 0 0 0
5953 0 0 0
5110 0 0 0
5222 0 0 0
5219 0 0 0
4667 0 0 0
4671 0 0 0
4670 0 0 0
4665 0 0 0
4171 0 0 0
4174 0 0 0
3588 0 0 0
3593 0 0 0
3591 0 0 0
3586 0 0 0
3038 0 0 0
6658 0 0 0
3034 0 0 0
2861 0 0 0
6660 0 0 0
7675 0 0 0
7682 0 0 0
7678 0 0 0
7745 0 0 0
7744 0 0 0
7752 0 0 0
7674 0 0 0
7681 0 0 0
7743 0 0 0
694 0 0 0
695 0 0 0
699 0 0 0
693 0 0 0
701 0 0 0
697 0 0 0
776 0 0 0
692 0 0 0
1807 0 0 0
787 0 0 0
700 0 0 0
3041 0 0 0
1810 0 0 0
1813 0 0 0
1843 0 0 0
1809 0 0 0
3037 0 0 0
2095 0 0 0
2098 0 0 0
2100 0 0 0
2093 0 0 0
1187 0 0 0
1183 0 0 0
1006 0 0 0
1190 0 0 0
1186 0 0 0
1189 0 0 0
8007 0 0 0
8013 0 0 0
8011 0 0 0
8008 0 0 0
8009 0 0 0
6880 0 0 0
6886 0 0 0
6884 0 0 0
6878 0 0 0
5811 0 0 0
5816 0 0 0
5814 0 0 0
5812 0 0 0
3486 0 0 0
2864 0 0 0
2859 0 0 0
2866 0 0 0
2863 0 0 0
1988 0 0 0
1989 0 0 0
1992 0 0 0
1990 0 0 0
1010 0 0 0
1014 0 0 0
1004 0 0 0
1003 0 0 0
1012 0 0 0
1009 0 0 0
8004 0 0 0
7895 0 0 0
7891 0 0 0
8006 0 0 0
6778 0 0 0
5809 0 0 0
6663 0 0 0
6776 0 0 0
6662 0 0 0
6667 0 0 0
6665 0 0 0
7803 0 0 0
7751 0 0 0
7747 0 0 0
7812 0 0 0
7755 0 0 0
7750 0 0 0
7754 0 0 0
7802 0 0 0
7749 0 0 0
778 0 0 0
777 0 0 0
779 0 0 0
869 0 0 0
786 0 0 0
781 0 0 0
785 0 0 0
1850 0 0 0
791 0 0 0
783 0 0 0
868 0 0 0
1852 0 0 0
1848 0 0 0
1855 0 0 0
1920 0 0 0
1845 0 0 0
2750 0 0 0
1986 0 0 0
1914 0 0 0
1919 0 0 0
1911 0 0 0
1008 0 0 0
867 0 0 0
866 0 0 0
7893 0 0 0
7900 0 0 0
7889 0 0 0
7898 0 0 0
7894 0 0 0
6773 0 0 0
6775 0 0 0
6771 0 0 0
1910 0 0 0
1913 0 0 0
1917 0 0 0
860 0 0 0
1915 0 0 0
862 0 0 0
858 0 0 0
863 0 0 0
856 0 0 0
855 0 0 0
7797 0 0 0
7798 0 0 0
7896 0 0 0
7795 0 0 0
7799 0 0 0
6714 0 0 0
6711 0 0 0
6712 0 0 0
1839 0 0 0
1840 0 0 0
864 0 0 0
1837 0 0 0
768 0 0 0
773 0 0 0
769 0 0 0
771 0 0 0
770 0 0 0
7736 0 0 0
7800 0 0 0
6716 0 0 0
6718 0 0 0
6779 0 0 0
6722 0 0 0
6720 0 0 0
7810 0 0 0
7819 0 0 0
7814 0 0 0
7805 0 0 0
7903 0 0 0
7816 0 0 0
7809 0 0 0
7818 0 0 0
7902 0 0 0
789 0 0 0
790 0 0 0
792 0 0 0
1016 0 0 0
875 0 0 0
1846 0 0 0
1854 0 0 0
1849 0 0 0
1856 0 0 0
1922 0 0 0
1921 0 0 0
2735 0 0 0
7793 0 0 0
7740 0 0 0
7737 0 0 0
6709 0 0 0
1803 0 0 0
1841 0 0 0
765 0 0 0
1804 0 0 0
676 0 0 0
763 0 0 0
767 0 0 0
673 0 0 0
672 0 0 0
7733 0 0 0
7738 0 0 0
7731 0 0 0
7735 0 0 0
6656 0 0 0
6653 0 0 0
1801 0 0 0
681 0 0 0
1799 0 0 0
674 0 0 0
679 0 0 0
675 0 0 0
7663 0 0 0
6723 0 0 0
5730 0 0 0
7658 0 0 0
6725 0 0 0
6726 0 0 0
8014 0 0 0
7907 0 0 0
7807 0 0 0
7811 0 0 0
7820 0 0 0
7905 0 0 0
7904 0 0 0
876 0 0 0
879 0 0 0
884 0 0 0
870 0 0 0
1017 0 0 0
871 0 0 0
881 0 0 0
883 0 0 0
877 0 0 0
1926 0 0 0
885 0 0 0
1928 0 0 0
1925 0 0 0
1929 0 0 0
1993 0 0 0
1924 0 0 0
2756 0 0 0
2759 0 0 0
2761 0 0 0
2868 0 0 0
2752 0 0 0
7655 0 0 0
7661 0 0 0
2757 0 0 0
7657 0 0 0
2762 0 0 0
3479 0 0 0
6618 0 0 0
6621 0 0 0
6654 0 0 0
1759 0 0 0
1761 0 0 0
1756 0 0 0
596 0 0 0
1757 0 0 0
598 0 0 0
594 0 0 0
599 0 0 0
677 0 0 0
602 0 0 0
7656 0 0 0
7573 0 0 0
7659 0 0 0
7571 0 0 0
7576 0 0 0
6616 0 0 0
6556 0 0 0
6620 0 0 0
6614 0 0 0
5723 0 0 0
2732 0 0 0
1754 0 0 0
1755 0 0 0
5733 0 0 0
5739 0 0 0
5735 0 0 0
5737 0 0 0
5732 0 0 0
5738 0 0 0
5817 0 0 0
6780 0 0 0
6786 0 0 0
6790 0 0 0
6788 0 0 0
6888 0 0 0
6782 0 0 0
7910 0 0 0
7915 0 0 0
7909 0 0 0
7917 0 0 0
7912 0 0 0
7914 0 0 0
7908 0 0 0
7916 0 0 0
8015 0 0 0
1025 0 0 0
1022 0 0 0
1026 0 0 0
1031 0 0 0
1195 0 0 0
873 0 0 0
1019 0 0 0
1018 0 0 0
1196 0 0 0
1023 0 0 0
1994 0 0 0
2001 0 0 0
1999 0 0 0
2002 0 0 0
1996 0 0 0
2101 0 0 0
2873 0 0 0
2877 0 0 0
2882 0 0 0
3046 0 0 0
2754 0 0 0
2870 0 0 0
2869 0 0 0
3047 0 0 0
2874 0 0 0
3487 0 0 0
3492 0 0 0
3495 0 0 0
3494 0 0 0
3489 0 0 0
3594 0 0 0
1692 0 0 0
4053 0 0 0
600 0 0 0
1690 0 0 0
506 0 0 0
592 0 0 0
591 0 0 0
4179 0 0 0
4050 0 0 0
4566 0 0 0
4571 0 0 0
4573 0 0 0
4572 0 0 0
4568 0 0 0
4672 0 0 0
5113 0 0 0
5116 0 0 0
5120 0 0 0
5226 0 0 0
5091 0 0 0
5819 0 0 0
5818 0 0 0
5964 0 0 0
5826 0 0 0
5821 0 0 0
5825 0 0 0
5829 0 0 0
6893 0 0 0
5823 0 0 0
5963 0 0 0
6891 0 0 0
6895 0 0 0
6899 0 0 0
7028 0 0 0
6784 0 0 0
8017 0 0 0
8016 0 0 0
8162 0 0 0
8024 0 0 0
8019 0 0 0
8023 0 0 0
8027 0 0 0
8021 0 0 0
8161 0 0 0
1024 0 0 0
1028 0 0 0
1033 0 0 0
1021 0 0 0
1197 0 0 0
1198 0 0 0
1030 0 0 0
1032 0 0 0
1204 0 0 0
1210 0 0 0
2106 0 0 0
2108 0 0 0
2104 0 0 0
2111 0 0 0
2232 0 0 0
1998 0 0 0
2875 0 0 0
2879 0 0 0
2884 0 0 0
3048 0 0 0
3049 0 0 0
2881 0 0 0
2883 0 0 0
3055 0 0 0
3061 0 0 0
3599 0 0 0
3601 0 0 0
3597 0 0 0
3604 0 0 0
3725 0 0 0
3491 0 0 0
4051 0 0 0
4059 0 0 0
4055 0 0 0
4180 0 0 0
4181 0 0 0
4057 0 0 0
4058 0 0 0
4186 0 0 0
4191 0 0 0
4679 0 0 0
4681 0 0 0
4676 0 0 0
4684 0 0 0
4827 0 0 0
4570 0 0 0
5114 0 0 0
5121 0 0 0
5118 0 0 0
5227 0 0 0
5228 0 0 0
5828 0 0 0
5830 0 0 0
5970 0 0 0
5979 0 0 0
5974 0 0 0
5976 0 0 0
5969 0 0 0
5978 0 0 0
6165 0 0 0
6889 0 0 0
6892 0 0 0
6900 0 0 0
6897 0 0 0
7029 0 0 0
7030 0 0 0
8026 0 0 0
8028 0 0 0
8168 0 0 0
8177 0 0 0
8172 0 0 0
8174 0 0 0
8167 0 0 0
8176 0 0 0
8363 0 0 0
1208 0 0 0
1205 0 0 0
1211 0 0 0
1376 0 0 0
1200 0 0 0
1375 0 0 0
1202 0 0 0
1377 0 0 0
2102 0 0 0
2110 0 0 0
2105 0 0 0
2112 0 0 0
2233 0 0 0
3056 0 0 0
3062 0 0 0
3227 0 0 0
3051 0 0 0
3226 0 0 0
3053 0 0 0
3228 0 0 0
3595 0 0 0
3598 0 0 0
3605 0 0 0
3603 0 0 0
3726 0 0 0
4187 0 0 0
4192 0 0 0
4335 0 0 0
4183 0 0 0
4334 0 0 0
4185 0 0 0
4336 0 0 0
4674 0 0 0
4677 0 0 0
4685 0 0 0
4683 0 0 0
4828 0 0 0
5232 0 0 0
5235 0 0 0
5323 0 0 0
5230 0 0 0
6166 0 0 0
5965 0 0 0
6168 0 0 0
5967 0 0 0
5971 0 0 0
5980 0 0 0
7035 0 0 0
6167 0 0 0
7034 0 0 0
7038 0 0 0
7137 0 0 0
7032 0 0 0
8364 0 0 0
8163 0 0 0
8366 0 0 0
8165 0 0 0
8169 0 0 0
8178 0 0 0
8365 0 0 0
19 0 0 0
25 0 0 0
20 0 0 0
1390 0 0 0
1391 0 0 0
1388 0 0 0
2258 0 0 0
2253 0 0 0
3242 0 0 0
3239 0 0 0
3241 0 0 0
3750 0 0 0
3745 0 0 0
4351 0 0 0
4348 0 0 0
4350 0 0 0
4847 0 0 0
4843 0 0 0
5340 0 0 0
5337 0 0 0
6184 0 0 0
6190 0 0 0
6186 0 0 0
7154 0 0 0
7151 0 0 0
27 0 0 0
22 0 0 0
26 0 0 0
24 0 0 0
233 0 0 0
1509 0 0 0
1511 0 0 0
1514 0 0 0
2260 0 0 0
2255 0 0 0
2259 0 0 0
2257 0 0 0
2466 0 0 0
3360 0 0 0
3362 0 0 0
3365 0 0 0
3752 0 0 0
3747 0 0 0
3751 0 0 0
3749 0 0 0
3942 0 0 0
4478 0 0 0
4480 0 0 0
4483 0 0 0
4848 0 0 0
4845 0 0 0
5341 0 0 0
5339 0 0 0
5501 0 0 0
5496 0 0 0
5498 0 0 0
5500 0 0 0
6191 0 0 0
6188 0 0 0
7155 0 0 0
7153 0 0 0
7315 0 0 0
7310 0 0 0
7312 0 0 0
7314 0 0 0
231 0 0 0
232 0 0 0
234 0 0 0
1513 0 0 0
1515 0 0 0
2465 0 0 0
2467 0 0 0
3366 0 0 0
3364 0 0 0
510 0 0 0
3943 0 0 0
597 0 0 0
4482 0 0 0
4994 0 0 0
4995 0 0 0
5502 0 0 0
6358 0 0 0
6360 0 0 0
6361 0 0 0
7316 0 0 0
395 0 0 0
390 0 0 0
394 0 0 0
392 0 0 0
2622 0 0 0
2618 0 0 0
2621 0 0 0
2620 0 0 0
7575 0 0 0
7577 0 0 0
7569 0 0 0
7461 0 0 0
7574 0 0 0
6549 0 0 0
5664 0 0 0
6551 0 0 0
6476 0 0 0
6474 0 0 0
7484 0 0 0
7479 0 0 0
530 0 0 0
531 0 0 0
536 0 0 0
396 0 0 0
1634 0 0 0
1636 0 0 0
1637 0 0 0
1711 0 0 0
1710 0 0 0
6554 0 0 0
2717 0 0 0
6552 0 0 0
5725 0 0 0
5726 0 0 0
5649 0 0 0
5724 0 0 0
2705 0 0 0
3475 0 0 0
2706 0 0 0
2703 0 0 0
2707 0 0 0
2709 0 0 0
1693 0 0 0
1694 0 0 0
1696 0 0 0
502 0 0 0
1622 0 0 0
504 0 0 0
500 0 0 0
5663 0 0 0
5665 0 0 0
505 0 0 0
6570 0 0 0
6572 0 0 0
6576 0 0 0
7486 0 0 0
7481 0 0 0
7483 0 0 0
7485 0 0 0
7598 0 0 0
538 0 0 0
533 0 0 0
537 0 0 0
535 0 0 0
508 0 0 0
507 0 0 0
7458 0 0 0
7459 0 0 0
6455 0 0 0
6459 0 0 0
6456 0 0 0
6453 0 0 0
5646 0 0 0
5647 0 0 0
5075 0 0 0
5079 0 0 0
6577 0 0 0
6574 0 0 0
7599 0 0 0
7597 0 0 0
624 0 0 0
1772 0 0 0
1712 0 0 0
1774 0 0 0
5076 0 0 0
4562 0 0 0
4046 0 0 0
4044 0 0 0
4041 0 0 0
3472 0 0 0
3474 0 0 0
2602 0 0 0
2595 0 0 0
2600 0 0 0
2597 0 0 0
1621 0 0 0
7688 0 0 0
7684 0 0 0
7600 0 0 0
7686 0 0 0
622 0 0 0
623 0 0 0
625 0 0 0
707 0 0 0
703 0 0 0
705 0 0 0
626 0 0 0
1619 0 0 0
1776 0 0 0
369 0 0 0
362 0 0 0
361 0 0 0
367 0 0 0
364 0 0 0
7454 0 0 0
7456 0 0 0
7452 0 0 0
7457 0 0 0
7283 0 0 0
6338 0 0 0
6457 0 0 0
6341 0 0 0
5642 0 0 0
6345 0 0 0
5644 0 0 0
5640 0 0 0
5645 0 0 0
5469 0 0 0
4975 0 0 0
5077 0 0 0
4978 0 0 0
4560 0 0 0
4467 0 0 0
4563 0 0 0
6631 0 0 0
4558 0 0 0
6669 0 0 0
7756 0 0 0
7690 0 0 0
7689 0 0 0
708 0 0 0
1814 0 0 0
1817 0 0 0
1816 0 0 0
4040 0 0 0
3919 0 0 0
3917 0 0 0
4042 0 0 0
3922 0 0 0
3470 0 0 0
3347 0 0 0
3473 0 0 0
3468 0 0 0
2596 0 0 0
2437 0 0 0
2435 0 0 0
7762 0 0 0
7758 0 0 0
7761 0 0 0
7760 0 0 0
793 0 0 0
709 0 0 0
794 0 0 0
801 0 0 0
796 0 0 0
798 0 0 0
800 0 0 0
1858 0 0 0
1861 0 0 0
2598 0 0 0
2440 0 0 0
1617 0 0 0
1620 0 0 0
1496 0 0 0
1615 0 0 0
363 0 0 0
204 0 0 0
202 0 0 0
365 0 0 0
207 0 0 0
213 0 0 0
7281 0 0 0
7284 0 0 0
7290 0 0 0
7288 0 0 0
7285 0 0 0
8357 0 0 0
7286 0 0 0
6336 0 0 0
6343 0 0 0
7136 0 0 0
6340 0 0 0
6334 0 0 0
6671 0 0 0
6728 0 0 0
6732 0 0 0
6730 0 0 0
7822 0 0 0
7827 0 0 0
7826 0 0 0
891 0 0 0
1859 0 0 0
1930 0 0 0
1862 0 0 0
5467 0 0 0
5470 0 0 0
5476 0 0 0
5474 0 0 0
5471 0 0 0
6159 0 0 0
5472 0 0 0
4973 0 0 0
4980 0 0 0
5322 0 0 0
5740 0 0 0
4977 0 0 0
7920 0 0 0
7824 0 0 0
7918 0 0 0
7828 0 0 0
886 0 0 0
892 0 0 0
887 0 0 0
1932 0 0 0
1933 0 0 0
2768 0 0 0
2764 0 0 0
4460 0 0 0
4458 0 0 0
4461 0 0 0
4465 0 0 0
4463 0 0 0
3921 0 0 0
4331 0 0 0
3926 0 0 0
5742 0 0 0
6791 0 0 0
6797 0 0 0
6793 0 0 0
7921 0 0 0
1037 0 0 0
889 0 0 0
1034 0 0 0
893 0 0 0
1038 0 0 0
2003 0 0 0
2005 0 0 0
2008 0 0 0
2888 0 0 0
2766 0 0 0
2885 0 0 0
2769 0 0 0
2889 0 0 0
3496 0 0 0
3498 0 0 0
3501 0 0 0
3915 0 0 0
3924 0 0 0
4333 0 0 0
3920 0 0 0
4061 0 0 0
4575 0 0 0
4577 0 0 0
4580 0 0 0
5123 0 0 0
5093 0 0 0
5831 0 0 0
5743 0 0 0
5838 0 0 0
5833 0 0 0
5835 0 0 0
5837 0 0 0
6903 0 0 0
6795 0 0 0
8029 0 0 0
7922 0 0 0
8036 0 0 0
8031 0 0 0
8033 0 0 0
8035 0 0 0
1036 0 0 0
1039 0 0 0
1213 0 0 0
2007 0 0 0
2115 0 0 0
2890 0 0 0
3064 0 0 0
3608 0 0 0
3500 0 0 0
4062 0 0 0
4194 0 0 0
4689 0 0 0
4579 0 0 0
5124 0 0 0
5236 0 0 0
5986 0 0 0
6901 0 0 0
6904 0 0 0
7039 0 0 0
8184 0 0 0
1220 0 0 0
1215 0 0 0
1219 0 0 0
1217 0 0 0
1221 0 0 0
2113 0 0 0
2116 0 0 0
3071 0 0 0
3066 0 0 0
3070 0 0 0
3068 0 0 0
3072 0 0 0
3606 0 0 0
3609 0 0 0
4200 0 0 0
4196 0 0 0
4199 0 0 0
4198 0 0 0
4201 0 0 0
4687 0 0 0
4690 0 0 0
5240 0 0 0
5238 0 0 0
5987 0 0 0
5982 0 0 0
5989 0 0 0
5984 0 0 0
5988 0 0 0
7043 0 0 0
7041 0 0 0
8185 0 0 0
8180 0 0 0
8187 0 0 0
8182 0 0 0
8186 0 0 0
34 0 0 0
29 0 0 0
1224 0 0 0
37 0 0 0
38 0 0 0
43 0 0 0
31 0 0 0
1227 0 0 0
35 0 0 0
1392 0 0 0
1394 0 0 0
1397 0 0 0
1400 0 0 0
1398 0 0 0
1401 0 0 0
2267 0 0 0
2262 0 0 0
3075 0 0 0
2271 0 0 0
2276 0 0 0
2264 0 0 0
3078 0 0 0
2268 0 0 0
3243 0 0 0
3245 0 0 0
3248 0 0 0
3249 0 0 0
3252 0 0 0
3251 0 0 0
3758 0 0 0
4203 0 0 0
3754 0 0 0
3762 0 0 0
3767 0 0 0
3756 0 0 0
4206 0 0 0
3759 0 0 0
4353 0 0 0
4355 0 0 0
4358 0 0 0
4359 0 0 0
4362 0 0 0
4361 0 0 0
4853 0 0 0
5242 0 0 0
4850 0 0 0
4856 0 0 0
4860 0 0 0
5342 0 0 0
5998 0 0 0
5349 0 0 0
5344 0 0 0
5346 0 0 0
5348 0 0 0
5350 0 0 0
5353 0 0 0
6199 0 0 0
6197 0 0 0
7046 0 0 0
6193 0 0 0
6201 0 0 0
6205 0 0 0
7156 0 0 0
8196 0 0 0
7163 0 0 0
7158 0 0 0
7160 0 0 0
7162 0 0 0
7164 0 0 0
7167 0 0 0
33 0 0 0
36 0 0 0
235 0 0 0
40 0 0 0
45 0 0 0
42 0 0 0
44 0 0 0
241 0 0 0
246 0 0 0
1520 0 0 0
1396 0 0 0
1518 0 0 0
1522 0 0 0
1525 0 0 0
2269 0 0 0
2468 0 0 0
2273 0 0 0
2278 0 0 0
2275 0 0 0
2277 0 0 0
2474 0 0 0
2479 0 0 0
3371 0 0 0
3369 0 0 0
3247 0 0 0
3373 0 0 0
3376 0 0 0
3760 0 0 0
3944 0 0 0
3769 0 0 0
3764 0 0 0
3766 0 0 0
3768 0 0 0
3949 0 0 0
3952 0 0 0
4486 0 0 0
4484 0 0 0
4357 0 0 0
4488 0 0 0
4491 0 0 0
4854 0 0 0
4996 0 0 0
4861 0 0 0
4858 0 0 0
5352 0 0 0
5354 0 0 0
5508 0 0 0
5516 0 0 0
5511 0 0 0
5507 0 0 0
6195 0 0 0
5513 0 0 0
5515 0 0 0
6198 0 0 0
6362 0 0 0
6206 0 0 0
6203 0 0 0
7166 0 0 0
7168 0 0 0
7322 0 0 0
7330 0 0 0
7325 0 0 0
7321 0 0 0
7327 0 0 0
7329 0 0 0
242 0 0 0
237 0 0 0
244 0 0 0
245 0 0 0
247 0 0 0
239 0 0 0
1519 0 0 0
1524 0 0 0
1526 0 0 0
2475 0 0 0
2470 0 0 0
2478 0 0 0
2480 0 0 0
2472 0 0 0
3370 0 0 0
3377 0 0 0
3375 0 0 0
3950 0 0 0
3946 0 0 0
3341 0 0 0
3953 0 0 0
3948 0 0 0
3339 0 0 0
3342 0 0 0
4490 0 0 0
5000 0 0 0
4998 0 0 0
5002 0 0 0
5003 0 0 0
5503 0 0 0
5509 0 0 0
5517 0 0 0
6367 0 0 0
6366 0 0 0
6364 0 0 0
6369 0 0 0
6370 0 0 0
7317 0 0 0
7323 0 0 0
7331 0 0 0
397 0 0 0
398 0 0 0
403 0 0 0
406 0 0 0
411 0 0 0
402 0 0 0
1516 0 0 0
408 0 0 0
410 0 0 0
1640 0 0 0
1638 0 0 0
1641 0 0 0
2624 0 0 0
2627 0 0 0
2629 0 0 0
2633 0 0 0
2626 0 0 0
3367 0 0 0
2631 0 0 0
2632 0 0 0
3345 0 0 0
3343 0 0 0
2439 0 0 0
3222 0 0 0
2444 0 0 0
2433 0 0 0
3225 0 0 0
2442 0 0 0
2438 0 0 0
1488 0 0 0
1490 0 0 0
1491 0 0 0
1494 0 0 0
1492 0 0 0
206 0 0 0
1371 0 0 0
211 0 0 0
200 0 0 0
5668 0 0 0
5505 0 0 0
199 0 0 0
5672 0 0 0
5666 0 0 0
5669 0 0 0
6477 0 0 0
6479 0 0 0
6483 0 0 0
6487 0 0 0
6485 0 0 0
7489 0 0 0
7319 0 0 0
7492 0 0 0
7497 0 0 0
7487 0 0 0
7490 0 0 0
542 0 0 0
400 0 0 0
545 0 0 0
546 0 0 0
551 0 0 0
404 0 0 0
1642 0 0 0
412 0 0 0
539 0 0 0
1644 0 0 0
1645 0 0 0
1718 0 0 0
1722 0 0 0
1721 0 0 0
2718 0 0 0
1374 0 0 0
209 0 0 0
2720 0 0 0
205 0 0 0
8348 0 0 0
7128 0 0 0
7125 0 0 0
6150 0 0 0
5315 0 0 0
4813 0 0 0
4815 0 0 0
4322 0 0 0
3713 0 0 0
3715 0 0 0
3212 0 0 0
2222 0 0 0
2220 0 0 0
1361 0 0 0
1358 0 0 0
8346 0 0 0
8344 0 0 0
8342 0 0 0
8347 0 0 0
8148 0 0 0
8150 0 0 0
7014 0 0 0
7017 0 0 0
6148 0 0 0
6146 0 0 0
6144 0 0 0
6149 0 0 0
5950 0 0 0
5952 0 0 0
5671 0 0 0
5673 0 0 0
5214 0 0 0
5217 0 0 0
6581 0 0 0
6579 0 0 0
6481 0 0 0
6583 0 0 0
6587 0 0 0
7491 0 0 0
7499 0 0 0
7494 0 0 0
7601 0 0 0
7496 0 0 0
7498 0 0 0
7607 0 0 0
7612 0 0 0
541 0 0 0
627 0 0 0
544 0 0 0
548 0 0 0
543 0 0 0
1713 0 0 0
550 0 0 0
552 0 0 0
1719 0 0 0
1717 0 0 0
1715 0 0 0
4814 0 0 0
4811 0 0 0
4809 0 0 0
4321 0 0 0
4167 0 0 0
4168 0 0 0
4165 0 0 0
4169 0 0 0
3714 0 0 0
3711 0 0 0
3709 0 0 0
3211 0 0 0
3030 0 0 0
3032 0 0 0
3028 0 0 0
3033 0 0 0
2221 0 0 0
2218 0 0 0
2216 0 0 0
1360 0 0 0
1179 0 0 0
1181 0 0 0
1177 0 0 0
1182 0 0 0
8149 0 0 0
7012 0 0 0
7016 0 0 0
7010 0 0 0
5951 0 0 0
5212 0 0 0
6632 0 0 0
6580 0 0 0
6585 0 0 0
7608 0 0 0
7603 0 0 0
7611 0 0 0
7613 0 0 0
7609 0 0 0
7605 0 0 0
634 0 0 0
629 0 0 0
633 0 0 0
1780 0 0 0
631 0 0 0
1782 0 0 0
5216 0 0 0
4662 0 0 0
4663 0 0 0
4163 0 0 0
3584 0 0 0
3585 0 0 0
3026 0 0 0
3031 0 0 0
2092 0 0 0
2091 0 0 0
1175 0 0 0
1180 0 0 0
1174 0 0 0
8002 0 0 0
8000 0 0 0
7998 0 0 0
8003 0 0 0
8001 0 0 0
6636 0 0 0
6634 0 0 0
7695 0 0 0
7699 0 0 0
7691 0 0 0
7701 0 0 0
637 0 0 0
638 0 0 0
715 0 0 0
719 0 0 0
635 0 0 0
1777 0 0 0
721 0 0 0
1818 0 0 0
1779 0 0 0
7996 0 0 0
6875 0 0 0
6877 0 0 0
5807 0 0 0
5806 0 0 0
5804 0 0 0
5808 0 0 0
3485 0 0 0
2857 0 0 0
2854 0 0 0
2856 0 0 0
1985 0 0 0
1984 0 0 0
1982 0 0 0
1002 0 0 0
1000 0 0 0
998 0 0 0
996 0 0 0
1001 0 0 0
7887 0 0 0
6768 0 0 0
6769 0 0 0
6766 0 0 0
2748 0 0 0
1908 0 0 0
1906 0 0 0
852 0 0 0
854 0 0 0
851 0 0 0
7885 0 0 0
6678 0 0 0
7697 0 0 0
7693 0 0 0
7767 0 0 0
7763 0 0 0
7696 0 0 0
710 0 0 0
711 0 0 0
717 0 0 0
713 0 0 0
716 0 0 0
1821 0 0 0
802 0 0 0
7883 0 0 0
1820 0 0 0
1823 0 0 0
7881 0 0 0
7886 0 0 0
1907 0 0 0
1904 0 0 0
1902 0 0 0
853 0 0 0
7791 0 0 0
7792 0 0 0
7879 0 0 0
6705 0 0 0
6707 0 0 0
6703 0 0 0
1836 0 0 0
760 0 0 0
849 0 0 0
757 0 0 0
761 0 0 0
759 0 0 0
755 0 0 0
754 0 0 0
7728 0 0 0
7789 0 0 0
7725 0 0 0
7729 0 0 0
1798 0 0 0
1834 0 0 0
1796 0 0 0
6672 0 0 0
6676 0 0 0
6674 0 0 0
7766 0 0 0
7769 0 0 0
7829 0 0 0
7765 0 0 0
7771 0 0 0
808 0 0 0
809 0 0 0
807 0 0 0
815 0 0 0
811 0 0 0
806 0 0 0
1863 0 0 0
813 0 0 0
1865 0 0 0
1868 0 0 0
1871 0 0 0
670 0 0 0
7727 0 0 0
7723 0 0 0
6650 0 0 0
6652 0 0 0
668 0 0 0
666 0 0 0
664 0 0 0
669 0 0 0
7651 0 0 0
7649 0 0 0
7653 0 0 0
7647 0 0 0
7652 0 0 0
6613 0 0 0
6648 0 0 0
1751 0 0 0
1748 0 0 0
1750 0 0 0
1752 0 0 0
1746 0 0 0
589 0 0 0
590 0 0 0
662 0 0 0
587 0 0 0
7645 0 0 0
7568 0 0 0
6545 0 0 0
6612 0 0 0
2730 0 0 0
6738 0 0 0
6736 0 0 0
6742 0 0 0
6740 0 0 0
7836 0 0 0
7831 0 0 0
7839 0 0 0
7833 0 0 0
7835 0 0 0
804 0 0 0
805 0 0 0
899 0 0 0
1872 0 0 0
907 0 0 0
1867 0 0 0
1869 0 0 0
1938 0 0 0
1874 0 0 0
2737 0 0 0
585 0 0 0
498 0 0 0
494 0 0 0
588 0 0 0
7450 0 0 0
7567 0 0 0
7564 0 0 0
7446 0 0 0
7566 0 0 0
6547 0 0 0
6543 0 0 0
5638 0 0 0
6541 0 0 0
5721 0 0 0
5718 0 0 0
5634 0 0 0
5720 0 0 0
3467 0 0 0
3464 0 0 0
2700 0 0 0
6733 0 0 0
5750 0 0 0
2701 0 0 0
6735 0 0 0
7928 0 0 0
7933 0 0 0
7841 0 0 0
7837 0 0 0
7931 0 0 0
7843 0 0 0
900 0 0 0
895 0 0 0
902 0 0 0
903 0 0 0
908 0 0 0
897 0 0 0
901 0 0 0
1934 0 0 0
1936 0 0 0
1937 0 0 0
1940 0 0 0
1941 0 0 0
2773 0 0 0
2771 0 0 0
2776 0 0 0
2780 0 0 0
2698 0 0 0
2774 0 0 0
1614 0 0 0
3480 0 0 0
1689 0 0 0
1686 0 0 0
1688 0 0 0
1611 0 0 0
496 0 0 0
497 0 0 0
492 0 0 0
491 0 0 0
7444 0 0 0
7449 0 0 0
6450 0 0 0
6452 0 0 0
5632 0 0 0
5637 0 0 0
5071 0 0 0
5073 0 0 0
4036 0 0 0
4037 0 0 0
4034 0 0 0
5749 0 0 0
5745 0 0 0
5747 0 0 0
5748 0 0 0
5752 0 0 0
6802 0 0 0
6801 0 0 0
6799 0 0 0
6804 0 0 0
6808 0 0 0
7923 0 0 0
7930 0 0 0
7925 0 0 0
7927 0 0 0
7929 0 0 0
7934 0 0 0
1040 0 0 0
1046 0 0 0
1041 0 0 0
905 0 0 0
1052 0 0 0
1049 0 0 0
909 0 0 0
1047 0 0 0
1053 0 0 0
2012 0 0 0
2010 0 0 0
2011 0 0 0
2014 0 0 0
2017 0 0 0
2897 0 0 0
2892 0 0 0
2778 0 0 0
2903 0 0 0
2900 0 0 0
2781 0 0 0
2898 0 0 0
2904 0 0 0
3505 0 0 0
3504 0 0 0
3503 0 0 0
3507 0 0 0
3510 0 0 0
4038 0 0 0
4064 0 0 0
2589 0 0 0
2591 0 0 0
2587 0 0 0
2592 0 0 0
4069 0 0 0
4072 0 0 0
4584 0 0 0
4582 0 0 0
4581 0 0 0
4586 0 0 0
4589 0 0 0
5130 0 0 0
5126 0 0 0
5133 0 0 0
5095 0 0 0
5843 0 0 0
5753 0 0 0
5842 0 0 0
5850 0 0 0
5845 0 0 0
5841 0 0 0
6905 0 0 0
5847 0 0 0
5849 0 0 0
6911 0 0 0
6907 0 0 0
6915 0 0 0
6806 0 0 0
8041 0 0 0
7935 0 0 0
8040 0 0 0
8048 0 0 0
8043 0 0 0
8039 0 0 0
8045 0 0 0
8047 0 0 0
1048 0 0 0
1043 0 0 0
1051 0 0 0
1228 0 0 0
1054 0 0 0
1045 0 0 0
1225 0 0 0
2117 0 0 0
2119 0 0 0
2122 0 0 0
2016 0 0 0
2126 0 0 0
2899 0 0 0
2894 0 0 0
3079 0 0 0
2905 0 0 0
2896 0 0 0
3076 0 0 0
3610 0 0 0
3612 0 0 0
3615 0 0 0
3619 0 0 0
3509 0 0 0
4070 0 0 0
4066 0 0 0
4207 0 0 0
4073 0 0 0
4068 0 0 0
4204 0 0 0
4692 0 0 0
4694 0 0 0
4697 0 0 0
4702 0 0 0
4588 0 0 0
5131 0 0 0
5128 0 0 0
5244 0 0 0
5134 0 0 0
5840 0 0 0
5996 0 0 0
5991 0 0 0
5993 0 0 0
5995 0 0 0
6003 0 0 0
6913 0 0 0
6912 0 0 0
6909 0 0 0
7048 0 0 0
6916 0 0 0
8038 0 0 0
8194 0 0 0
8189 0 0 0
8191 0 0 0
8193 0 0 0
8201 0 0 0
1223 0 0 0
1226 0 0 0
1230 0 0 0
1235 0 0 0
1232 0 0 0
1234 0 0 0
2124 0 0 0
1236 0 0 0
2121 0 0 0
2123 0 0 0
2127 0 0 0
3077 0 0 0
3081 0 0 0
3086 0 0 0
3083 0 0 0
3085 0 0 0
3617 0 0 0
3087 0 0 0
3616 0 0 0
3614 0 0 0
3620 0 0 0
4205 0 0 0
4213 0 0 0
4209 0 0 0
4211 0 0 0
4212 0 0 0
4214 0 0 0
4700 0 0 0
4698 0 0 0
4696 0 0 0
4703 0 0 0
5243 0 0 0
5248 0 0 0
5246 0 0 0
5999 0 0 0
6004 0 0 0
6006 0 0 0
6001 0 0 0
5997 0 0 0
7044 0 0 0
6005 0 0 0
7047 0 0 0
7052 0 0 0
7050 0 0 0
8197 0 0 0
8202 0 0 0
8204 0 0 0
8199 0 0 0
8195 0 0 0
8203 0 0 0
52 0 0 0
47 0 0 0
1239 0 0 0
55 0 0 0
56 0 0 0
61 0 0 0
49 0 0 0
1242 0 0 0
53 0 0 0
1402 0 0 0
1404 0 0 0
1407 0 0 0
1410 0 0 0
1408 0 0 0
1411 0 0 0
2285 0 0 0
2280 0 0 0
3090 0 0 0
2289 0 0 0
2294 0 0 0
2282 0 0 0
3093 0 0 0
2286 0 0 0
3253 0 0 0
3255 0 0 0
3258 0 0 0
3259 0 0 0
3262 0 0 0
3261 0 0 0
3775 0 0 0
4216 0 0 0
3771 0 0 0
3779 0 0 0
3784 0 0 0
3773 0 0 0
4219 0 0 0
3776 0 0 0
4364 0 0 0
4366 0 0 0
4369 0 0 0
4370 0 0 0
4373 0 0 0
4372 0 0 0
4866 0 0 0
5250 0 0 0
4863 0 0 0
4869 0 0 0
4873 0 0 0
5355 0 0 0
6015 0 0 0
5362 0 0 0
5357 0 0 0
5359 0 0 0
5361 0 0 0
5363 0 0 0
5366 0 0 0
6214 0 0 0
6212 0 0 0
7055 0 0 0
6208 0 0 0
6216 0 0 0
6220 0 0 0
7169 0 0 0
8213 0 0 0
7176 0 0 0
7171 0 0 0
7173 0 0 0
7175 0 0 0
7177 0 0 0
7180 0 0 0
51 0 0 0
54 0 0 0
248 0 0 0
58 0 0 0
63 0 0 0
60 0 0 0
62 0 0 0
254 0 0 0
259 0 0 0
1531 0 0 0
1406 0 0 0
1529 0 0 0
1533 0 0 0
1536 0 0 0
2287 0 0 0
2481 0 0 0
2291 0 0 0
2296 0 0 0
2293 0 0 0
2295 0 0 0
2487 0 0 0
2492 0 0 0
3382 0 0 0
3380 0 0 0
3257 0 0 0
3384 0 0 0
3387 0 0 0
3777 0 0 0
3954 0 0 0
3786 0 0 0
3781 0 0 0
3783 0 0 0
3785 0 0 0
3959 0 0 0
3962 0 0 0
4494 0 0 0
4492 0 0 0
4368 0 0 0
4496 0 0 0
4499 0 0 0
4867 0 0 0
5004 0 0 0
4874 0 0 0
4871 0 0 0
5365 0 0 0
5367 0 0 0
5523 0 0 0
5531 0 0 0
5526 0 0 0
5522 0 0 0
6210 0 0 0
5528 0 0 0
5530 0 0 0
6213 0 0 0
6371 0 0 0
6221 0 0 0
6218 0 0 0
7179 0 0 0
7181 0 0 0
7337 0 0 0
7345 0 0 0
7340 0 0 0
7336 0 0 0
7342 0 0 0
7344 0 0 0
255 0 0 0
250 0 0 0
257 0 0 0
258 0 0 0
260 0 0 0
252 0 0 0
1530 0 0 0
1535 0 0 0
1537 0 0 0
2488 0 0 0
2483 0 0 0
2491 0 0 0
2493 0 0 0
2485 0 0 0
3381 0 0 0
3388 0 0 0
3386 0 0 0
3960 0 0 0
3956 0 0 0
356 0 0 0
3963 0 0 0
3958 0 0 0
358 0 0 0
354 0 0 0
4498 0 0 0
5008 0 0 0
5006 0 0 0
5010 0 0 0
5011 0 0 0
5518 0 0 0
5524 0 0 0
5532 0 0 0
6376 0 0 0
6375 0 0 0
6373 0 0 0
6378 0 0 0
6379 0 0 0
7332 0 0 0
7338 0 0 0
7346 0 0 0
413 0 0 0
414 0 0 0
419 0 0 0
422 0 0 0
428 0 0 0
418 0 0 0
1527 0 0 0
424 0 0 0
427 0 0 0
1648 0 0 0
1646 0 0 0
1649 0 0 0
2635 0 0 0
2638 0 0 0
2640 0 0 0
2644 0 0 0
2637 0 0 0
3378 0 0 0
2642 0 0 0
2643 0 0 0
359 0 0 0
7448 0 0 0
6448 0 0 0
6333 0 0 0
6330 0 0 0
5636 0 0 0
5069 0 0 0
4971 0 0 0
4456 0 0 0
4556 0 0 0
4032 0 0 0
3913 0 0 0
3337 0 0 0
3466 0 0 0
2585 0 0 0
2431 0 0 0
1613 0 0 0
1486 0 0 0
5676 0 0 0
5520 0 0 0
352 0 0 0
5680 0 0 0
5674 0 0 0
5677 0 0 0
6488 0 0 0
6490 0 0 0
6494 0 0 0
6498 0 0 0
6496 0 0 0
7502 0 0 0
7334 0 0 0
7505 0 0 0
7512 0 0 0
7500 0 0 0
7503 0 0 0
416 0 0 0
420 0 0 0
1650 0 0 0
555 0 0 0
1654 0 0 0
198 0 0 0
195 0 0 0
7279 0 0 0
7277 0 0 0
7275 0 0 0
7280 0 0 0
8349 0 0 0
7273 0 0 0
6328 0 0 0
7127 0 0 0
6332 0 0 0
5465 0 0 0
5463 0 0 0
5461 0 0 0
5681 0 0 0
6492 0 0 0
7504 0 0 0
7507 0 0 0
7614 0 0 0
7513 0 0 0
1723 0 0 0
5466 0 0 0
6151 0 0 0
5459 0 0 0
7616 0 0 0
818 0 0 0
819 0 0 0
1876 0 0 0
2739 0 0 0
4967 0 0 0
5314 0 0 0
4970 0 0 0
4457 0 0 0
6745 0 0 0
6747 0 0 0
915 0 0 0
911 0 0 0
918 0 0 0
919 0 0 0
913 0 0 0
916 0 0 0
1942 0 0 0
1944 0 0 0
1945 0 0 0
1947 0 0 0
1950 0 0 0
2785 0 0 0
2783 0 0 0
2788 0 0 0
4454 0 0 0
2786 0 0 0
4452 0 0 0
3481 0 0 0
3912 0 0 0
4323 0 0 0
3909 0 0 0
3907 0 0 0
4320 0 0 0
3911 0 0 0
3338 0 0 0
3335 0 0 0
3333 0 0 0
2430 0 0 0
3213 0 0 0
2426 0 0 0
3210 0 0 0
2424 0 0 0
2429 0 0 0
1487 0 0 0
1484 0 0 0
5759 0 0 0
5755 0 0 0
5757 0 0 0
5758 0 0 0
5762 0 0 0
6814 0 0 0
6813 0 0 0
6810 0 0 0
6816 0 0 0
7936 0 0 0
7942 0 0 0
7938 0 0 0
7940 0 0 0
7941 0 0 0
7945 0 0 0
1055 0 0 0
1061 0 0 0
1056 0 0 0
921 0 0 0
1067 0 0 0
1064 0 0 0
925 0 0 0
1062 0 0 0
1068 0 0 0
2021 0 0 0
2019 0 0 0
2020 0 0 0
2023 0 0 0
2026 0 0 0
2912 0 0 0
2907 0 0 0
2790 0 0 0
2918 0 0 0
2915 0 0 0
2793 0 0 0
2913 0 0 0
2919 0 0 0
3514 0 0 0
3513 0 0 0
3512 0 0 0
3516 0 0 0
3519 0 0 0
1482 0 0 0
4075 0 0 0
197 0 0 0
1362 0 0 0
193 0 0 0
1359 0 0 0
4080 0 0 0
4083 0 0 0
4593 0 0 0
4591 0 0 0
4590 0 0 0
4595 0 0 0
4598 0 0 0
5140 0 0 0
5136 0 0 0
5143 0 0 0
5097 0 0 0
5855 0 0 0
5763 0 0 0
5854 0 0 0
5862 0 0 0
5857 0 0 0
5853 0 0 0
6917 0 0 0
5859 0 0 0
5861 0 0 0
6923 0 0 0
6919 0 0 0
6927 0 0 0
6818 0 0 0
8053 0 0 0
7946 0 0 0
8052 0 0 0
8060 0 0 0
8055 0 0 0
8051 0 0 0
8057 0 0 0
8059 0 0 0
1063 0 0 0
1058 0 0 0
1066 0 0 0
1243 0 0 0
1069 0 0 0
1060 0 0 0
1240 0 0 0
2128 0 0 0
2130 0 0 0
2133 0 0 0
2025 0 0 0
2137 0 0 0
2914 0 0 0
2909 0 0 0
3094 0 0 0
2920 0 0 0
2911 0 0 0
3091 0 0 0
3621 0 0 0
3623 0 0 0
3626 0 0 0
3630 0 0 0
3518 0 0 0
4081 0 0 0
4077 0 0 0
4220 0 0 0
4084 0 0 0
4079 0 0 0
4217 0 0 0
4705 0 0 0
4707 0 0 0
4710 0 0 0
4715 0 0 0
4597 0 0 0
5141 0 0 0
5138 0 0 0
5252 0 0 0
5144 0 0 0
5852 0 0 0
6013 0 0 0
6008 0 0 0
6010 0 0 0
6012 0 0 0
6020 0 0 0
6925 0 0 0
6924 0 0 0
6921 0 0 0
7057 0 0 0
6928 0 0 0
8050 0 0 0
8211 0 0 0
8206 0 0 0
8208 0 0 0
8210 0 0 0
8218 0 0 0
1238 0 0 0
1241 0 0 0
1245 0 0 0
1250 0 0 0
1247 0 0 0
1249 0 0 0
2135 0 0 0
1251 0 0 0
2132 0 0 0
2134 0 0 0
2138 0 0 0
3092 0 0 0
3096 0 0 0
3101 0 0 0
3098 0 0 0
3100 0 0 0
3628 0 0 0
3102 0 0 0
3627 0 0 0
3625 0 0 0
3631 0 0 0
4218 0 0 0
4226 0 0 0
4222 0 0 0
4224 0 0 0
4225 0 0 0
4227 0 0 0
4713 0 0 0
4711 0 0 0
4709 0 0 0
4716 0 0 0
5251 0 0 0
5256 0 0 0
5254 0 0 0
6016 0 0 0
6021 0 0 0
6023 0 0 0
6018 0 0 0
6014 0 0 0
7053 0 0 0
6022 0 0 0
7056 0 0 0
7061 0 0 0
7059 0 0 0
8214 0 0 0
8219 0 0 0
8221 0 0 0
8216 0 0 0
8212 0 0 0
8220 0 0 0
70 0 0 0
65 0 0 0
1254 0 0 0
67 0 0 0
1257 0 0 0
71 0 0 0
1412 0 0 0
1414 0 0 0
1417 0 0 0
2303 0 0 0
2298 0 0 0
3105 0 0 0
2300 0 0 0
3108 0 0 0
2304 0 0 0
3263 0 0 0
3265 0 0 0
3268 0 0 0
3792 0 0 0
4229 0 0 0
3788 0 0 0
3790 0 0 0
4232 0 0 0
3793 0 0 0
4375 0 0 0
4377 0 0 0
4380 0 0 0
4879 0 0 0
5258 0 0 0
4876 0 0 0
5368 0 0 0
6032 0 0 0
5375 0 0 0
5370 0 0 0
5372 0 0 0
5374 0 0 0
6227 0 0 0
7064 0 0 0
6223 0 0 0
7182 0 0 0
8230 0 0 0
7189 0 0 0
7184 0 0 0
7186 0 0 0
7188 0 0 0
69 0 0 0
72 0 0 0
261 0 0 0
1416 0 0 0
1540 0 0 0
2305 0 0 0
2494 0 0 0
3391 0 0 0
3267 0 0 0
3794 0 0 0
3964 0 0 0
4500 0 0 0
4379 0 0 0
4880 0 0 0
5012 0 0 0
5537 0 0 0
6225 0 0 0
6228 0 0 0
6380 0 0 0
7351 0 0 0
268 0 0 0
263 0 0 0
267 0 0 0
265 0 0 0
2501 0 0 0
2496 0 0 0
2500 0 0 0
2498 0 0 0
3970 0 0 0
3966 0 0 0
3969 0 0 0
3968 0 0 0
5016 0 0 0
5014 0 0 0
5538 0 0 0
5533 0 0 0
6384 0 0 0
6382 0 0 0
7352 0 0 0
7347 0 0 0
430 0 0 0
433 0 0 0
432 0 0 0
1538 0 0 0
1657 0 0 0
1655 0 0 0
1541 0 0 0
2648 0 0 0
2647 0 0 0
3389 0 0 0
191 0 0 0
196 0 0 0
3392 0 0 0
8339 0 0 0
8331 0 0 0
8335 0 0 0
8340 0 0 0
8338 0 0 0
8333 0 0 0
7122 0 0 0
5685 0 0 0
5535 0 0 0
5682 0 0 0
6499 0 0 0
5539 0 0 0
6502 0 0 0
7518 0 0 0
7349 0 0 0
7515 0 0 0
7353 0 0 0
928 0 0 0
1951 0 0 0
1953 0 0 0
2796 0 0 0
7124 0 0 0
3482 0 0 0
7119 0 0 0
6141 0 0 0
7116 0 0 0
5770 0 0 0
5766 0 0 0
5768 0 0 0
7954 0 0 0
7949 0 0 0
7951 0 0 0
1070 0 0 0
1076 0 0 0
1071 0 0 0
2028 0 0 0
2029 0 0 0
2927 0 0 0
2922 0 0 0
3522 0 0 0
3521 0 0 0
6133 0 0 0
4086 0 0 0
4600 0 0 0
4599 0 0 0
5150 0 0 0
5146 0 0 0
5865 0 0 0
6929 0 0 0
6935 0 0 0
6931 0 0 0
8063 0 0 0
1078 0 0 0
1073 0 0 0
1077 0 0 0
1075 0 0 0
1255 0 0 0
2139 0 0 0
2141 0 0 0
2144 0 0 0
2929 0 0 0
2924 0 0 0
2928 0 0 0
2926 0 0 0
3106 0 0 0
3632 0 0 0
3634 0 0 0
3637 0 0 0
4092 0 0 0
4088 0 0 0
4091 0 0 0
4090 0 0 0
4230 0 0 0
4718 0 0 0
4720 0 0 0
4723 0 0 0
5151 0 0 0
5148 0 0 0
5866 0 0 0
5864 0 0 0
6030 0 0 0
6025 0 0 0
6027 0 0 0
6029 0 0 0
6936 0 0 0
6933 0 0 0
8064 0 0 0
8062 0 0 0
8228 0 0 0
8223 0 0 0
8225 0 0 0
8227 0 0 0
1253 0 0 0
1256 0 0 0
2143 0 0 0
2145 0 0 0
3107 0 0 0
3638 0 0 0
3636 0 0 0
4231 0 0 0
4724 0 0 0
4722 0 0 0
5259 0 0 0
6031 0 0 0
7062 0 0 0
7065 0 0 0
8229 0 0 0
79 0 0 0
83 0 0 0
88 0 0 0
1269 0 0 0
73 0 0 0
74 0 0 0
85 0 0 0
1266 0 0 0
1272 0 0 0
80 0 0 0
89 0 0 0
1422 0 0 0
1424 0 0 0
1421 0 0 0
1427 0 0 0
1420 0 0 0
1418 0 0 0
2312 0 0 0
2316 0 0 0
2321 0 0 0
3120 0 0 0
2307 0 0 0
2318 0 0 0
3117 0 0 0
3123 0 0 0
2313 0 0 0
2322 0 0 0
3273 0 0 0
3275 0 0 0
3272 0 0 0
3278 0 0 0
3269 0 0 0
3271 0 0 0
3801 0 0 0
3809 0 0 0
4242 0 0 0
3805 0 0 0
3796 0 0 0
3807 0 0 0
4240 0 0 0
4245 0 0 0
3802 0 0 0
3810 0 0 0
4386 0 0 0
4388 0 0 0
4384 0 0 0
4391 0 0 0
4381 0 0 0
4383 0 0 0
4886 0 0 0
4892 0 0 0
5266 0 0 0
4889 0 0 0
4882 0 0 0
5381 0 0 0
6040 0 0 0
6049 0 0 0
5380 0 0 0
5388 0 0 0
5383 0 0 0
5385 0 0 0
5379 0 0 0
5387 0 0 0
5376 0 0 0
6229 0 0 0
6235 0 0 0
6242 0 0 0
7073 0 0 0
6238 0 0 0
6231 0 0 0
7195 0 0 0
8238 0 0 0
8247 0 0 0
7194 0 0 0
7202 0 0 0
7197 0 0 0
7199 0 0 0
7193 0 0 0
7201 0 0 0
7190 0 0 0
87 0 0 0
81 0 0 0
274 0 0 0
90 0 0 0
76 0 0 0
78 0 0 0
272 0 0 0
1542 0 0 0
1426 0 0 0
1547 0 0 0
1551 0 0 0
1544 0 0 0
2314 0 0 0
2507 0 0 0
2323 0 0 0
2309 0 0 0
2311 0 0 0
2505 0 0 0
3393 0 0 0
3398 0 0 0
3402 0 0 0
3277 0 0 0
3395 0 0 0
3803 0 0 0
3974 0 0 0
3811 0 0 0
3798 0 0 0
3800 0 0 0
3972 0 0 0
4502 0 0 0
4507 0 0 0
4508 0 0 0
4390 0 0 0
4504 0 0 0
4887 0 0 0
5020 0 0 0
4893 0 0 0
4884 0 0 0
5378 0 0 0
5546 0 0 0
5541 0 0 0
5545 0 0 0
5552 0 0 0
6240 0 0 0
5543 0 0 0
6236 0 0 0
6389 0 0 0
6243 0 0 0
6233 0 0 0
7192 0 0 0
7360 0 0 0
7355 0 0 0
7359 0 0 0
7366 0 0 0
7357 0 0 0
273 0 0 0
276 0 0 0
281 0 0 0
270 0 0 0
271 0 0 0
278 0 0 0
280 0 0 0
1546 0 0 0
1548 0 0 0
2506 0 0 0
2509 0 0 0
2514 0 0 0
2504 0 0 0
2511 0 0 0
2513 0 0 0
3399 0 0 0
3397 0 0 0
3973 0 0 0
3980 0 0 0
3976 0 0 0
6137 0 0 0
3978 0 0 0
3979 0 0 0
6142 0 0 0
4506 0 0 0
5019 0 0 0
5024 0 0 0
5022 0 0 0
5018 0 0 0
5548 0 0 0
5553 0 0 0
5547 0 0 0
6385 0 0 0
6388 0 0 0
6393 0 0 0
6391 0 0 0
6387 0 0 0
7362 0 0 0
7367 0 0 0
7361 0 0 0
436 0 0 0
442 0 0 0
1549 0 0 0
1552 0 0 0
2651 0 0 0
2657 0 0 0
3400 0 0 0
3403 0 0 0
6140 0 0 0
6135 0 0 0
5310 0 0 0
5312 0 0 0
5307 0 0 0
5687 0 0 0
5550 0 0 0
5554 0 0 0
6505 0 0 0
7520 0 0 0
7364 0 0 0
7368 0 0 0
1085 0 0 0
1082 0 0 0
1086 0 0 0
931 0 0 0
1079 0 0 0
1083 0 0 0
2030 0 0 0
2037 0 0 0
2035 0 0 0
2038 0 0 0
2032 0 0 0
2933 0 0 0
2937 0 0 0
2798 0 0 0
2930 0 0 0
2934 0 0 0
3523 0 0 0
3528 0 0 0
3531 0 0 0
3530 0 0 0
3525 0 0 0
4807 0 0 0
4097 0 0 0
4800 0 0 0
4802 0 0 0
4094 0 0 0
4602 0 0 0
4607 0 0 0
4609 0 0 0
4608 0 0 0
4604 0 0 0
5153 0 0 0
5156 0 0 0
5099 0 0 0
5867 0 0 0
5874 0 0 0
5869 0 0 0
5873 0 0 0
5877 0 0 0
6941 0 0 0
5871 0 0 0
6939 0 0 0
6943 0 0 0
6823 0 0 0
8065 0 0 0
8072 0 0 0
8067 0 0 0
8071 0 0 0
8075 0 0 0
8069 0 0 0
1084 0 0 0
1088 0 0 0
1092 0 0 0
1081 0 0 0
1258 0 0 0
1090 0 0 0
1091 0 0 0
1264 0 0 0
1270 0 0 0
2150 0 0 0
2152 0 0 0
2148 0 0 0
2155 0 0 0
2034 0 0 0
2935 0 0 0
2939 0 0 0
2943 0 0 0
3109 0 0 0
2941 0 0 0
2942 0 0 0
3115 0 0 0
3121 0 0 0
3643 0 0 0
3645 0 0 0
3641 0 0 0
3648 0 0 0
3527 0 0 0
4095 0 0 0
4103 0 0 0
4099 0 0 0
4233 0 0 0
4101 0 0 0
4102 0 0 0
4238 0 0 0
4243 0 0 0
4731 0 0 0
4733 0 0 0
4728 0 0 0
4736 0 0 0
4606 0 0 0
5154 0 0 0
5160 0 0 0
5158 0 0 0
5260 0 0 0
5876 0 0 0
5878 0 0 0
6038 0 0 0
6047 0 0 0
6042 0 0 0
6044 0 0 0
6037 0 0 0
6046 0 0 0
6937 0 0 0
6940 0 0 0
6947 0 0 0
6945 0 0 0
7066 0 0 0
8074 0 0 0
8076 0 0 0
8236 0 0 0
8245 0 0 0
8240 0 0 0
8242 0 0 0
8235 0 0 0
8244 0 0 0
1268 0 0 0
1265 0 0 0
1271 0 0 0
1260 0 0 0
1262 0 0 0
2146 0 0 0
2154 0 0 0
2149 0 0 0
2156 0 0 0
3116 0 0 0
3122 0 0 0
3111 0 0 0
3113 0 0 0
3639 0 0 0
3642 0 0 0
3649 0 0 0
3647 0 0 0
4239 0 0 0
4244 0 0 0
4235 0 0 0
4237 0 0 0
4726 0 0 0
4729 0 0 0
4737 0 0 0
4735 0 0 0
5264 0 0 0
5267 0 0 0
5262 0 0 0
6033 0 0 0
6035 0 0 0
6039 0 0 0
6048 0 0 0
7071 0 0 0
7070 0 0 0
7074 0 0 0
7068 0 0 0
8231 0 0 0
8233 0 0 0
8237 0 0 0
8246 0 0 0
91 0 0 0
97 0 0 0
92 0 0 0
1430 0 0 0
1431 0 0 0
1428 0 0 0
2330 0 0 0
2325 0 0 0
3282 0 0 0
3279 0 0 0
3281 0 0 0
3818 0 0 0
3813 0 0 0
4395 0 0 0
4392 0 0 0
4394 0 0 0
4899 0 0 0
4895 0 0 0
5392 0 0 0
5389 0 0 0
6244 0 0 0
6250 0 0 0
6246 0 0 0
7206 0 0 0
7203 0 0 0
99 0 0 0
94 0 0 0
98 0 0 0
96 0 0 0
285 0 0 0
1553 0 0 0
1555 0 0 0
1559 0 0 0
2332 0 0 0
2327 0 0 0
2331 0 0 0
2329 0 0 0
2518 0 0 0
3404 0 0 0
3406 0 0 0
3410 0 0 0
3820 0 0 0
3815 0 0 0
3819 0 0 0
3817 0 0 0
3982 0 0 0
4510 0 0 0
4512 0 0 0
4515 0 0 0
4900 0 0 0
4897 0 0 0
5393 0 0 0
5391 0 0 0
5562 0 0 0
5556 0 0 0
5558 0 0 0
5561 0 0 0
6251 0 0 0
6248 0 0 0
7207 0 0 0
7205 0 0 0
7376 0 0 0
7370 0 0 0
7372 0 0 0
7375 0 0 0
283 0 0 0
286 0 0 0
1557 0 0 0
2519 0 0 0
3408 0 0 0
3983 0 0 0
4514 0 0 0
5026 0 0 0
6394 0 0 0
6397 0 0 0
1097 0 0 0
2039 0 0 0
2041 0 0 0
2044 0 0 0
2948 0 0 0
3532 0 0 0
3534 0 0 0
3537 0 0 0
4105 0 0 0
4611 0 0 0
4613 0 0 0
4616 0 0 0
5887 0 0 0
5880 0 0 0
5882 0 0 0
5886 0 0 0
8085 0 0 0
8079 0 0 0
8081 0 0 0
8084 0 0 0
1094 0 0 0
1098 0 0 0
1273 0 0 0
2043 0 0 0
2159 0 0 0
2949 0 0 0
3124 0 0 0
3652 0 0 0
3536 0 0 0
4106 0 0 0
4246 0 0 0
4741 0 0 0
4615 0 0 0
5162 0 0 0
5268 0 0 0
6054 0 0 0
6948 0 0 0
6950 0 0 0
7075 0 0 0
8252 0 0 0
1280 0 0 0
1275 0 0 0
1279 0 0 0
1277 0 0 0
1281 0 0 0
2157 0 0 0
2160 0 0 0
3131 0 0 0
3126 0 0 0
3130 0 0 0
3128 0 0 0
3132 0 0 0
3650 0 0 0
3653 0 0 0
4252 0 0 0
4248 0 0 0
4251 0 0 0
4250 0 0 0
4253 0 0 0
4739 0 0 0
4742 0 0 0
5272 0 0 0
5270 0 0 0
6055 0 0 0
6050 0 0 0
6057 0 0 0
6052 0 0 0
6056 0 0 0
7079 0 0 0
7077 0 0 0
8253 0 0 0
8248 0 0 0
8255 0 0 0
8250 0 0 0
8254 0 0 0
106 0 0 0
101 0 0 0
1284 0 0 0
109 0 0 0
110 0 0 0
115 0 0 0
103 0 0 0
1287 0 0 0
107 0 0 0
1432 0 0 0
1434 0 0 0
1437 0 0 0
1440 0 0 0
1438 0 0 0
1441 0 0 0
2339 0 0 0
2334 0 0 0
3135 0 0 0
2343 0 0 0
2348 0 0 0
2336 0 0 0
3138 0 0 0
2340 0 0 0
3283 0 0 0
3285 0 0 0
3288 0 0 0
3289 0 0 0
3292 0 0 0
3291 0 0 0
3826 0 0 0
4255 0 0 0
3822 0 0 0
3830 0 0 0
3835 0 0 0
3824 0 0 0
4258 0 0 0
3827 0 0 0
4397 0 0 0
4399 0 0 0
4402 0 0 0
4403 0 0 0
4406 0 0 0
4405 0 0 0
4905 0 0 0
5274 0 0 0
4902 0 0 0
4908 0 0 0
4912 0 0 0
5394 0 0 0
6066 0 0 0
5401 0 0 0
5396 0 0 0
5398 0 0 0
5400 0 0 0
5402 0 0 0
5405 0 0 0
6259 0 0 0
6257 0 0 0
7082 0 0 0
6253 0 0 0
6261 0 0 0
6265 0 0 0
7208 0 0 0
8264 0 0 0
7215 0 0 0
7210 0 0 0
7212 0 0 0
7214 0 0 0
7216 0 0 0
7219 0 0 0
105 0 0 0
108 0 0 0
287 0 0 0
112 0 0 0
117 0 0 0
114 0 0 0
116 0 0 0
293 0 0 0
298 0 0 0
1562 0 0 0
1436 0 0 0
1560 0 0 0
1564 0 0 0
1568 0 0 0
2341 0 0 0
2520 0 0 0
2345 0 0 0
2350 0 0 0
2347 0 0 0
2349 0 0 0
2526 0 0 0
2531 0 0 0
3414 0 0 0
3411 0 0 0
3287 0 0 0
3416 0 0 0
3420 0 0 0
3828 0 0 0
3984 0 0 0
3837 0 0 0
3832 0 0 0
3834 0 0 0
3836 0 0 0
3988 0 0 0
3991 0 0 0
4518 0 0 0
4516 0 0 0
4401 0 0 0
4520 0 0 0
4523 0 0 0
4906 0 0 0
5028 0 0 0
4913 0 0 0
4910 0 0 0
5404 0 0 0
5406 0 0 0
5564 0 0 0
5574 0 0 0
5568 0 0 0
5563 0 0 0
6255 0 0 0
5570 0 0 0
5573 0 0 0
6258 0 0 0
6398 0 0 0
6266 0 0 0
6263 0 0 0
7218 0 0 0
7220 0 0 0
7378 0 0 0
7387 0 0 0
7381 0 0 0
7377 0 0 0
7383 0 0 0
7386 0 0 0
294 0 0 0
289 0 0 0
297 0 0 0
299 0 0 0
1566 0 0 0
2527 0 0 0
2522 0 0 0
2532 0 0 0
3418 0 0 0
3989 0 0 0
3986 0 0 0
3992 0 0 0
4522 0 0 0
5033 0 0 0
5030 0 0 0
5035 0 0 0
6407 0 0 0
6404 0 0 0
6400 0 0 0
6409 0 0 0
1099 0 0 0
1100 0 0 0
1106 0 0 0
1112 0 0 0
2048 0 0 0
2046 0 0 0
2047 0 0 0
2050 0 0 0
2053 0 0 0
2951 0 0 0
2957 0 0 0
2963 0 0 0
3541 0 0 0
3540 0 0 0
3539 0 0 0
3543 0 0 0
3546 0 0 0
4108 0 0 0
4113 0 0 0
4116 0 0 0
4620 0 0 0
4618 0 0 0
4617 0 0 0
4622 0 0 0
4625 0 0 0
5164 0 0 0
5891 0 0 0
5900 0 0 0
5895 0 0 0
5890 0 0 0
6951 0 0 0
5897 0 0 0
5899 0 0 0
6953 0 0 0
8089 0 0 0
8098 0 0 0
8093 0 0 0
8088 0 0 0
8095 0 0 0
8097 0 0 0
1107 0 0 0
1102 0 0 0
1111 0 0 0
1288 0 0 0
1113 0 0 0
1104 0 0 0
1285 0 0 0
2161 0 0 0
2163 0 0 0
2166 0 0 0
2052 0 0 0
2170 0 0 0
2958 0 0 0
2953 0 0 0
3139 0 0 0
2964 0 0 0
2955 0 0 0
3136 0 0 0
3654 0 0 0
3656 0 0 0
3659 0 0 0
3663 0 0 0
3545 0 0 0
4114 0 0 0
4110 0 0 0
4259 0 0 0
4117 0 0 0
4112 0 0 0
4256 0 0 0
4744 0 0 0
4746 0 0 0
4749 0 0 0
4754 0 0 0
4624 0 0 0
5168 0 0 0
5166 0 0 0
5276 0 0 0
5170 0 0 0
5889 0 0 0
6064 0 0 0
6059 0 0 0
6061 0 0 0
6063 0 0 0
6071 0 0 0
6959 0 0 0
6958 0 0 0
6955 0 0 0
7084 0 0 0
6961 0 0 0
8087 0 0 0
8262 0 0 0
8257 0 0 0
8259 0 0 0
8261 0 0 0
8269 0 0 0
1283 0 0 0
1286 0 0 0
1290 0 0 0
1295 0 0 0
1292 0 0 0
1294 0 0 0
2168 0 0 0
1296 0 0 0
2165 0 0 0
2167 0 0 0
2171 0 0 0
3137 0 0 0
3141 0 0 0
3146 0 0 0
3143 0 0 0
3145 0 0 0
3661 0 0 0
3147 0 0 0
3660 0 0 0
3658 0 0 0
3664 0 0 0
4257 0 0 0
4265 0 0 0
4261 0 0 0
4263 0 0 0
4264 0 0 0
4266 0 0 0
4752 0 0 0
4750 0 0 0
4748 0 0 0
4755 0 0 0
5275 0 0 0
5280 0 0 0
5278 0 0 0
6067 0 0 0
6072 0 0 0
6074 0 0 0
6069 0 0 0
6065 0 0 0
7080 0 0 0
6073 0 0 0
7083 0 0 0
7088 0 0 0
7086 0 0 0
8265 0 0 0
8270 0 0 0
8272 0 0 0
8267 0 0 0
8263 0 0 0
8271 0 0 0
124 0 0 0
119 0 0 0
1299 0 0 0
121 0 0 0
1302 0 0 0
125 0 0 0
1442 0 0 0
1444 0 0 0
1447 0 0 0
2357 0 0 0
2352 0 0 0
3150 0 0 0
2354 0 0 0
3153 0 0 0
2358 0 0 0
3293 0 0 0
3295 0 0 0
3298 0 0 0
3843 0 0 0
4268 0 0 0
3839 0 0 0
3841 0 0 0
4271 0 0 0
3844 0 0 0
4408 0 0 0
4410 0 0 0
4413 0 0 0
4918 0 0 0
5282 0 0 0
4915 0 0 0
5407 0 0 0
6083 0 0 0
5414 0 0 0
5409 0 0 0
5411 0 0 0
5413 0 0 0
6272 0 0 0
7091 0 0 0
6268 0 0 0
7221 0 0 0
8281 0 0 0
7228 0 0 0
7223 0 0 0
7225 0 0 0
7227 0 0 0
123 0 0 0
126 0 0 0
302 0 0 0
1446 0 0 0
1569 0 0 0
2359 0 0 0
2535 0 0 0
3422 0 0 0
3297 0 0 0
3845 0 0 0
3993 0 0 0
4524 0 0 0
4412 0 0 0
4919 0 0 0
5038 0 0 0
5576 0 0 0
6270 0 0 0
6273 0 0 0
6412 0 0 0
7388 0 0 0
307 0 0 0
304 0 0 0
306 0 0 0
2540 0 0 0
2537 0 0 0
2539 0 0 0
3998 0 0 0
3995 0 0 0
3997 0 0 0
5042 0 0 0
5040 0 0 0
5577 0 0 0
6416 0 0 0
6414 0 0 0
7389 0 0 0
1114 0 0 0
1120 0 0 0
1115 0 0 0
2055 0 0 0
2056 0 0 0
2971 0 0 0
2966 0 0 0
3549 0 0 0
3548 0 0 0
4804 0 0 0
4119 0 0 0
4627 0 0 0
4626 0 0 0
5176 0 0 0
5172 0 0 0
5903 0 0 0
6962 0 0 0
6968 0 0 0
6964 0 0 0
8101 0 0 0
1122 0 0 0
1117 0 0 0
1121 0 0 0
1119 0 0 0
1300 0 0 0
2172 0 0 0
2174 0 0 0
2177 0 0 0
2973 0 0 0
2968 0 0 0
2972 0 0 0
2970 0 0 0
3151 0 0 0
3665 0 0 0
3667 0 0 0
3670 0 0 0
4125 0 0 0
4121 0 0 0
4124 0 0 0
4123 0 0 0
4269 0 0 0
4757 0 0 0
4759 0 0 0
4762 0 0 0
5177 0 0 0
5174 0 0 0
5904 0 0 0
5902 0 0 0
6081 0 0 0
6076 0 0 0
6078 0 0 0
6080 0 0 0
6969 0 0 0
6966 0 0 0
8102 0 0 0
8100 0 0 0
8279 0 0 0
8274 0 0 0
8276 0 0 0
8278 0 0 0
1298 0 0 0
1301 0 0 0
2176 0 0 0
2178 0 0 0
3152 0 0 0
3671 0 0 0
3669 0 0 0
4270 0 0 0
4763 0 0 0
4761 0 0 0
5283 0 0 0
6082 0 0 0
7089 0 0 0
7092 0 0 0
8280 0 0 0
142 0 0 0
133 0 0 0
137 0 0 0
1314 0 0 0
127 0 0 0
128 0 0 0
139 0 0 0
1317 0 0 0
1311 0 0 0
143 0 0 0
134 0 0 0
1452 0 0 0
1454 0 0 0
1457 0 0 0
1451 0 0 0
1450 0 0 0
1448 0 0 0
2375 0 0 0
2366 0 0 0
2370 0 0 0
3165 0 0 0
2361 0 0 0
2372 0 0 0
3168 0 0 0
3162 0 0 0
2376 0 0 0
2367 0 0 0
3303 0 0 0
3305 0 0 0
3308 0 0 0
3302 0 0 0
3299 0 0 0
3301 0 0 0
3860 0 0 0
3852 0 0 0
4281 0 0 0
3856 0 0 0
3847 0 0 0
3858 0 0 0
4284 0 0 0
4279 0 0 0
3861 0 0 0
3853 0 0 0
4419 0 0 0
4421 0 0 0
4424 0 0 0
4417 0 0 0
4414 0 0 0
4416 0 0 0
4931 0 0 0
4925 0 0 0
5290 0 0 0
4928 0 0 0
4921 0 0 0
5420 0 0 0
6100 0 0 0
6091 0 0 0
5427 0 0 0
5419 0 0 0
5422 0 0 0
5424 0 0 0
5426 0 0 0
5418 0 0 0
5415 0 0 0
6274 0 0 0
6287 0 0 0
6280 0 0 0
7100 0 0 0
6283 0 0 0
6276 0 0 0
7234 0 0 0
8298 0 0 0
8289 0 0 0
7241 0 0 0
7233 0 0 0
7236 0 0 0
7238 0 0 0
7240 0 0 0
7232 0 0 0
7229 0 0 0
141 0 0 0
144 0 0 0
135 0 0 0
313 0 0 0
130 0 0 0
132 0 0 0
311 0 0 0
1571 0 0 0
1456 0 0 0
1580 0 0 0
1576 0 0 0
1573 0 0 0
2377 0 0 0
2368 0 0 0
2546 0 0 0
2363 0 0 0
2365 0 0 0
2544 0 0 0
3424 0 0 0
3433 0 0 0
3429 0 0 0
3307 0 0 0
3426 0 0 0
3862 0 0 0
3854 0 0 0
4002 0 0 0
3849 0 0 0
3851 0 0 0
4000 0 0 0
4526 0 0 0
4532 0 0 0
4531 0 0 0
4423 0 0 0
4528 0 0 0
4932 0 0 0
4926 0 0 0
5045 0 0 0
4923 0 0 0
5417 0 0 0
5585 0 0 0
5580 0 0 0
5591 0 0 0
5584 0 0 0
6285 0 0 0
5582 0 0 0
6288 0 0 0
6281 0 0 0
6421 0 0 0
6278 0 0 0
7231 0 0 0
7397 0 0 0
7392 0 0 0
7403 0 0 0
7396 0 0 0
7394 0 0 0
320 0 0 0
312 0 0 0
315 0 0 0
310 0 0 0
319 0 0 0
317 0 0 0
1575 0 0 0
1577 0 0 0
2553 0 0 0
2545 0 0 0
2548 0 0 0
2552 0 0 0
2550 0 0 0
3430 0 0 0
3428 0 0 0
4008 0 0 0
4001 0 0 0
4004 0 0 0
4007 0 0 0
4006 0 0 0
4318 0 0 0
4530 0 0 0
5049 0 0 0
5044 0 0 0
5047 0 0 0
5592 0 0 0
5587 0 0 0
5586 0 0 0
6418 0 0 0
6425 0 0 0
6420 0 0 0
6423 0 0 0
7404 0 0 0
7399 0 0 0
7398 0 0 0
452 0 0 0
1578 0 0 0
1581 0 0 0
2667 0 0 0
3431 0 0 0
3434 0 0 0
4316 0 0 0
4315 0 0 0
4313 0 0 0
5698 0 0 0
5589 0 0 0
5593 0 0 0
7533 0 0 0
7401 0 0 0
7405 0 0 0
1129 0 0 0
1135 0 0 0
1126 0 0 0
1130 0 0 0
949 0 0 0
1123 0 0 0
1127 0 0 0
2057 0 0 0
2064 0 0 0
2065 0 0 0
2062 0 0 0
2059 0 0 0
2986 0 0 0
2977 0 0 0
2981 0 0 0
2816 0 0 0
2974 0 0 0
2978 0 0 0
3550 0 0 0
3558 0 0 0
3555 0 0 0
3557 0 0 0
3552 0 0 0
4317 0 0 0
4309 0 0 0
4130 0 0 0
3708 0 0 0
3702 0 0 0
4127 0 0 0
4629 0 0 0
4636 0 0 0
4634 0 0 0
4635 0 0 0
4631 0 0 0
5186 0 0 0
5179 0 0 0
5182 0 0 0
5101 0 0 0
5905 0 0 0
5912 0 0 0
5907 0 0 0
5915 0 0 0
5911 0 0 0
6974 0 0 0
5909 0 0 0
6980 0 0 0
6972 0 0 0
6976 0 0 0
6841 0 0 0
8103 0 0 0
8110 0 0 0
8105 0 0 0
8113 0 0 0
8109 0 0 0
8107 0 0 0
1137 0 0 0
1128 0 0 0
1132 0 0 0
1125 0 0 0
1303 0 0 0
1136 0 0 0
1134 0 0 0
1315 0 0 0
1309 0 0 0
2183 0 0 0
2185 0 0 0
2188 0 0 0
2181 0 0 0
2061 0 0 0
2988 0 0 0
2979 0 0 0
2983 0 0 0
3154 0 0 0
2987 0 0 0
2985 0 0 0
3166 0 0 0
3160 0 0 0
3676 0 0 0
3678 0 0 0
3681 0 0 0
3674 0 0 0
3554 0 0 0
4136 0 0 0
4128 0 0 0
4132 0 0 0
4272 0 0 0
4135 0 0 0
4134 0 0 0
4282 0 0 0
4277 0 0 0
4770 0 0 0
4772 0 0 0
4775 0 0 0
4767 0 0 0
4633 0 0 0
5187 0 0 0
5180 0 0 0
5184 0 0 0
5284 0 0 0
5916 0 0 0
5914 0 0 0
6098 0 0 0
6089 0 0 0
6093 0 0 0
6095 0 0 0
6097 0 0 0
6088 0 0 0
6970 0 0 0
6981 0 0 0
6973 0 0 0
6978 0 0 0
7093 0 0 0
8114 0 0 0
8112 0 0 0
8296 0 0 0
8287 0 0 0
8291 0 0 0
8293 0 0 0
8295 0 0 0
8286 0 0 0
1313 0 0 0
1316 0 0 0
1310 0 0 0
1305 0 0 0
1307 0 0 0
2179 0 0 0
2187 0 0 0
2189 0 0 0
2182 0 0 0
3167 0 0 0
3161 0 0 0
3156 0 0 0
3158 0 0 0
3672 0 0 0
3682 0 0 0
3675 0 0 0
3680 0 0 0
4283 0 0 0
4278 0 0 0
4274 0 0 0
4276 0 0 0
4765 0 0 0
4776 0 0 0
4768 0 0 0
4774 0 0 0
5291 0 0 0
5288 0 0 0
5286 0 0 0
6084 0 0 0
6086 0 0 0
6099 0 0 0
6090 0 0 0
7098 0 0 0
7101 0 0 0
7097 0 0 0
7095 0 0 0
8282 0 0 0
8284 0 0 0
8297 0 0 0
8288 0 0 0
151 0 0 0
155 0 0 0
160 0 0 0
1329 0 0 0
145 0 0 0
146 0 0 0
157 0 0 0
1326 0 0 0
1332 0 0 0
152 0 0 0
161 0 0 0
1462 0 0 0
1464 0 0 0
1461 0 0 0
1467 0 0 0
1460 0 0 0
1458 0 0 0
2384 0 0 0
2388 0 0 0
2393 0 0 0
3180 0 0 0
2379 0 0 0
2390 0 0 0
3177 0 0 0
3183 0 0 0
2385 0 0 0
2394 0 0 0
3313 0 0 0
3315 0 0 0
3312 0 0 0
3318 0 0 0
3309 0 0 0
3311 0 0 0
3869 0 0 0
3877 0 0 0
4294 0 0 0
3873 0 0 0
3864 0 0 0
3875 0 0 0
4292 0 0 0
4297 0 0 0
3870 0 0 0
3878 0 0 0
4430 0 0 0
4432 0 0 0
4428 0 0 0
4435 0 0 0
4425 0 0 0
4427 0 0 0
4938 0 0 0
4944 0 0 0
5298 0 0 0
4941 0 0 0
4934 0 0 0
5433 0 0 0
6108 0 0 0
6117 0 0 0
5432 0 0 0
5440 0 0 0
5435 0 0 0
5437 0 0 0
5431 0 0 0
5439 0 0 0
5428 0 0 0
6289 0 0 0
6295 0 0 0
6302 0 0 0
7109 0 0 0
6298 0 0 0
6291 0 0 0
7247 0 0 0
8306 0 0 0
8315 0 0 0
7246 0 0 0
7254 0 0 0
7249 0 0 0
7251 0 0 0
7245 0 0 0
7253 0 0 0
7242 0 0 0
159 0 0 0
153 0 0 0
326 0 0 0
162 0 0 0
148 0 0 0
150 0 0 0
324 0 0 0
1582 0 0 0
1466 0 0 0
1587 0 0 0
1591 0 0 0
1584 0 0 0
2386 0 0 0
2559 0 0 0
2395 0 0 0
2381 0 0 0
2383 0 0 0
2557 0 0 0
3435 0 0 0
3440 0 0 0
3444 0 0 0
3317 0 0 0
3437 0 0 0
3871 0 0 0
4012 0 0 0
3879 0 0 0
3866 0 0 0
3868 0 0 0
4010 0 0 0
4534 0 0 0
4539 0 0 0
4540 0 0 0
4434 0 0 0
4536 0 0 0
4939 0 0 0
5053 0 0 0
4945 0 0 0
4936 0 0 0
5430 0 0 0
5600 0 0 0
5595 0 0 0
5599 0 0 0
5606 0 0 0
6300 0 0 0
5597 0 0 0
6296 0 0 0
6430 0 0 0
6303 0 0 0
6293 0 0 0
7244 0 0 0
7412 0 0 0
7407 0 0 0
7411 0 0 0
7418 0 0 0
7409 0 0 0
325 0 0 0
328 0 0 0
333 0 0 0
322 0 0 0
323 0 0 0
330 0 0 0
332 0 0 0
1586 0 0 0
1588 0 0 0
2558 0 0 0
2561 0 0 0
2566 0 0 0
2556 0 0 0
2563 0 0 0
2565 0 0 0
3441 0 0 0
3439 0 0 0
4011 0 0 0
4018 0 0 0
4014 0 0 0
3704 0 0 0
4016 0 0 0
4017 0 0 0
3207 0 0 0
4538 0 0 0
5052 0 0 0
5057 0 0 0
5055 0 0 0
5051 0 0 0
5602 0 0 0
5607 0 0 0
5601 0 0 0
6426 0 0 0
6429 0 0 0
6434 0 0 0
6432 0 0 0
6428 0 0 0
7414 0 0 0
7419 0 0 0
7413 0 0 0
462 0 0 0
460 0 0 0
465 0 0 0
456 0 0 0
459 0 0 0
1589 0 0 0
464 0 0 0
1672 0 0 0
1670 0 0 0
1673 0 0 0
1592 0 0 0
2675 0 0 0
2679 0 0 0
2671 0 0 0
2674 0 0 0
3442 0 0 0
2678 0 0 0
3705 0 0 0
3205 0 0 0
3203 0 0 0
3445 0 0 0
3206 0 0 0
3201 0 0 0
3197 0 0 0
2215 0 0 0
2211 0 0 0
2209 0 0 0
1356 0 0 0
2212 0 0 0
1354 0 0 0
1352 0 0 0
1355 0 0 0
1350 0 0 0
1346 0 0 0
5700 0 0 0
5704 0 0 0
5604 0 0 0
5702 0 0 0
5705 0 0 0
6523 0 0 0
5608 0 0 0
6521 0 0 0
6525 0 0 0
6518 0 0 0
7535 0 0 0
7540 0 0 0
7416 0 0 0
7537 0 0 0
7541 0 0 0
7420 0 0 0
964 0 0 0
969 0 0 0
966 0 0 0
968 0 0 0
960 0 0 0
1966 0 0 0
970 0 0 0
1968 0 0 0
1969 0 0 0
2830 0 0 0
2832 0 0 0
1343 0 0 0
8337 0 0 0
2827 0 0 0
8329 0 0 0
2833 0 0 0
3483 0 0 0
8327 0 0 0
8325 0 0 0
8330 0 0 0
8136 0 0 0
7009 0 0 0
7120 0 0 0
7002 0 0 0
7005 0 0 0
7006 0 0 0
6139 0 0 0
6131 0 0 0
6129 0 0 0
6127 0 0 0
6132 0 0 0
5781 0 0 0
5788 0 0 0
5784 0 0 0
5786 0 0 0
5787 0 0 0
6855 0 0 0
6853 0 0 0
7970 0 0 0
7975 0 0 0
7968 0 0 0
7977 0 0 0
7972 0 0 0
7974 0 0 0
7976 0 0 0
1144 0 0 0
1141 0 0 0
1145 0 0 0
1150 0 0 0
958 0 0 0
1138 0 0 0
1142 0 0 0
2066 0 0 0
2073 0 0 0
2071 0 0 0
2074 0 0 0
2068 0 0 0
2992 0 0 0
2996 0 0 0
3001 0 0 0
2825 0 0 0
2989 0 0 0
2993 0 0 0
3559 0 0 0
3564 0 0 0
3567 0 0 0
3566 0 0 0
3561 0 0 0
5938 0 0 0
4141 0 0 0
5210 0 0 0
5308 0 0 0
5204 0 0 0
4138 0 0 0
4638 0 0 0
4643 0 0 0
4645 0 0 0
4644 0 0 0
4640 0 0 0
5189 0 0 0
5192 0 0 0
5196 0 0 0
5104 0 0 0
5917 0 0 0
5924 0 0 0
5919 0 0 0
5923 0 0 0
5927 0 0 0
6986 0 0 0
5921 0 0 0
6984 0 0 0
6988 0 0 0
6992 0 0 0
6848 0 0 0
8115 0 0 0
8122 0 0 0
8117 0 0 0
8121 0 0 0
8125 0 0 0
8119 0 0 0
1143 0 0 0
1147 0 0 0
1152 0 0 0
1140 0 0 0
1318 0 0 0
1149 0 0 0
1151 0 0 0
1324 0 0 0
1330 0 0 0
2194 0 0 0
2196 0 0 0
2192 0 0 0
2199 0 0 0
2070 0 0 0
2994 0 0 0
2998 0 0 0
3003 0 0 0
3169 0 0 0
3000 0 0 0
3002 0 0 0
3175 0 0 0
3181 0 0 0
3687 0 0 0
3689 0 0 0
3685 0 0 0
3692 0 0 0
3563 0 0 0
4139 0 0 0
4147 0 0 0
4143 0 0 0
4285 0 0 0
4145 0 0 0
4146 0 0 0
4290 0 0 0
4295 0 0 0
4783 0 0 0
4785 0 0 0
4780 0 0 0
4788 0 0 0
4642 0 0 0
5190 0 0 0
5197 0 0 0
5194 0 0 0
5292 0 0 0
5926 0 0 0
5928 0 0 0
6106 0 0 0
6115 0 0 0
6110 0 0 0
6112 0 0 0
6105 0 0 0
6114 0 0 0
6982 0 0 0
6985 0 0 0
6993 0 0 0
6990 0 0 0
7102 0 0 0
8124 0 0 0
8126 0 0 0
8304 0 0 0
8313 0 0 0
8308 0 0 0
8310 0 0 0
8303 0 0 0
8312 0 0 0
1328 0 0 0
1325 0 0 0
1331 0 0 0
1320 0 0 0
1322 0 0 0
2190 0 0 0
2198 0 0 0
2193 0 0 0
2200 0 0 0
3176 0 0 0
3182 0 0 0
3171 0 0 0
3173 0 0 0
3683 0 0 0
3686 0 0 0
3693 0 0 0
3691 0 0 0
4291 0 0 0
4296 0 0 0
4287 0 0 0
4289 0 0 0
4778 0 0 0
4781 0 0 0
4789 0 0 0
4787 0 0 0
5296 0 0 0
5299 0 0 0
5294 0 0 0
6101 0 0 0
6103 0 0 0
6107 0 0 0
6116 0 0 0
7107 0 0 0
7106 0 0 0
7110 0 0 0
7104 0 0 0
8299 0 0 0
8301 0 0 0
8305 0 0 0
8314 0 0 0
163 0 0 0
169 0 0 0
164 0 0 0
1470 0 0 0
1471 0 0 0
1468 0 0 0
2402 0 0 0
2397 0 0 0
3322 0 0 0
3319 0 0 0
3321 0 0 0
3886 0 0 0
3881 0 0 0
4439 0 0 0
4436 0 0 0
4438 0 0 0
4951 0 0 0
4947 0 0 0
5444 0 0 0
5441 0 0 0
6304 0 0 0
6310 0 0 0
6306 0 0 0
7258 0 0 0
7255 0 0 0
171 0 0 0
166 0 0 0
170 0 0 0
168 0 0 0
337 0 0 0
1593 0 0 0
1595 0 0 0
1598 0 0 0
2404 0 0 0
2399 0 0 0
2403 0 0 0
2401 0 0 0
2570 0 0 0
3446 0 0 0
3448 0 0 0
3451 0 0 0
3888 0 0 0
3883 0 0 0
3887 0 0 0
3885 0 0 0
4020 0 0 0
4542 0 0 0
4544 0 0 0
4547 0 0 0
4952 0 0 0
4949 0 0 0
5445 0 0 0
5443 0 0 0
5615 0 0 0
5610 0 0 0
5612 0 0 0
5614 0 0 0
6311 0 0 0
6308 0 0 0
7259 0 0 0
7257 0 0 0
7427 0 0 0
7422 0 0 0
7424 0 0 0
7426 0 0 0
335 0 0 0
336 0 0 0
338 0 0 0
1597 0 0 0
1599 0 0 0
2569 0 0 0
2571 0 0 0
3452 0 0 0
3450 0 0 0
5207 0 0 0
4021 0 0 0
4660 0 0 0
4546 0 0 0
5059 0 0 0
5060 0 0 0
5616 0 0 0
6435 0 0 0
6437 0 0 0
6438 0 0 0
7428 0 0 0
473 0 0 0
468 0 0 0
472 0 0 0
470 0 0 0
2685 0 0 0
2681 0 0 0
2684 0 0 0
2683 0 0 0
4806 0 0 0
4801 0 0 0
4798 0 0 0
4796 0 0 0
4308 0 0 0
4156 0 0 0
5708 0 0 0
4161 0 0 0
6529 0 0 0
6527 0 0 0
7548 0 0 0
7543 0 0 0
565 0 0 0
569 0 0 0
474 0 0 0
1674 0 0 0
1676 0 0 0
1677 0 0 0
1734 0 0 0
1732 0 0 0
2726 0 0 0
4311 0 0 0
4154 0 0 0
4158 0 0 0
3581 0 0 0
3707 0 0 0
3703 0 0 0
3700 0 0 0
3698 0 0 0
3196 0 0 0
3015 0 0 0
3024 0 0 0
3199 0 0 0
3013 0 0 0
3018 0 0 0
2214 0 0 0
2088 0 0 0
5707 0 0 0
5709 0 0 0
2210 0 0 0
6596 0 0 0
6599 0 0 0
7550 0 0 0
7545 0 0 0
7547 0 0 0
7549 0 0 0
7630 0 0 0
976 0 0 0
1883 0 0 0
1970 0 0 0
1888 0 0 0
2207 0 0 0
2205 0 0 0
1345 0 0 0
1164 0 0 0
1173 0 0 0
1348 0 0 0
1170 0 0 0
1162 0 0 0
1167 0 0 0
8145 0 0 0
5789 0 0 0
8143 0 0 0
7980 0 0 0
7855 0 0 0
7978 0 0 0
7861 0 0 0
971 0 0 0
977 0 0 0
972 0 0 0
1972 0 0 0
1973 0 0 0
2839 0 0 0
2835 0 0 0
8137 0 0 0
8141 0 0 0
8146 0 0 0
8138 0 0 0
7995 0 0 0
8139 0 0 0
6871 0 0 0
7008 0 0 0
5791 0 0 0
6856 0 0 0
6862 0 0 0
6858 0 0 0
7981 0 0 0
1156 0 0 0
974 0 0 0
1153 0 0 0
978 0 0 0
1157 0 0 0
2075 0 0 0
2077 0 0 0
2080 0 0 0
3007 0 0 0
2837 0 0 0
3004 0 0 0
2840 0 0 0
3008 0 0 0
3568 0 0 0
3570 0 0 0
3573 0 0 0
7000 0 0 0
7004 0 0 0
5947 0 0 0
5945 0 0 0
4149 0 0 0
4647 0 0 0
4649 0 0 0
4652 0 0 0
5199 0 0 0
5106 0 0 0
5929 0 0 0
5792 0 0 0
5936 0 0 0
5931 0 0 0
5933 0 0 0
5935 0 0 0
6996 0 0 0
6860 0 0 0
8127 0 0 0
7982 0 0 0
8134 0 0 0
8129 0 0 0
8131 0 0 0
8133 0 0 0
1155 0 0 0
1158 0 0 0
1333 0 0 0
2079 0 0 0
2203 0 0 0
3009 0 0 0
3184 0 0 0
3696 0 0 0
3572 0 0 0
4150 0 0 0
4298 0 0 0
4793 0 0 0
4651 0 0 0
5200 0 0 0
5300 0 0 0
6122 0 0 0
6994 0 0 0
6997 0 0 0
7111 0 0 0
8320 0 0 0
1340 0 0 0
1335 0 0 0
1339 0 0 0
1337 0 0 0
1341 0 0 0
2201 0 0 0
2204 0 0 0
3191 0 0 0
3186 0 0 0
3190 0 0 0
3188 0 0 0
3192 0 0 0
3694 0 0 0
3697 0 0 0
4304 0 0 0
4300 0 0 0
4303 0 0 0
4302 0 0 0
4305 0 0 0
4791 0 0 0
4794 0 0 0
5304 0 0 0
5302 0 0 0
6123 0 0 0
6118 0 0 0
6125 0 0 0
6120 0 0 0
6124 0 0 0
7115 0 0 0
7113 0 0 0
8321 0 0 0
8316 0 0 0
8323 0 0 0
8318 0 0 0
8322 0 0 0
178 0 0 0
173 0 0 0
1344 0 0 0
181 0 0 0
182 0 0 0
187 0 0 0
175 0 0 0
1347 0 0 0
179 0 0 0
1472 0 0 0
1474 0 0 0
1477 0 0 0
1480 0 0 0
1478 0 0 0
1481 0 0 0
2411 0 0 0
2406 0 0 0
3195 0 0 0
2415 0 0 0
2420 0 0 0
2408 0 0 0
3198 0 0 0
2412 0 0 0
3323 0 0 0
3325 0 0 0
3328 0 0 0
3329 0 0 0
3332 0 0 0
3331 0 0 0
3894 0 0 0
4307 0 0 0
3890 0 0 0
3898 0 0 0
3903 0 0 0
3892 0 0 0
4310 0 0 0
3895 0 0 0
4441 0 0 0
4443 0 0 0
4446 0 0 0
4447 0 0 0
4450 0 0 0
4449 0 0 0
4957 0 0 0
5306 0 0 0
4954 0 0 0
4960 0 0 0
4964 0 0 0
5446 0 0 0
6134 0 0 0
5453 0 0 0
5448 0 0 0
5450 0 0 0
5452 0 0 0
5454 0 0 0
5457 0 0 0
6319 0 0 0
6317 0 0 0
7118 0 0 0
6313 0 0 0
6321 0 0 0
6325 0 0 0
7260 0 0 0
8332 0 0 0
7267 0 0 0
7262 0 0 0
7264 0 0 0
7266 0 0 0
7268 0 0 0
7271 0 0 0
177 0 0 0
180 0 0 0
339 0 0 0
184 0 0 0
189 0 0 0
186 0 0 0
188 0 0 0
345 0 0 0
350 0 0 0
1604 0 0 0
1476 0 0 0
1602 0 0 0
1606 0 0 0
1609 0 0 0
2413 0 0 0
2572 0 0 0
2417 0 0 0
2422 0 0 0
2419 0 0 0
2421 0 0 0
2578 0 0 0
2583 0 0 0
3457 0 0 0
3455 0 0 0
3327 0 0 0
3459 0 0 0
3462 0 0 0
3896 0 0 0
4022 0 0 0
3905 0 0 0
3900 0 0 0
3902 0 0 0
3904 0 0 0
4027 0 0 0
4030 0 0 0
4550 0 0 0
4548 0 0 0
4445 0 0 0
4552 0 0 0
4555 0 0 0
4958 0 0 0
5061 0 0 0
4965 0 0 0
4962 0 0 0
5456 0 0 0
5458 0 0 0
5622 0 0 0
5630 0 0 0
5625 0 0 0
5621 0 0 0
6315 0 0 0
5627 0 0 0
5629 0 0 0
6318 0 0 0
6439 0 0 0
6326 0 0 0
6323 0 0 0
7270 0 0 0
7272 0 0 0
7434 0 0 0
7442 0 0 0
7437 0 0 0
7433 0 0 0
7439 0 0 0
7441 0 0 0
346 0 0 0
341 0 0 0
348 0 0 0
349 0 0 0
351 0 0 0
343 0 0 0
1603 0 0 0
1608 0 0 0
1610 0 0 0
2579 0 0 0
2574 0 0 0
2582 0 0 0
2584 0 0 0
2576 0 0 0
3456 0 0 0
3463 0 0 0
3461 0 0 0
4028 0 0 0
4024 0 0 0
6998 0 0 0
4031 0 0 0
4026 0 0 0
5939 0 0 0
5943 0 0 0
4554 0 0 0
5065 0 0 0
5063 0 0 0
5067 0 0 0
5068 0 0 0
5617 0 0 0
5623 0 0 0
5631 0 0 0
6444 0 0 0
6443 0 0 0
6441 0 0 0
6446 0 0 0
6447 0 0 0
7429 0 0 0
7435 0 0 0
7443 0 0 0
475 0 0 0
476 0 0 0
481 0 0 0
484 0 0 0
489 0 0 0
480 0 0 0
1600 0 0 0
486 0 0 0
488 0 0 0
1680 0 0 0
1678 0 0 0
1681 0 0 0
2687 0 0 0
2690 0 0 0
2692 0 0 0
2696 0 0 0
2689 0 0 0
3453 0 0 0
2694 0 0 0
2695 0 0 0
5948 0 0 0
5940 0 0 0
5802 0 0 0
5941 0 0 0
5108 0 0 0
5209 0 0 0
5202 0 0 0
5206 0 0 0
4661 0 0 0
4658 0 0 0
4653 0 0 0
4654 0 0 0
4656 0 0 0
4160 0 0 0
4157 0 0 0
4152 0 0 0
3582 0 0 0
3579 0 0 0
5712 0 0 0
5619 0 0 0
3575 0 0 0
5716 0 0 0
5710 0 0 0
5713 0 0 0
6530 0 0 0
6532 0 0 0
6536 0 0 0
6540 0 0 0
6538 0 0 0
7553 0 0 0
7431 0 0 0
7556 0 0 0
7561 0 0 0
7551 0 0 0
7554 0 0 0
573 0 0 0
478 0 0 0
576 0 0 0
577 0 0 0
582 0 0 0
482 0 0 0
1682 0 0 0
490 0 0 0
570 0 0 0
1684 0 0 0
1685 0 0 0
1740 0 0 0
1744 0 0 0
1743 0 0 0
2727 0 0 0
3576 0 0 0
3577 0 0 0
2729 0 0 0
3023 0 0 0
3017 0 0 0
2852 0 0 0
3019 0 0 0
3022 0 0 0
2849 0 0 0
3011 0 0 0
3016 0 0 0
2089 0 0 0
2086 0 0 0
2083 0 0 0
2082 0 0 0
2084 0 0 0
1172 0 0 0
1166 0 0 0
994 0 0 0
1168 0 0 0
1171 0 0 0
990 0 0 0
1160 0 0 0
1165 0 0 0
1159 0 0 0
7994 0 0 0
7989 0 0 0
7987 0 0 0
7985 0 0 0
7990 0 0 0
7983 0 0 0
6873 0 0 0
6869 0 0 0
5715 0 0 0
5717 0 0 0
6864 0 0 0
6866 0 0 0
6603 0 0 0
6601 0 0 0
6534 0 0 0
6605 0 0 0
6609 0 0 0
7555 0 0 0
7563 0 0 0
7558 0 0 0
7631 0 0 0
7560 0 0 0
7562 0 0 0
7637 0 0 0
7642 0 0 0
572 0 0 0
650 0 0 0
575 0 0 0
579 0 0 0
584 0 0 0
574 0 0 0
1735 0 0 0
581 0 0 0
583 0 0 0
1741 0 0 0
1739 0 0 0
1737 0 0 0
6867 0 0 0
5801 0 0 0
5797 0 0 0
5796 0 0 0
