Generated by pymatgen.io.lammps.data.LammpsData

12288  atoms

    2  atom types

0.000000 56.960000  xlo xhi
0.000000 56.960000  ylo yhi
0.000000 56.960000  zlo zhi

Masses

1  28.0855
2  15.9994

Atoms

1      1  1 0.0000  0.000000  0.000000  0.000000
2      1  1 0.0000  0.000000  0.000000  7.120000
3      1  1 0.0000  0.000000  0.000000 14.240000
4      1  1 0.0000  0.000000  0.000000 21.360000
5      1  1 0.0000  0.000000  0.000000 28.480000
6      1  1 0.0000  0.000000  0.000000 35.600000
7      1  1 0.0000  0.000000  0.000000 42.720000
8      1  1 0.0000  0.000000  0.000000 49.840000
9      1  1 0.0000  0.000000  7.120000 -0.000000
10     1  1 0.0000  0.000000  7.120000  7.120000
11     1  1 0.0000  0.000000  7.120000 14.240000
12     1  1 0.0000  0.000000  7.120000 21.360000
13     1  1 0.0000  0.000000  7.120000 28.480000
14     1  1 0.0000  0.000000  7.120000 35.600000
15     1  1 0.0000  0.000000  7.120000 42.720000
16     1  1 0.0000  0.000000  7.120000 49.840000
17     1  1 0.0000  0.000000 14.240000 -0.000000
18     1  1 0.0000  0.000000 14.240000  7.120000
19     1  1 0.0000  0.000000 14.240000 14.240000
20     1  1 0.0000  0.000000 14.240000 21.360000
21     1  1 0.0000  0.000000 14.240000 28.480000
22     1  1 0.0000  0.000000 14.240000 35.600000
23     1  1 0.0000  0.000000 14.240000 42.720000
24     1  1 0.0000  0.000000 14.240000 49.840000
25     1  1 0.0000  0.000000 21.360000 -0.000000
26     1  1 0.0000  0.000000 21.360000  7.120000
27     1  1 0.0000  0.000000 21.360000 14.240000
28     1  1 0.0000  0.000000 21.360000 21.360000
29     1  1 0.0000  0.000000 21.360000 28.480000
30     1  1 0.0000  0.000000 21.360000 35.600000
31     1  1 0.0000  0.000000 21.360000 42.720000
32     1  1 0.0000  0.000000 21.360000 49.840000
33     1  1 0.0000  0.000000 28.480000 -0.000000
34     1  1 0.0000  0.000000 28.480000  7.120000
35     1  1 0.0000  0.000000 28.480000 14.240000
36     1  1 0.0000  0.000000 28.480000 21.360000
37     1  1 0.0000  0.000000 28.480000 28.480000
38     1  1 0.0000  0.000000 28.480000 35.600000
39     1  1 0.0000  0.000000 28.480000 42.720000
40     1  1 0.0000  0.000000 28.480000 49.840000
41     1  1 0.0000  0.000000 35.600000 -0.000000
42     1  1 0.0000  0.000000 35.600000  7.120000
43     1  1 0.0000  0.000000 35.600000 14.240000
44     1  1 0.0000  0.000000 35.600000 21.360000
45     1  1 0.0000  0.000000 35.600000 28.480000
46     1  1 0.0000  0.000000 35.600000 35.600000
47     1  1 0.0000  0.000000 35.600000 42.720000
48     1  1 0.0000  0.000000 35.600000 49.840000
49     1  1 0.0000  0.000000 42.720000 -0.000000
50     1  1 0.0000  0.000000 42.720000  7.120000
51     1  1 0.0000  0.000000 42.720000 14.240000
52     1  1 0.0000  0.000000 42.720000 21.360000
53     1  1 0.0000  0.000000 42.720000 28.480000
54     1  1 0.0000  0.000000 42.720000 35.600000
55     1  1 0.0000  0.000000 42.720000 42.720000
56     1  1 0.0000  0.000000 42.720000 49.840000
57     1  1 0.0000  0.000000 49.840000 -0.000000
58     1  1 0.0000  0.000000 49.840000  7.120000
59     1  1 0.0000  0.000000 49.840000 14.240000
60     1  1 0.0000  0.000000 49.840000 21.360000
61     1  1 0.0000  0.000000 49.840000 28.480000
62     1  1 0.0000  0.000000 49.840000 35.600000
63     1  1 0.0000  0.000000 49.840000 42.720000
64     1  1 0.0000  0.000000 49.840000 49.840000
65     1  1 0.0000  7.120000 -0.000000 -0.000000
66     1  1 0.0000  7.120000  0.000000  7.120000
67     1  1 0.0000  7.120000  0.000000 14.240000
68     1  1 0.0000  7.120000  0.000000 21.360000
69     1  1 0.0000  7.120000  0.000000 28.480000
70     1  1 0.0000  7.120000  0.000000 35.600000
71     1  1 0.0000  7.120000  0.000000 42.720000
72     1  1 0.0000  7.120000  0.000000 49.840000
73     1  1 0.0000  7.120000  7.120000 -0.000000
74     1  1 0.0000  7.120000  7.120000  7.120000
75     1  1 0.0000  7.120000  7.120000 14.240000
76     1  1 0.0000  7.120000  7.120000 21.360000
77     1  1 0.0000  7.120000  7.120000 28.480000
78     1  1 0.0000  7.120000  7.120000 35.600000
79     1  1 0.0000  7.120000  7.120000 42.720000
80     1  1 0.0000  7.120000  7.120000 49.840000
81     1  1 0.0000  7.120000 14.240000 -0.000000
82     1  1 0.0000  7.120000 14.240000  7.120000
83     1  1 0.0000  7.120000 14.240000 14.240000
84     1  1 0.0000  7.120000 14.240000 21.360000
85     1  1 0.0000  7.120000 14.240000 28.480000
86     1  1 0.0000  7.120000 14.240000 35.600000
87     1  1 0.0000  7.120000 14.240000 42.720000
88     1  1 0.0000  7.120000 14.240000 49.840000
89     1  1 0.0000  7.120000 21.360000 -0.000000
90     1  1 0.0000  7.120000 21.360000  7.120000
91     1  1 0.0000  7.120000 21.360000 14.240000
92     1  1 0.0000  7.120000 21.360000 21.360000
93     1  1 0.0000  7.120000 21.360000 28.480000
94     1  1 0.0000  7.120000 21.360000 35.600000
95     1  1 0.0000  7.120000 21.360000 42.720000
96     1  1 0.0000  7.120000 21.360000 49.840000
97     1  1 0.0000  7.120000 28.480000 -0.000000
98     1  1 0.0000  7.120000 28.480000  7.120000
99     1  1 0.0000  7.120000 28.480000 14.240000
100    1  1 0.0000  7.120000 28.480000 21.360000
101    1  1 0.0000  7.120000 28.480000 28.480000
102    1  1 0.0000  7.120000 28.480000 35.600000
103    1  1 0.0000  7.120000 28.480000 42.720000
104    1  1 0.0000  7.120000 28.480000 49.840000
105    1  1 0.0000  7.120000 35.600000 -0.000000
106    1  1 0.0000  7.120000 35.600000  7.120000
107    1  1 0.0000  7.120000 35.600000 14.240000
108    1  1 0.0000  7.120000 35.600000 21.360000
109    1  1 0.0000  7.120000 35.600000 28.480000
110    1  1 0.0000  7.120000 35.600000 35.600000
111    1  1 0.0000  7.120000 35.600000 42.720000
112    1  1 0.0000  7.120000 35.600000 49.840000
113    1  1 0.0000  7.120000 42.720000 -0.000000
114    1  1 0.0000  7.120000 42.720000  7.120000
115    1  1 0.0000  7.120000 42.720000 14.240000
116    1  1 0.0000  7.120000 42.720000 21.360000
117    1  1 0.0000  7.120000 42.720000 28.480000
118    1  1 0.0000  7.120000 42.720000 35.600000
119    1  1 0.0000  7.120000 42.720000 42.720000
120    1  1 0.0000  7.120000 42.720000 49.840000
121    1  1 0.0000  7.120000 49.840000 -0.000000
122    1  1 0.0000  7.120000 49.840000  7.120000
123    1  1 0.0000  7.120000 49.840000 14.240000
124    1  1 0.0000  7.120000 49.840000 21.360000
125    1  1 0.0000  7.120000 49.840000 28.480000
126    1  1 0.0000  7.120000 49.840000 35.600000
127    1  1 0.0000  7.120000 49.840000 42.720000
128    1  1 0.0000  7.120000 49.840000 49.840000
129    1  1 0.0000 14.240000 -0.000000 -0.000000
130    1  1 0.0000 14.240000  0.000000  7.120000
131    1  1 0.0000 14.240000  0.000000 14.240000
132    1  1 0.0000 14.240000  0.000000 21.360000
133    1  1 0.0000 14.240000  0.000000 28.480000
134    1  1 0.0000 14.240000  0.000000 35.600000
135    1  1 0.0000 14.240000  0.000000 42.720000
136    1  1 0.0000 14.240000  0.000000 49.840000
137    1  1 0.0000 14.240000  7.120000 -0.000000
138    1  1 0.0000 14.240000  7.120000  7.120000
139    1  1 0.0000 14.240000  7.120000 14.240000
140    1  1 0.0000 14.240000  7.120000 21.360000
141    1  1 0.0000 14.240000  7.120000 28.480000
142    1  1 0.0000 14.240000  7.120000 35.600000
143    1  1 0.0000 14.240000  7.120000 42.720000
144    1  1 0.0000 14.240000  7.120000 49.840000
145    1  1 0.0000 14.240000 14.240000 -0.000000
146    1  1 0.0000 14.240000 14.240000  7.120000
147    1  1 0.0000 14.240000 14.240000 14.240000
148    1  1 0.0000 14.240000 14.240000 21.360000
149    1  1 0.0000 14.240000 14.240000 28.480000
150    1  1 0.0000 14.240000 14.240000 35.600000
151    1  1 0.0000 14.240000 14.240000 42.720000
152    1  1 0.0000 14.240000 14.240000 49.840000
153    1  1 0.0000 14.240000 21.360000 -0.000000
154    1  1 0.0000 14.240000 21.360000  7.120000
155    1  1 0.0000 14.240000 21.360000 14.240000
156    1  1 0.0000 14.240000 21.360000 21.360000
157    1  1 0.0000 14.240000 21.360000 28.480000
158    1  1 0.0000 14.240000 21.360000 35.600000
159    1  1 0.0000 14.240000 21.360000 42.720000
160    1  1 0.0000 14.240000 21.360000 49.840000
161    1  1 0.0000 14.240000 28.480000 -0.000000
162    1  1 0.0000 14.240000 28.480000  7.120000
163    1  1 0.0000 14.240000 28.480000 14.240000
164    1  1 0.0000 14.240000 28.480000 21.360000
165    1  1 0.0000 14.240000 28.480000 28.480000
166    1  1 0.0000 14.240000 28.480000 35.600000
167    1  1 0.0000 14.240000 28.480000 42.720000
168    1  1 0.0000 14.240000 28.480000 49.840000
169    1  1 0.0000 14.240000 35.600000 -0.000000
170    1  1 0.0000 14.240000 35.600000  7.120000
171    1  1 0.0000 14.240000 35.600000 14.240000
172    1  1 0.0000 14.240000 35.600000 21.360000
173    1  1 0.0000 14.240000 35.600000 28.480000
174    1  1 0.0000 14.240000 35.600000 35.600000
175    1  1 0.0000 14.240000 35.600000 42.720000
176    1  1 0.0000 14.240000 35.600000 49.840000
177    1  1 0.0000 14.240000 42.720000 -0.000000
178    1  1 0.0000 14.240000 42.720000  7.120000
179    1  1 0.0000 14.240000 42.720000 14.240000
180    1  1 0.0000 14.240000 42.720000 21.360000
181    1  1 0.0000 14.240000 42.720000 28.480000
182    1  1 0.0000 14.240000 42.720000 35.600000
183    1  1 0.0000 14.240000 42.720000 42.720000
184    1  1 0.0000 14.240000 42.720000 49.840000
185    1  1 0.0000 14.240000 49.840000 -0.000000
186    1  1 0.0000 14.240000 49.840000  7.120000
187    1  1 0.0000 14.240000 49.840000 14.240000
188    1  1 0.0000 14.240000 49.840000 21.360000
189    1  1 0.0000 14.240000 49.840000 28.480000
190    1  1 0.0000 14.240000 49.840000 35.600000
191    1  1 0.0000 14.240000 49.840000 42.720000
192    1  1 0.0000 14.240000 49.840000 49.840000
193    1  1 0.0000 21.360000 -0.000000  0.000000
194    1  1 0.0000 21.360000  0.000000  7.120000
195    1  1 0.0000 21.360000  0.000000 14.240000
196    1  1 0.0000 21.360000  0.000000 21.360000
197    1  1 0.0000 21.360000  0.000000 28.480000
198    1  1 0.0000 21.360000  0.000000 35.600000
199    1  1 0.0000 21.360000  0.000000 42.720000
200    1  1 0.0000 21.360000  0.000000 49.840000
201    1  1 0.0000 21.360000  7.120000 -0.000000
202    1  1 0.0000 21.360000  7.120000  7.120000
203    1  1 0.0000 21.360000  7.120000 14.240000
204    1  1 0.0000 21.360000  7.120000 21.360000
205    1  1 0.0000 21.360000  7.120000 28.480000
206    1  1 0.0000 21.360000  7.120000 35.600000
207    1  1 0.0000 21.360000  7.120000 42.720000
208    1  1 0.0000 21.360000  7.120000 49.840000
209    1  1 0.0000 21.360000 14.240000  0.000000
210    1  1 0.0000 21.360000 14.240000  7.120000
211    1  1 0.0000 21.360000 14.240000 14.240000
212    1  1 0.0000 21.360000 14.240000 21.360000
213    1  1 0.0000 21.360000 14.240000 28.480000
214    1  1 0.0000 21.360000 14.240000 35.600000
215    1  1 0.0000 21.360000 14.240000 42.720000
216    1  1 0.0000 21.360000 14.240000 49.840000
217    1  1 0.0000 21.360000 21.360000 -0.000000
218    1  1 0.0000 21.360000 21.360000  7.120000
219    1  1 0.0000 21.360000 21.360000 14.240000
220    1  1 0.0000 21.360000 21.360000 21.360000
221    1  1 0.0000 21.360000 21.360000 28.480000
222    1  1 0.0000 21.360000 21.360000 35.600000
223    1  1 0.0000 21.360000 21.360000 42.720000
224    1  1 0.0000 21.360000 21.360000 49.840000
225    1  1 0.0000 21.360000 28.480000 -0.000000
226    1  1 0.0000 21.360000 28.480000  7.120000
227    1  1 0.0000 21.360000 28.480000 14.240000
228    1  1 0.0000 21.360000 28.480000 21.360000
229    1  1 0.0000 21.360000 28.480000 28.480000
230    1  1 0.0000 21.360000 28.480000 35.600000
231    1  1 0.0000 21.360000 28.480000 42.720000
232    1  1 0.0000 21.360000 28.480000 49.840000
233    1  1 0.0000 21.360000 35.600000 -0.000000
234    1  1 0.0000 21.360000 35.600000  7.120000
235    1  1 0.0000 21.360000 35.600000 14.240000
236    1  1 0.0000 21.360000 35.600000 21.360000
237    1  1 0.0000 21.360000 35.600000 28.480000
238    1  1 0.0000 21.360000 35.600000 35.600000
239    1  1 0.0000 21.360000 35.600000 42.720000
240    1  1 0.0000 21.360000 35.600000 49.840000
241    1  1 0.0000 21.360000 42.720000 -0.000000
242    1  1 0.0000 21.360000 42.720000  7.120000
243    1  1 0.0000 21.360000 42.720000 14.240000
244    1  1 0.0000 21.360000 42.720000 21.360000
245    1  1 0.0000 21.360000 42.720000 28.480000
246    1  1 0.0000 21.360000 42.720000 35.600000
247    1  1 0.0000 21.360000 42.720000 42.720000
248    1  1 0.0000 21.360000 42.720000 49.840000
249    1  1 0.0000 21.360000 49.840000 -0.000000
250    1  1 0.0000 21.360000 49.840000  7.120000
251    1  1 0.0000 21.360000 49.840000 14.240000
252    1  1 0.0000 21.360000 49.840000 21.360000
253    1  1 0.0000 21.360000 49.840000 28.480000
254    1  1 0.0000 21.360000 49.840000 35.600000
255    1  1 0.0000 21.360000 49.840000 42.720000
256    1  1 0.0000 21.360000 49.840000 49.840000
257    1  1 0.0000 28.480000 -0.000000 -0.000000
258    1  1 0.0000 28.480000  0.000000  7.120000
259    1  1 0.0000 28.480000  0.000000 14.240000
260    1  1 0.0000 28.480000  0.000000 21.360000
261    1  1 0.0000 28.480000  0.000000 28.480000
262    1  1 0.0000 28.480000  0.000000 35.600000
263    1  1 0.0000 28.480000  0.000000 42.720000
264    1  1 0.0000 28.480000  0.000000 49.840000
265    1  1 0.0000 28.480000  7.120000 -0.000000
266    1  1 0.0000 28.480000  7.120000  7.120000
267    1  1 0.0000 28.480000  7.120000 14.240000
268    1  1 0.0000 28.480000  7.120000 21.360000
269    1  1 0.0000 28.480000  7.120000 28.480000
270    1  1 0.0000 28.480000  7.120000 35.600000
271    1  1 0.0000 28.480000  7.120000 42.720000
272    1  1 0.0000 28.480000  7.120000 49.840000
273    1  1 0.0000 28.480000 14.240000 -0.000000
274    1  1 0.0000 28.480000 14.240000  7.120000
275    1  1 0.0000 28.480000 14.240000 14.240000
276    1  1 0.0000 28.480000 14.240000 21.360000
277    1  1 0.0000 28.480000 14.240000 28.480000
278    1  1 0.0000 28.480000 14.240000 35.600000
279    1  1 0.0000 28.480000 14.240000 42.720000
280    1  1 0.0000 28.480000 14.240000 49.840000
281    1  1 0.0000 28.480000 21.360000 -0.000000
282    1  1 0.0000 28.480000 21.360000  7.120000
283    1  1 0.0000 28.480000 21.360000 14.240000
284    1  1 0.0000 28.480000 21.360000 21.360000
285    1  1 0.0000 28.480000 21.360000 28.480000
286    1  1 0.0000 28.480000 21.360000 35.600000
287    1  1 0.0000 28.480000 21.360000 42.720000
288    1  1 0.0000 28.480000 21.360000 49.840000
289    1  1 0.0000 28.480000 28.480000 -0.000000
290    1  1 0.0000 28.480000 28.480000  7.120000
291    1  1 0.0000 28.480000 28.480000 14.240000
292    1  1 0.0000 28.480000 28.480000 21.360000
293    1  1 0.0000 28.480000 28.480000 28.480000
294    1  1 0.0000 28.480000 28.480000 35.600000
295    1  1 0.0000 28.480000 28.480000 42.720000
296    1  1 0.0000 28.480000 28.480000 49.840000
297    1  1 0.0000 28.480000 35.600000 -0.000000
298    1  1 0.0000 28.480000 35.600000  7.120000
299    1  1 0.0000 28.480000 35.600000 14.240000
300    1  1 0.0000 28.480000 35.600000 21.360000
301    1  1 0.0000 28.480000 35.600000 28.480000
302    1  1 0.0000 28.480000 35.600000 35.600000
303    1  1 0.0000 28.480000 35.600000 42.720000
304    1  1 0.0000 28.480000 35.600000 49.840000
305    1  1 0.0000 28.480000 42.720000 -0.000000
306    1  1 0.0000 28.480000 42.720000  7.120000
307    1  1 0.0000 28.480000 42.720000 14.240000
308    1  1 0.0000 28.480000 42.720000 21.360000
309    1  1 0.0000 28.480000 42.720000 28.480000
310    1  1 0.0000 28.480000 42.720000 35.600000
311    1  1 0.0000 28.480000 42.720000 42.720000
312    1  1 0.0000 28.480000 42.720000 49.840000
313    1  1 0.0000 28.480000 49.840000 -0.000000
314    1  1 0.0000 28.480000 49.840000  7.120000
315    1  1 0.0000 28.480000 49.840000 14.240000
316    1  1 0.0000 28.480000 49.840000 21.360000
317    1  1 0.0000 28.480000 49.840000 28.480000
318    1  1 0.0000 28.480000 49.840000 35.600000
319    1  1 0.0000 28.480000 49.840000 42.720000
320    1  1 0.0000 28.480000 49.840000 49.840000
321    1  1 0.0000 35.600000 -0.000000 -0.000000
322    1  1 0.0000 35.600000  0.000000  7.120000
323    1  1 0.0000 35.600000  0.000000 14.240000
324    1  1 0.0000 35.600000  0.000000 21.360000
325    1  1 0.0000 35.600000  0.000000 28.480000
326    1  1 0.0000 35.600000  0.000000 35.600000
327    1  1 0.0000 35.600000  0.000000 42.720000
328    1  1 0.0000 35.600000  0.000000 49.840000
329    1  1 0.0000 35.600000  7.120000 -0.000000
330    1  1 0.0000 35.600000  7.120000  7.120000
331    1  1 0.0000 35.600000  7.120000 14.240000
332    1  1 0.0000 35.600000  7.120000 21.360000
333    1  1 0.0000 35.600000  7.120000 28.480000
334    1  1 0.0000 35.600000  7.120000 35.600000
335    1  1 0.0000 35.600000  7.120000 42.720000
336    1  1 0.0000 35.600000  7.120000 49.840000
337    1  1 0.0000 35.600000 14.240000 -0.000000
338    1  1 0.0000 35.600000 14.240000  7.120000
339    1  1 0.0000 35.600000 14.240000 14.240000
340    1  1 0.0000 35.600000 14.240000 21.360000
341    1  1 0.0000 35.600000 14.240000 28.480000
342    1  1 0.0000 35.600000 14.240000 35.600000
343    1  1 0.0000 35.600000 14.240000 42.720000
344    1  1 0.0000 35.600000 14.240000 49.840000
345    1  1 0.0000 35.600000 21.360000 -0.000000
346    1  1 0.0000 35.600000 21.360000  7.120000
347    1  1 0.0000 35.600000 21.360000 14.240000
348    1  1 0.0000 35.600000 21.360000 21.360000
349    1  1 0.0000 35.600000 21.360000 28.480000
350    1  1 0.0000 35.600000 21.360000 35.600000
351    1  1 0.0000 35.600000 21.360000 42.720000
352    1  1 0.0000 35.600000 21.360000 49.840000
353    1  1 0.0000 35.600000 28.480000 -0.000000
354    1  1 0.0000 35.600000 28.480000  7.120000
355    1  1 0.0000 35.600000 28.480000 14.240000
356    1  1 0.0000 35.600000 28.480000 21.360000
357    1  1 0.0000 35.600000 28.480000 28.480000
358    1  1 0.0000 35.600000 28.480000 35.600000
359    1  1 0.0000 35.600000 28.480000 42.720000
360    1  1 0.0000 35.600000 28.480000 49.840000
361    1  1 0.0000 35.600000 35.600000 -0.000000
362    1  1 0.0000 35.600000 35.600000  7.120000
363    1  1 0.0000 35.600000 35.600000 14.240000
364    1  1 0.0000 35.600000 35.600000 21.360000
365    1  1 0.0000 35.600000 35.600000 28.480000
366    1  1 0.0000 35.600000 35.600000 35.600000
367    1  1 0.0000 35.600000 35.600000 42.720000
368    1  1 0.0000 35.600000 35.600000 49.840000
369    1  1 0.0000 35.600000 42.720000 -0.000000
370    1  1 0.0000 35.600000 42.720000  7.120000
371    1  1 0.0000 35.600000 42.720000 14.240000
372    1  1 0.0000 35.600000 42.720000 21.360000
373    1  1 0.0000 35.600000 42.720000 28.480000
374    1  1 0.0000 35.600000 42.720000 35.600000
375    1  1 0.0000 35.600000 42.720000 42.720000
376    1  1 0.0000 35.600000 42.720000 49.840000
377    1  1 0.0000 35.600000 49.840000 -0.000000
378    1  1 0.0000 35.600000 49.840000  7.120000
379    1  1 0.0000 35.600000 49.840000 14.240000
380    1  1 0.0000 35.600000 49.840000 21.360000
381    1  1 0.0000 35.600000 49.840000 28.480000
382    1  1 0.0000 35.600000 49.840000 35.600000
383    1  1 0.0000 35.600000 49.840000 42.720000
384    1  1 0.0000 35.600000 49.840000 49.840000
385    1  1 0.0000 42.720000 -0.000000  0.000000
386    1  1 0.0000 42.720000  0.000000  7.120000
387    1  1 0.0000 42.720000  0.000000 14.240000
388    1  1 0.0000 42.720000  0.000000 21.360000
389    1  1 0.0000 42.720000  0.000000 28.480000
390    1  1 0.0000 42.720000  0.000000 35.600000
391    1  1 0.0000 42.720000  0.000000 42.720000
392    1  1 0.0000 42.720000  0.000000 49.840000
393    1  1 0.0000 42.720000  7.120000  0.000000
394    1  1 0.0000 42.720000  7.120000  7.120000
395    1  1 0.0000 42.720000  7.120000 14.240000
396    1  1 0.0000 42.720000  7.120000 21.360000
397    1  1 0.0000 42.720000  7.120000 28.480000
398    1  1 0.0000 42.720000  7.120000 35.600000
399    1  1 0.0000 42.720000  7.120000 42.720000
400    1  1 0.0000 42.720000  7.120000 49.840000
401    1  1 0.0000 42.720000 14.240000 -0.000000
402    1  1 0.0000 42.720000 14.240000  7.120000
403    1  1 0.0000 42.720000 14.240000 14.240000
404    1  1 0.0000 42.720000 14.240000 21.360000
405    1  1 0.0000 42.720000 14.240000 28.480000
406    1  1 0.0000 42.720000 14.240000 35.600000
407    1  1 0.0000 42.720000 14.240000 42.720000
408    1  1 0.0000 42.720000 14.240000 49.840000
409    1  1 0.0000 42.720000 21.360000  0.000000
410    1  1 0.0000 42.720000 21.360000  7.120000
411    1  1 0.0000 42.720000 21.360000 14.240000
412    1  1 0.0000 42.720000 21.360000 21.360000
413    1  1 0.0000 42.720000 21.360000 28.480000
414    1  1 0.0000 42.720000 21.360000 35.600000
415    1  1 0.0000 42.720000 21.360000 42.720000
416    1  1 0.0000 42.720000 21.360000 49.840000
417    1  1 0.0000 42.720000 28.480000  0.000000
418    1  1 0.0000 42.720000 28.480000  7.120000
419    1  1 0.0000 42.720000 28.480000 14.240000
420    1  1 0.0000 42.720000 28.480000 21.360000
421    1  1 0.0000 42.720000 28.480000 28.480000
422    1  1 0.0000 42.720000 28.480000 35.600000
423    1  1 0.0000 42.720000 28.480000 42.720000
424    1  1 0.0000 42.720000 28.480000 49.840000
425    1  1 0.0000 42.720000 35.600000 -0.000000
426    1  1 0.0000 42.720000 35.600000  7.120000
427    1  1 0.0000 42.720000 35.600000 14.240000
428    1  1 0.0000 42.720000 35.600000 21.360000
429    1  1 0.0000 42.720000 35.600000 28.480000
430    1  1 0.0000 42.720000 35.600000 35.600000
431    1  1 0.0000 42.720000 35.600000 42.720000
432    1  1 0.0000 42.720000 35.600000 49.840000
433    1  1 0.0000 42.720000 42.720000 -0.000000
434    1  1 0.0000 42.720000 42.720000  7.120000
435    1  1 0.0000 42.720000 42.720000 14.240000
436    1  1 0.0000 42.720000 42.720000 21.360000
437    1  1 0.0000 42.720000 42.720000 28.480000
438    1  1 0.0000 42.720000 42.720000 35.600000
439    1  1 0.0000 42.720000 42.720000 42.720000
440    1  1 0.0000 42.720000 42.720000 49.840000
441    1  1 0.0000 42.720000 49.840000 -0.000000
442    1  1 0.0000 42.720000 49.840000  7.120000
443    1  1 0.0000 42.720000 49.840000 14.240000
444    1  1 0.0000 42.720000 49.840000 21.360000
445    1  1 0.0000 42.720000 49.840000 28.480000
446    1  1 0.0000 42.720000 49.840000 35.600000
447    1  1 0.0000 42.720000 49.840000 42.720000
448    1  1 0.0000 42.720000 49.840000 49.840000
449    1  1 0.0000 49.840000 -0.000000 -0.000000
450    1  1 0.0000 49.840000  0.000000  7.120000
451    1  1 0.0000 49.840000  0.000000 14.240000
452    1  1 0.0000 49.840000  0.000000 21.360000
453    1  1 0.0000 49.840000  0.000000 28.480000
454    1  1 0.0000 49.840000  0.000000 35.600000
455    1  1 0.0000 49.840000  0.000000 42.720000
456    1  1 0.0000 49.840000  0.000000 49.840000
457    1  1 0.0000 49.840000  7.120000 -0.000000
458    1  1 0.0000 49.840000  7.120000  7.120000
459    1  1 0.0000 49.840000  7.120000 14.240000
460    1  1 0.0000 49.840000  7.120000 21.360000
461    1  1 0.0000 49.840000  7.120000 28.480000
462    1  1 0.0000 49.840000  7.120000 35.600000
463    1  1 0.0000 49.840000  7.120000 42.720000
464    1  1 0.0000 49.840000  7.120000 49.840000
465    1  1 0.0000 49.840000 14.240000 -0.000000
466    1  1 0.0000 49.840000 14.240000  7.120000
467    1  1 0.0000 49.840000 14.240000 14.240000
468    1  1 0.0000 49.840000 14.240000 21.360000
469    1  1 0.0000 49.840000 14.240000 28.480000
470    1  1 0.0000 49.840000 14.240000 35.600000
471    1  1 0.0000 49.840000 14.240000 42.720000
472    1  1 0.0000 49.840000 14.240000 49.840000
473    1  1 0.0000 49.840000 21.360000  0.000000
474    1  1 0.0000 49.840000 21.360000  7.120000
475    1  1 0.0000 49.840000 21.360000 14.240000
476    1  1 0.0000 49.840000 21.360000 21.360000
477    1  1 0.0000 49.840000 21.360000 28.480000
478    1  1 0.0000 49.840000 21.360000 35.600000
479    1  1 0.0000 49.840000 21.360000 42.720000
480    1  1 0.0000 49.840000 21.360000 49.840000
481    1  1 0.0000 49.840000 28.480000 -0.000000
482    1  1 0.0000 49.840000 28.480000  7.120000
483    1  1 0.0000 49.840000 28.480000 14.240000
484    1  1 0.0000 49.840000 28.480000 21.360000
485    1  1 0.0000 49.840000 28.480000 28.480000
486    1  1 0.0000 49.840000 28.480000 35.600000
487    1  1 0.0000 49.840000 28.480000 42.720000
488    1  1 0.0000 49.840000 28.480000 49.840000
489    1  1 0.0000 49.840000 35.600000 -0.000000
490    1  1 0.0000 49.840000 35.600000  7.120000
491    1  1 0.0000 49.840000 35.600000 14.240000
492    1  1 0.0000 49.840000 35.600000 21.360000
493    1  1 0.0000 49.840000 35.600000 28.480000
494    1  1 0.0000 49.840000 35.600000 35.600000
495    1  1 0.0000 49.840000 35.600000 42.720000
496    1  1 0.0000 49.840000 35.600000 49.840000
497    1  1 0.0000 49.840000 42.720000 -0.000000
498    1  1 0.0000 49.840000 42.720000  7.120000
499    1  1 0.0000 49.840000 42.720000 14.240000
500    1  1 0.0000 49.840000 42.720000 21.360000
501    1  1 0.0000 49.840000 42.720000 28.480000
502    1  1 0.0000 49.840000 42.720000 35.600000
503    1  1 0.0000 49.840000 42.720000 42.720000
504    1  1 0.0000 49.840000 42.720000 49.840000
505    1  1 0.0000 49.840000 49.840000 -0.000000
506    1  1 0.0000 49.840000 49.840000  7.120000
507    1  1 0.0000 49.840000 49.840000 14.240000
508    1  1 0.0000 49.840000 49.840000 21.360000
509    1  1 0.0000 49.840000 49.840000 28.480000
510    1  1 0.0000 49.840000 49.840000 35.600000
511    1  1 0.0000 49.840000 49.840000 42.720000
512    1  1 0.0000 49.840000 49.840000 49.840000
513    1  1 0.0000  1.780000  1.780000  1.780000
514    1  1 0.0000  1.780000  1.780000  8.900000
515    1  1 0.0000  1.780000  1.780000 16.020000
516    1  1 0.0000  1.780000  1.780000 23.140000
517    1  1 0.0000  1.780000  1.780000 30.260000
518    1  1 0.0000  1.780000  1.780000 37.380000
519    1  1 0.0000  1.780000  1.780000 44.500000
520    1  1 0.0000  1.780000  1.780000 51.620000
521    1  1 0.0000  1.780000  8.900000  1.780000
522    1  1 0.0000  1.780000  8.900000  8.900000
523    1  1 0.0000  1.780000  8.900000 16.020000
524    1  1 0.0000  1.780000  8.900000 23.140000
525    1  1 0.0000  1.780000  8.900000 30.260000
526    1  1 0.0000  1.780000  8.900000 37.380000
527    1  1 0.0000  1.780000  8.900000 44.500000
528    1  1 0.0000  1.780000  8.900000 51.620000
529    1  1 0.0000  1.780000 16.020000  1.780000
530    1  1 0.0000  1.780000 16.020000  8.900000
531    1  1 0.0000  1.780000 16.020000 16.020000
532    1  1 0.0000  1.780000 16.020000 23.140000
533    1  1 0.0000  1.780000 16.020000 30.260000
534    1  1 0.0000  1.780000 16.020000 37.380000
535    1  1 0.0000  1.780000 16.020000 44.500000
536    1  1 0.0000  1.780000 16.020000 51.620000
537    1  1 0.0000  1.780000 23.140000  1.780000
538    1  1 0.0000  1.780000 23.140000  8.900000
539    1  1 0.0000  1.780000 23.140000 16.020000
540    1  1 0.0000  1.780000 23.140000 23.140000
541    1  1 0.0000  1.780000 23.140000 30.260000
542    1  1 0.0000  1.780000 23.140000 37.380000
543    1  1 0.0000  1.780000 23.140000 44.500000
544    1  1 0.0000  1.780000 23.140000 51.620000
545    1  1 0.0000  1.780000 30.260000  1.780000
546    1  1 0.0000  1.780000 30.260000  8.900000
547    1  1 0.0000  1.780000 30.260000 16.020000
548    1  1 0.0000  1.780000 30.260000 23.140000
549    1  1 0.0000  1.780000 30.260000 30.260000
550    1  1 0.0000  1.780000 30.260000 37.380000
551    1  1 0.0000  1.780000 30.260000 44.500000
552    1  1 0.0000  1.780000 30.260000 51.620000
553    1  1 0.0000  1.780000 37.380000  1.780000
554    1  1 0.0000  1.780000 37.380000  8.900000
555    1  1 0.0000  1.780000 37.380000 16.020000
556    1  1 0.0000  1.780000 37.380000 23.140000
557    1  1 0.0000  1.780000 37.380000 30.260000
558    1  1 0.0000  1.780000 37.380000 37.380000
559    1  1 0.0000  1.780000 37.380000 44.500000
560    1  1 0.0000  1.780000 37.380000 51.620000
561    1  1 0.0000  1.780000 44.500000  1.780000
562    1  1 0.0000  1.780000 44.500000  8.900000
563    1  1 0.0000  1.780000 44.500000 16.020000
564    1  1 0.0000  1.780000 44.500000 23.140000
565    1  1 0.0000  1.780000 44.500000 30.260000
566    1  1 0.0000  1.780000 44.500000 37.380000
567    1  1 0.0000  1.780000 44.500000 44.500000
568    1  1 0.0000  1.780000 44.500000 51.620000
569    1  1 0.0000  1.780000 51.620000  1.780000
570    1  1 0.0000  1.780000 51.620000  8.900000
571    1  1 0.0000  1.780000 51.620000 16.020000
572    1  1 0.0000  1.780000 51.620000 23.140000
573    1  1 0.0000  1.780000 51.620000 30.260000
574    1  1 0.0000  1.780000 51.620000 37.380000
575    1  1 0.0000  1.780000 51.620000 44.500000
576    1  1 0.0000  1.780000 51.620000 51.620000
577    1  1 0.0000  8.900000  1.780000  1.780000
578    1  1 0.0000  8.900000  1.780000  8.900000
579    1  1 0.0000  8.900000  1.780000 16.020000
580    1  1 0.0000  8.900000  1.780000 23.140000
581    1  1 0.0000  8.900000  1.780000 30.260000
582    1  1 0.0000  8.900000  1.780000 37.380000
583    1  1 0.0000  8.900000  1.780000 44.500000
584    1  1 0.0000  8.900000  1.780000 51.620000
585    1  1 0.0000  8.900000  8.900000  1.780000
586    1  1 0.0000  8.900000  8.900000  8.900000
587    1  1 0.0000  8.900000  8.900000 16.020000
588    1  1 0.0000  8.900000  8.900000 23.140000
589    1  1 0.0000  8.900000  8.900000 30.260000
590    1  1 0.0000  8.900000  8.900000 37.380000
591    1  1 0.0000  8.900000  8.900000 44.500000
592    1  1 0.0000  8.900000  8.900000 51.620000
593    1  1 0.0000  8.900000 16.020000  1.780000
594    1  1 0.0000  8.900000 16.020000  8.900000
595    1  1 0.0000  8.900000 16.020000 16.020000
596    1  1 0.0000  8.900000 16.020000 23.140000
597    1  1 0.0000  8.900000 16.020000 30.260000
598    1  1 0.0000  8.900000 16.020000 37.380000
599    1  1 0.0000  8.900000 16.020000 44.500000
600    1  1 0.0000  8.900000 16.020000 51.620000
601    1  1 0.0000  8.900000 23.140000  1.780000
602    1  1 0.0000  8.900000 23.140000  8.900000
603    1  1 0.0000  8.900000 23.140000 16.020000
604    1  1 0.0000  8.900000 23.140000 23.140000
605    1  1 0.0000  8.900000 23.140000 30.260000
606    1  1 0.0000  8.900000 23.140000 37.380000
607    1  1 0.0000  8.900000 23.140000 44.500000
608    1  1 0.0000  8.900000 23.140000 51.620000
609    1  1 0.0000  8.900000 30.260000  1.780000
610    1  1 0.0000  8.900000 30.260000  8.900000
611    1  1 0.0000  8.900000 30.260000 16.020000
612    1  1 0.0000  8.900000 30.260000 23.140000
613    1  1 0.0000  8.900000 30.260000 30.260000
614    1  1 0.0000  8.900000 30.260000 37.380000
615    1  1 0.0000  8.900000 30.260000 44.500000
616    1  1 0.0000  8.900000 30.260000 51.620000
617    1  1 0.0000  8.900000 37.380000  1.780000
618    1  1 0.0000  8.900000 37.380000  8.900000
619    1  1 0.0000  8.900000 37.380000 16.020000
620    1  1 0.0000  8.900000 37.380000 23.140000
621    1  1 0.0000  8.900000 37.380000 30.260000
622    1  1 0.0000  8.900000 37.380000 37.380000
623    1  1 0.0000  8.900000 37.380000 44.500000
624    1  1 0.0000  8.900000 37.380000 51.620000
625    1  1 0.0000  8.900000 44.500000  1.780000
626    1  1 0.0000  8.900000 44.500000  8.900000
627    1  1 0.0000  8.900000 44.500000 16.020000
628    1  1 0.0000  8.900000 44.500000 23.140000
629    1  1 0.0000  8.900000 44.500000 30.260000
630    1  1 0.0000  8.900000 44.500000 37.380000
631    1  1 0.0000  8.900000 44.500000 44.500000
632    1  1 0.0000  8.900000 44.500000 51.620000
633    1  1 0.0000  8.900000 51.620000  1.780000
634    1  1 0.0000  8.900000 51.620000  8.900000
635    1  1 0.0000  8.900000 51.620000 16.020000
636    1  1 0.0000  8.900000 51.620000 23.140000
637    1  1 0.0000  8.900000 51.620000 30.260000
638    1  1 0.0000  8.900000 51.620000 37.380000
639    1  1 0.0000  8.900000 51.620000 44.500000
640    1  1 0.0000  8.900000 51.620000 51.620000
641    1  1 0.0000 16.020000  1.780000  1.780000
642    1  1 0.0000 16.020000  1.780000  8.900000
643    1  1 0.0000 16.020000  1.780000 16.020000
644    1  1 0.0000 16.020000  1.780000 23.140000
645    1  1 0.0000 16.020000  1.780000 30.260000
646    1  1 0.0000 16.020000  1.780000 37.380000
647    1  1 0.0000 16.020000  1.780000 44.500000
648    1  1 0.0000 16.020000  1.780000 51.620000
649    1  1 0.0000 16.020000  8.900000  1.780000
650    1  1 0.0000 16.020000  8.900000  8.900000
651    1  1 0.0000 16.020000  8.900000 16.020000
652    1  1 0.0000 16.020000  8.900000 23.140000
653    1  1 0.0000 16.020000  8.900000 30.260000
654    1  1 0.0000 16.020000  8.900000 37.380000
655    1  1 0.0000 16.020000  8.900000 44.500000
656    1  1 0.0000 16.020000  8.900000 51.620000
657    1  1 0.0000 16.020000 16.020000  1.780000
658    1  1 0.0000 16.020000 16.020000  8.900000
659    1  1 0.0000 16.020000 16.020000 16.020000
660    1  1 0.0000 16.020000 16.020000 23.140000
661    1  1 0.0000 16.020000 16.020000 30.260000
662    1  1 0.0000 16.020000 16.020000 37.380000
663    1  1 0.0000 16.020000 16.020000 44.500000
664    1  1 0.0000 16.020000 16.020000 51.620000
665    1  1 0.0000 16.020000 23.140000  1.780000
666    1  1 0.0000 16.020000 23.140000  8.900000
667    1  1 0.0000 16.020000 23.140000 16.020000
668    1  1 0.0000 16.020000 23.140000 23.140000
669    1  1 0.0000 16.020000 23.140000 30.260000
670    1  1 0.0000 16.020000 23.140000 37.380000
671    1  1 0.0000 16.020000 23.140000 44.500000
672    1  1 0.0000 16.020000 23.140000 51.620000
673    1  1 0.0000 16.020000 30.260000  1.780000
674    1  1 0.0000 16.020000 30.260000  8.900000
675    1  1 0.0000 16.020000 30.260000 16.020000
676    1  1 0.0000 16.020000 30.260000 23.140000
677    1  1 0.0000 16.020000 30.260000 30.260000
678    1  1 0.0000 16.020000 30.260000 37.380000
679    1  1 0.0000 16.020000 30.260000 44.500000
680    1  1 0.0000 16.020000 30.260000 51.620000
681    1  1 0.0000 16.020000 37.380000  1.780000
682    1  1 0.0000 16.020000 37.380000  8.900000
683    1  1 0.0000 16.020000 37.380000 16.020000
684    1  1 0.0000 16.020000 37.380000 23.140000
685    1  1 0.0000 16.020000 37.380000 30.260000
686    1  1 0.0000 16.020000 37.380000 37.380000
687    1  1 0.0000 16.020000 37.380000 44.500000
688    1  1 0.0000 16.020000 37.380000 51.620000
689    1  1 0.0000 16.020000 44.500000  1.780000
690    1  1 0.0000 16.020000 44.500000  8.900000
691    1  1 0.0000 16.020000 44.500000 16.020000
692    1  1 0.0000 16.020000 44.500000 23.140000
693    1  1 0.0000 16.020000 44.500000 30.260000
694    1  1 0.0000 16.020000 44.500000 37.380000
695    1  1 0.0000 16.020000 44.500000 44.500000
696    1  1 0.0000 16.020000 44.500000 51.620000
697    1  1 0.0000 16.020000 51.620000  1.780000
698    1  1 0.0000 16.020000 51.620000  8.900000
699    1  1 0.0000 16.020000 51.620000 16.020000
700    1  1 0.0000 16.020000 51.620000 23.140000
701    1  1 0.0000 16.020000 51.620000 30.260000
702    1  1 0.0000 16.020000 51.620000 37.380000
703    1  1 0.0000 16.020000 51.620000 44.500000
704    1  1 0.0000 16.020000 51.620000 51.620000
705    1  1 0.0000 23.140000  1.780000  1.780000
706    1  1 0.0000 23.140000  1.780000  8.900000
707    1  1 0.0000 23.140000  1.780000 16.020000
708    1  1 0.0000 23.140000  1.780000 23.140000
709    1  1 0.0000 23.140000  1.780000 30.260000
710    1  1 0.0000 23.140000  1.780000 37.380000
711    1  1 0.0000 23.140000  1.780000 44.500000
712    1  1 0.0000 23.140000  1.780000 51.620000
713    1  1 0.0000 23.140000  8.900000  1.780000
714    1  1 0.0000 23.140000  8.900000  8.900000
715    1  1 0.0000 23.140000  8.900000 16.020000
716    1  1 0.0000 23.140000  8.900000 23.140000
717    1  1 0.0000 23.140000  8.900000 30.260000
718    1  1 0.0000 23.140000  8.900000 37.380000
719    1  1 0.0000 23.140000  8.900000 44.500000
720    1  1 0.0000 23.140000  8.900000 51.620000
721    1  1 0.0000 23.140000 16.020000  1.780000
722    1  1 0.0000 23.140000 16.020000  8.900000
723    1  1 0.0000 23.140000 16.020000 16.020000
724    1  1 0.0000 23.140000 16.020000 23.140000
725    1  1 0.0000 23.140000 16.020000 30.260000
726    1  1 0.0000 23.140000 16.020000 37.380000
727    1  1 0.0000 23.140000 16.020000 44.500000
728    1  1 0.0000 23.140000 16.020000 51.620000
729    1  1 0.0000 23.140000 23.140000  1.780000
730    1  1 0.0000 23.140000 23.140000  8.900000
731    1  1 0.0000 23.140000 23.140000 16.020000
732    1  1 0.0000 23.140000 23.140000 23.140000
733    1  1 0.0000 23.140000 23.140000 30.260000
734    1  1 0.0000 23.140000 23.140000 37.380000
735    1  1 0.0000 23.140000 23.140000 44.500000
736    1  1 0.0000 23.140000 23.140000 51.620000
737    1  1 0.0000 23.140000 30.260000  1.780000
738    1  1 0.0000 23.140000 30.260000  8.900000
739    1  1 0.0000 23.140000 30.260000 16.020000
740    1  1 0.0000 23.140000 30.260000 23.140000
741    1  1 0.0000 23.140000 30.260000 30.260000
742    1  1 0.0000 23.140000 30.260000 37.380000
743    1  1 0.0000 23.140000 30.260000 44.500000
744    1  1 0.0000 23.140000 30.260000 51.620000
745    1  1 0.0000 23.140000 37.380000  1.780000
746    1  1 0.0000 23.140000 37.380000  8.900000
747    1  1 0.0000 23.140000 37.380000 16.020000
748    1  1 0.0000 23.140000 37.380000 23.140000
749    1  1 0.0000 23.140000 37.380000 30.260000
750    1  1 0.0000 23.140000 37.380000 37.380000
751    1  1 0.0000 23.140000 37.380000 44.500000
752    1  1 0.0000 23.140000 37.380000 51.620000
753    1  1 0.0000 23.140000 44.500000  1.780000
754    1  1 0.0000 23.140000 44.500000  8.900000
755    1  1 0.0000 23.140000 44.500000 16.020000
756    1  1 0.0000 23.140000 44.500000 23.140000
757    1  1 0.0000 23.140000 44.500000 30.260000
758    1  1 0.0000 23.140000 44.500000 37.380000
759    1  1 0.0000 23.140000 44.500000 44.500000
760    1  1 0.0000 23.140000 44.500000 51.620000
761    1  1 0.0000 23.140000 51.620000  1.780000
762    1  1 0.0000 23.140000 51.620000  8.900000
763    1  1 0.0000 23.140000 51.620000 16.020000
764    1  1 0.0000 23.140000 51.620000 23.140000
765    1  1 0.0000 23.140000 51.620000 30.260000
766    1  1 0.0000 23.140000 51.620000 37.380000
767    1  1 0.0000 23.140000 51.620000 44.500000
768    1  1 0.0000 23.140000 51.620000 51.620000
769    1  1 0.0000 30.260000  1.780000  1.780000
770    1  1 0.0000 30.260000  1.780000  8.900000
771    1  1 0.0000 30.260000  1.780000 16.020000
772    1  1 0.0000 30.260000  1.780000 23.140000
773    1  1 0.0000 30.260000  1.780000 30.260000
774    1  1 0.0000 30.260000  1.780000 37.380000
775    1  1 0.0000 30.260000  1.780000 44.500000
776    1  1 0.0000 30.260000  1.780000 51.620000
777    1  1 0.0000 30.260000  8.900000  1.780000
778    1  1 0.0000 30.260000  8.900000  8.900000
779    1  1 0.0000 30.260000  8.900000 16.020000
780    1  1 0.0000 30.260000  8.900000 23.140000
781    1  1 0.0000 30.260000  8.900000 30.260000
782    1  1 0.0000 30.260000  8.900000 37.380000
783    1  1 0.0000 30.260000  8.900000 44.500000
784    1  1 0.0000 30.260000  8.900000 51.620000
785    1  1 0.0000 30.260000 16.020000  1.780000
786    1  1 0.0000 30.260000 16.020000  8.900000
787    1  1 0.0000 30.260000 16.020000 16.020000
788    1  1 0.0000 30.260000 16.020000 23.140000
789    1  1 0.0000 30.260000 16.020000 30.260000
790    1  1 0.0000 30.260000 16.020000 37.380000
791    1  1 0.0000 30.260000 16.020000 44.500000
792    1  1 0.0000 30.260000 16.020000 51.620000
793    1  1 0.0000 30.260000 23.140000  1.780000
794    1  1 0.0000 30.260000 23.140000  8.900000
795    1  1 0.0000 30.260000 23.140000 16.020000
796    1  1 0.0000 30.260000 23.140000 23.140000
797    1  1 0.0000 30.260000 23.140000 30.260000
798    1  1 0.0000 30.260000 23.140000 37.380000
799    1  1 0.0000 30.260000 23.140000 44.500000
800    1  1 0.0000 30.260000 23.140000 51.620000
801    1  1 0.0000 30.260000 30.260000  1.780000
802    1  1 0.0000 30.260000 30.260000  8.900000
803    1  1 0.0000 30.260000 30.260000 16.020000
804    1  1 0.0000 30.260000 30.260000 23.140000
805    1  1 0.0000 30.260000 30.260000 30.260000
806    1  1 0.0000 30.260000 30.260000 37.380000
807    1  1 0.0000 30.260000 30.260000 44.500000
808    1  1 0.0000 30.260000 30.260000 51.620000
809    1  1 0.0000 30.260000 37.380000  1.780000
810    1  1 0.0000 30.260000 37.380000  8.900000
811    1  1 0.0000 30.260000 37.380000 16.020000
812    1  1 0.0000 30.260000 37.380000 23.140000
813    1  1 0.0000 30.260000 37.380000 30.260000
814    1  1 0.0000 30.260000 37.380000 37.380000
815    1  1 0.0000 30.260000 37.380000 44.500000
816    1  1 0.0000 30.260000 37.380000 51.620000
817    1  1 0.0000 30.260000 44.500000  1.780000
818    1  1 0.0000 30.260000 44.500000  8.900000
819    1  1 0.0000 30.260000 44.500000 16.020000
820    1  1 0.0000 30.260000 44.500000 23.140000
821    1  1 0.0000 30.260000 44.500000 30.260000
822    1  1 0.0000 30.260000 44.500000 37.380000
823    1  1 0.0000 30.260000 44.500000 44.500000
824    1  1 0.0000 30.260000 44.500000 51.620000
825    1  1 0.0000 30.260000 51.620000  1.780000
826    1  1 0.0000 30.260000 51.620000  8.900000
827    1  1 0.0000 30.260000 51.620000 16.020000
828    1  1 0.0000 30.260000 51.620000 23.140000
829    1  1 0.0000 30.260000 51.620000 30.260000
830    1  1 0.0000 30.260000 51.620000 37.380000
831    1  1 0.0000 30.260000 51.620000 44.500000
832    1  1 0.0000 30.260000 51.620000 51.620000
833    1  1 0.0000 37.380000  1.780000  1.780000
834    1  1 0.0000 37.380000  1.780000  8.900000
835    1  1 0.0000 37.380000  1.780000 16.020000
836    1  1 0.0000 37.380000  1.780000 23.140000
837    1  1 0.0000 37.380000  1.780000 30.260000
838    1  1 0.0000 37.380000  1.780000 37.380000
839    1  1 0.0000 37.380000  1.780000 44.500000
840    1  1 0.0000 37.380000  1.780000 51.620000
841    1  1 0.0000 37.380000  8.900000  1.780000
842    1  1 0.0000 37.380000  8.900000  8.900000
843    1  1 0.0000 37.380000  8.900000 16.020000
844    1  1 0.0000 37.380000  8.900000 23.140000
845    1  1 0.0000 37.380000  8.900000 30.260000
846    1  1 0.0000 37.380000  8.900000 37.380000
847    1  1 0.0000 37.380000  8.900000 44.500000
848    1  1 0.0000 37.380000  8.900000 51.620000
849    1  1 0.0000 37.380000 16.020000  1.780000
850    1  1 0.0000 37.380000 16.020000  8.900000
851    1  1 0.0000 37.380000 16.020000 16.020000
852    1  1 0.0000 37.380000 16.020000 23.140000
853    1  1 0.0000 37.380000 16.020000 30.260000
854    1  1 0.0000 37.380000 16.020000 37.380000
855    1  1 0.0000 37.380000 16.020000 44.500000
856    1  1 0.0000 37.380000 16.020000 51.620000
857    1  1 0.0000 37.380000 23.140000  1.780000
858    1  1 0.0000 37.380000 23.140000  8.900000
859    1  1 0.0000 37.380000 23.140000 16.020000
860    1  1 0.0000 37.380000 23.140000 23.140000
861    1  1 0.0000 37.380000 23.140000 30.260000
862    1  1 0.0000 37.380000 23.140000 37.380000
863    1  1 0.0000 37.380000 23.140000 44.500000
864    1  1 0.0000 37.380000 23.140000 51.620000
865    1  1 0.0000 37.380000 30.260000  1.780000
866    1  1 0.0000 37.380000 30.260000  8.900000
867    1  1 0.0000 37.380000 30.260000 16.020000
868    1  1 0.0000 37.380000 30.260000 23.140000
869    1  1 0.0000 37.380000 30.260000 30.260000
870    1  1 0.0000 37.380000 30.260000 37.380000
871    1  1 0.0000 37.380000 30.260000 44.500000
872    1  1 0.0000 37.380000 30.260000 51.620000
873    1  1 0.0000 37.380000 37.380000  1.780000
874    1  1 0.0000 37.380000 37.380000  8.900000
875    1  1 0.0000 37.380000 37.380000 16.020000
876    1  1 0.0000 37.380000 37.380000 23.140000
877    1  1 0.0000 37.380000 37.380000 30.260000
878    1  1 0.0000 37.380000 37.380000 37.380000
879    1  1 0.0000 37.380000 37.380000 44.500000
880    1  1 0.0000 37.380000 37.380000 51.620000
881    1  1 0.0000 37.380000 44.500000  1.780000
882    1  1 0.0000 37.380000 44.500000  8.900000
883    1  1 0.0000 37.380000 44.500000 16.020000
884    1  1 0.0000 37.380000 44.500000 23.140000
885    1  1 0.0000 37.380000 44.500000 30.260000
886    1  1 0.0000 37.380000 44.500000 37.380000
887    1  1 0.0000 37.380000 44.500000 44.500000
888    1  1 0.0000 37.380000 44.500000 51.620000
889    1  1 0.0000 37.380000 51.620000  1.780000
890    1  1 0.0000 37.380000 51.620000  8.900000
891    1  1 0.0000 37.380000 51.620000 16.020000
892    1  1 0.0000 37.380000 51.620000 23.140000
893    1  1 0.0000 37.380000 51.620000 30.260000
894    1  1 0.0000 37.380000 51.620000 37.380000
895    1  1 0.0000 37.380000 51.620000 44.500000
896    1  1 0.0000 37.380000 51.620000 51.620000
897    1  1 0.0000 44.500000  1.780000  1.780000
898    1  1 0.0000 44.500000  1.780000  8.900000
899    1  1 0.0000 44.500000  1.780000 16.020000
900    1  1 0.0000 44.500000  1.780000 23.140000
901    1  1 0.0000 44.500000  1.780000 30.260000
902    1  1 0.0000 44.500000  1.780000 37.380000
903    1  1 0.0000 44.500000  1.780000 44.500000
904    1  1 0.0000 44.500000  1.780000 51.620000
905    1  1 0.0000 44.500000  8.900000  1.780000
906    1  1 0.0000 44.500000  8.900000  8.900000
907    1  1 0.0000 44.500000  8.900000 16.020000
908    1  1 0.0000 44.500000  8.900000 23.140000
909    1  1 0.0000 44.500000  8.900000 30.260000
910    1  1 0.0000 44.500000  8.900000 37.380000
911    1  1 0.0000 44.500000  8.900000 44.500000
912    1  1 0.0000 44.500000  8.900000 51.620000
913    1  1 0.0000 44.500000 16.020000  1.780000
914    1  1 0.0000 44.500000 16.020000  8.900000
915    1  1 0.0000 44.500000 16.020000 16.020000
916    1  1 0.0000 44.500000 16.020000 23.140000
917    1  1 0.0000 44.500000 16.020000 30.260000
918    1  1 0.0000 44.500000 16.020000 37.380000
919    1  1 0.0000 44.500000 16.020000 44.500000
920    1  1 0.0000 44.500000 16.020000 51.620000
921    1  1 0.0000 44.500000 23.140000  1.780000
922    1  1 0.0000 44.500000 23.140000  8.900000
923    1  1 0.0000 44.500000 23.140000 16.020000
924    1  1 0.0000 44.500000 23.140000 23.140000
925    1  1 0.0000 44.500000 23.140000 30.260000
926    1  1 0.0000 44.500000 23.140000 37.380000
927    1  1 0.0000 44.500000 23.140000 44.500000
928    1  1 0.0000 44.500000 23.140000 51.620000
929    1  1 0.0000 44.500000 30.260000  1.780000
930    1  1 0.0000 44.500000 30.260000  8.900000
931    1  1 0.0000 44.500000 30.260000 16.020000
932    1  1 0.0000 44.500000 30.260000 23.140000
933    1  1 0.0000 44.500000 30.260000 30.260000
934    1  1 0.0000 44.500000 30.260000 37.380000
935    1  1 0.0000 44.500000 30.260000 44.500000
936    1  1 0.0000 44.500000 30.260000 51.620000
937    1  1 0.0000 44.500000 37.380000  1.780000
938    1  1 0.0000 44.500000 37.380000  8.900000
939    1  1 0.0000 44.500000 37.380000 16.020000
940    1  1 0.0000 44.500000 37.380000 23.140000
941    1  1 0.0000 44.500000 37.380000 30.260000
942    1  1 0.0000 44.500000 37.380000 37.380000
943    1  1 0.0000 44.500000 37.380000 44.500000
944    1  1 0.0000 44.500000 37.380000 51.620000
945    1  1 0.0000 44.500000 44.500000  1.780000
946    1  1 0.0000 44.500000 44.500000  8.900000
947    1  1 0.0000 44.500000 44.500000 16.020000
948    1  1 0.0000 44.500000 44.500000 23.140000
949    1  1 0.0000 44.500000 44.500000 30.260000
950    1  1 0.0000 44.500000 44.500000 37.380000
951    1  1 0.0000 44.500000 44.500000 44.500000
952    1  1 0.0000 44.500000 44.500000 51.620000
953    1  1 0.0000 44.500000 51.620000  1.780000
954    1  1 0.0000 44.500000 51.620000  8.900000
955    1  1 0.0000 44.500000 51.620000 16.020000
956    1  1 0.0000 44.500000 51.620000 23.140000
957    1  1 0.0000 44.500000 51.620000 30.260000
958    1  1 0.0000 44.500000 51.620000 37.380000
959    1  1 0.0000 44.500000 51.620000 44.500000
960    1  1 0.0000 44.500000 51.620000 51.620000
961    1  1 0.0000 51.620000  1.780000  1.780000
962    1  1 0.0000 51.620000  1.780000  8.900000
963    1  1 0.0000 51.620000  1.780000 16.020000
964    1  1 0.0000 51.620000  1.780000 23.140000
965    1  1 0.0000 51.620000  1.780000 30.260000
966    1  1 0.0000 51.620000  1.780000 37.380000
967    1  1 0.0000 51.620000  1.780000 44.500000
968    1  1 0.0000 51.620000  1.780000 51.620000
969    1  1 0.0000 51.620000  8.900000  1.780000
970    1  1 0.0000 51.620000  8.900000  8.900000
971    1  1 0.0000 51.620000  8.900000 16.020000
972    1  1 0.0000 51.620000  8.900000 23.140000
973    1  1 0.0000 51.620000  8.900000 30.260000
974    1  1 0.0000 51.620000  8.900000 37.380000
975    1  1 0.0000 51.620000  8.900000 44.500000
976    1  1 0.0000 51.620000  8.900000 51.620000
977    1  1 0.0000 51.620000 16.020000  1.780000
978    1  1 0.0000 51.620000 16.020000  8.900000
979    1  1 0.0000 51.620000 16.020000 16.020000
980    1  1 0.0000 51.620000 16.020000 23.140000
981    1  1 0.0000 51.620000 16.020000 30.260000
982    1  1 0.0000 51.620000 16.020000 37.380000
983    1  1 0.0000 51.620000 16.020000 44.500000
984    1  1 0.0000 51.620000 16.020000 51.620000
985    1  1 0.0000 51.620000 23.140000  1.780000
986    1  1 0.0000 51.620000 23.140000  8.900000
987    1  1 0.0000 51.620000 23.140000 16.020000
988    1  1 0.0000 51.620000 23.140000 23.140000
989    1  1 0.0000 51.620000 23.140000 30.260000
990    1  1 0.0000 51.620000 23.140000 37.380000
991    1  1 0.0000 51.620000 23.140000 44.500000
992    1  1 0.0000 51.620000 23.140000 51.620000
993    1  1 0.0000 51.620000 30.260000  1.780000
994    1  1 0.0000 51.620000 30.260000  8.900000
995    1  1 0.0000 51.620000 30.260000 16.020000
996    1  1 0.0000 51.620000 30.260000 23.140000
997    1  1 0.0000 51.620000 30.260000 30.260000
998    1  1 0.0000 51.620000 30.260000 37.380000
999    1  1 0.0000 51.620000 30.260000 44.500000
1000   1  1 0.0000 51.620000 30.260000 51.620000
1001   1  1 0.0000 51.620000 37.380000  1.780000
1002   1  1 0.0000 51.620000 37.380000  8.900000
1003   1  1 0.0000 51.620000 37.380000 16.020000
1004   1  1 0.0000 51.620000 37.380000 23.140000
1005   1  1 0.0000 51.620000 37.380000 30.260000
1006   1  1 0.0000 51.620000 37.380000 37.380000
1007   1  1 0.0000 51.620000 37.380000 44.500000
1008   1  1 0.0000 51.620000 37.380000 51.620000
1009   1  1 0.0000 51.620000 44.500000  1.780000
1010   1  1 0.0000 51.620000 44.500000  8.900000
1011   1  1 0.0000 51.620000 44.500000 16.020000
1012   1  1 0.0000 51.620000 44.500000 23.140000
1013   1  1 0.0000 51.620000 44.500000 30.260000
1014   1  1 0.0000 51.620000 44.500000 37.380000
1015   1  1 0.0000 51.620000 44.500000 44.500000
1016   1  1 0.0000 51.620000 44.500000 51.620000
1017   1  1 0.0000 51.620000 51.620000  1.780000
1018   1  1 0.0000 51.620000 51.620000  8.900000
1019   1  1 0.0000 51.620000 51.620000 16.020000
1020   1  1 0.0000 51.620000 51.620000 23.140000
1021   1  1 0.0000 51.620000 51.620000 30.260000
1022   1  1 0.0000 51.620000 51.620000 37.380000
1023   1  1 0.0000 51.620000 51.620000 44.500000
1024   1  1 0.0000 51.620000 51.620000 51.620000
1025   1  1 0.0000  5.340000  1.780000  5.340000
1026   1  1 0.0000  5.340000  1.780000 12.460000
1027   1  1 0.0000  5.340000  1.780000 19.580000
1028   1  1 0.0000  5.340000  1.780000 26.700000
1029   1  1 0.0000  5.340000  1.780000 33.820000
1030   1  1 0.0000  5.340000  1.780000 40.940000
1031   1  1 0.0000  5.340000  1.780000 48.060000
1032   1  1 0.0000  5.340000  1.780000 55.180000
1033   1  1 0.0000  5.340000  8.900000  5.340000
1034   1  1 0.0000  5.340000  8.900000 12.460000
1035   1  1 0.0000  5.340000  8.900000 19.580000
1036   1  1 0.0000  5.340000  8.900000 26.700000
1037   1  1 0.0000  5.340000  8.900000 33.820000
1038   1  1 0.0000  5.340000  8.900000 40.940000
1039   1  1 0.0000  5.340000  8.900000 48.060000
1040   1  1 0.0000  5.340000  8.900000 55.180000
1041   1  1 0.0000  5.340000 16.020000  5.340000
1042   1  1 0.0000  5.340000 16.020000 12.460000
1043   1  1 0.0000  5.340000 16.020000 19.580000
1044   1  1 0.0000  5.340000 16.020000 26.700000
1045   1  1 0.0000  5.340000 16.020000 33.820000
1046   1  1 0.0000  5.340000 16.020000 40.940000
1047   1  1 0.0000  5.340000 16.020000 48.060000
1048   1  1 0.0000  5.340000 16.020000 55.180000
1049   1  1 0.0000  5.340000 23.140000  5.340000
1050   1  1 0.0000  5.340000 23.140000 12.460000
1051   1  1 0.0000  5.340000 23.140000 19.580000
1052   1  1 0.0000  5.340000 23.140000 26.700000
1053   1  1 0.0000  5.340000 23.140000 33.820000
1054   1  1 0.0000  5.340000 23.140000 40.940000
1055   1  1 0.0000  5.340000 23.140000 48.060000
1056   1  1 0.0000  5.340000 23.140000 55.180000
1057   1  1 0.0000  5.340000 30.260000  5.340000
1058   1  1 0.0000  5.340000 30.260000 12.460000
1059   1  1 0.0000  5.340000 30.260000 19.580000
1060   1  1 0.0000  5.340000 30.260000 26.700000
1061   1  1 0.0000  5.340000 30.260000 33.820000
1062   1  1 0.0000  5.340000 30.260000 40.940000
1063   1  1 0.0000  5.340000 30.260000 48.060000
1064   1  1 0.0000  5.340000 30.260000 55.180000
1065   1  1 0.0000  5.340000 37.380000  5.340000
1066   1  1 0.0000  5.340000 37.380000 12.460000
1067   1  1 0.0000  5.340000 37.380000 19.580000
1068   1  1 0.0000  5.340000 37.380000 26.700000
1069   1  1 0.0000  5.340000 37.380000 33.820000
1070   1  1 0.0000  5.340000 37.380000 40.940000
1071   1  1 0.0000  5.340000 37.380000 48.060000
1072   1  1 0.0000  5.340000 37.380000 55.180000
1073   1  1 0.0000  5.340000 44.500000  5.340000
1074   1  1 0.0000  5.340000 44.500000 12.460000
1075   1  1 0.0000  5.340000 44.500000 19.580000
1076   1  1 0.0000  5.340000 44.500000 26.700000
1077   1  1 0.0000  5.340000 44.500000 33.820000
1078   1  1 0.0000  5.340000 44.500000 40.940000
1079   1  1 0.0000  5.340000 44.500000 48.060000
1080   1  1 0.0000  5.340000 44.500000 55.180000
1081   1  1 0.0000  5.340000 51.620000  5.340000
1082   1  1 0.0000  5.340000 51.620000 12.460000
1083   1  1 0.0000  5.340000 51.620000 19.580000
1084   1  1 0.0000  5.340000 51.620000 26.700000
1085   1  1 0.0000  5.340000 51.620000 33.820000
1086   1  1 0.0000  5.340000 51.620000 40.940000
1087   1  1 0.0000  5.340000 51.620000 48.060000
1088   1  1 0.0000  5.340000 51.620000 55.180000
1089   1  1 0.0000 12.460000  1.780000  5.340000
1090   1  1 0.0000 12.460000  1.780000 12.460000
1091   1  1 0.0000 12.460000  1.780000 19.580000
1092   1  1 0.0000 12.460000  1.780000 26.700000
1093   1  1 0.0000 12.460000  1.780000 33.820000
1094   1  1 0.0000 12.460000  1.780000 40.940000
1095   1  1 0.0000 12.460000  1.780000 48.060000
1096   1  1 0.0000 12.460000  1.780000 55.180000
1097   1  1 0.0000 12.460000  8.900000  5.340000
1098   1  1 0.0000 12.460000  8.900000 12.460000
1099   1  1 0.0000 12.460000  8.900000 19.580000
1100   1  1 0.0000 12.460000  8.900000 26.700000
1101   1  1 0.0000 12.460000  8.900000 33.820000
1102   1  1 0.0000 12.460000  8.900000 40.940000
1103   1  1 0.0000 12.460000  8.900000 48.060000
1104   1  1 0.0000 12.460000  8.900000 55.180000
1105   1  1 0.0000 12.460000 16.020000  5.340000
1106   1  1 0.0000 12.460000 16.020000 12.460000
1107   1  1 0.0000 12.460000 16.020000 19.580000
1108   1  1 0.0000 12.460000 16.020000 26.700000
1109   1  1 0.0000 12.460000 16.020000 33.820000
1110   1  1 0.0000 12.460000 16.020000 40.940000
1111   1  1 0.0000 12.460000 16.020000 48.060000
1112   1  1 0.0000 12.460000 16.020000 55.180000
1113   1  1 0.0000 12.460000 23.140000  5.340000
1114   1  1 0.0000 12.460000 23.140000 12.460000
1115   1  1 0.0000 12.460000 23.140000 19.580000
1116   1  1 0.0000 12.460000 23.140000 26.700000
1117   1  1 0.0000 12.460000 23.140000 33.820000
1118   1  1 0.0000 12.460000 23.140000 40.940000
1119   1  1 0.0000 12.460000 23.140000 48.060000
1120   1  1 0.0000 12.460000 23.140000 55.180000
1121   1  1 0.0000 12.460000 30.260000  5.340000
1122   1  1 0.0000 12.460000 30.260000 12.460000
1123   1  1 0.0000 12.460000 30.260000 19.580000
1124   1  1 0.0000 12.460000 30.260000 26.700000
1125   1  1 0.0000 12.460000 30.260000 33.820000
1126   1  1 0.0000 12.460000 30.260000 40.940000
1127   1  1 0.0000 12.460000 30.260000 48.060000
1128   1  1 0.0000 12.460000 30.260000 55.180000
1129   1  1 0.0000 12.460000 37.380000  5.340000
1130   1  1 0.0000 12.460000 37.380000 12.460000
1131   1  1 0.0000 12.460000 37.380000 19.580000
1132   1  1 0.0000 12.460000 37.380000 26.700000
1133   1  1 0.0000 12.460000 37.380000 33.820000
1134   1  1 0.0000 12.460000 37.380000 40.940000
1135   1  1 0.0000 12.460000 37.380000 48.060000
1136   1  1 0.0000 12.460000 37.380000 55.180000
1137   1  1 0.0000 12.460000 44.500000  5.340000
1138   1  1 0.0000 12.460000 44.500000 12.460000
1139   1  1 0.0000 12.460000 44.500000 19.580000
1140   1  1 0.0000 12.460000 44.500000 26.700000
1141   1  1 0.0000 12.460000 44.500000 33.820000
1142   1  1 0.0000 12.460000 44.500000 40.940000
1143   1  1 0.0000 12.460000 44.500000 48.060000
1144   1  1 0.0000 12.460000 44.500000 55.180000
1145   1  1 0.0000 12.460000 51.620000  5.340000
1146   1  1 0.0000 12.460000 51.620000 12.460000
1147   1  1 0.0000 12.460000 51.620000 19.580000
1148   1  1 0.0000 12.460000 51.620000 26.700000
1149   1  1 0.0000 12.460000 51.620000 33.820000
1150   1  1 0.0000 12.460000 51.620000 40.940000
1151   1  1 0.0000 12.460000 51.620000 48.060000
1152   1  1 0.0000 12.460000 51.620000 55.180000
1153   1  1 0.0000 19.580000  1.780000  5.340000
1154   1  1 0.0000 19.580000  1.780000 12.460000
1155   1  1 0.0000 19.580000  1.780000 19.580000
1156   1  1 0.0000 19.580000  1.780000 26.700000
1157   1  1 0.0000 19.580000  1.780000 33.820000
1158   1  1 0.0000 19.580000  1.780000 40.940000
1159   1  1 0.0000 19.580000  1.780000 48.060000
1160   1  1 0.0000 19.580000  1.780000 55.180000
1161   1  1 0.0000 19.580000  8.900000  5.340000
1162   1  1 0.0000 19.580000  8.900000 12.460000
1163   1  1 0.0000 19.580000  8.900000 19.580000
1164   1  1 0.0000 19.580000  8.900000 26.700000
1165   1  1 0.0000 19.580000  8.900000 33.820000
1166   1  1 0.0000 19.580000  8.900000 40.940000
1167   1  1 0.0000 19.580000  8.900000 48.060000
1168   1  1 0.0000 19.580000  8.900000 55.180000
1169   1  1 0.0000 19.580000 16.020000  5.340000
1170   1  1 0.0000 19.580000 16.020000 12.460000
1171   1  1 0.0000 19.580000 16.020000 19.580000
1172   1  1 0.0000 19.580000 16.020000 26.700000
1173   1  1 0.0000 19.580000 16.020000 33.820000
1174   1  1 0.0000 19.580000 16.020000 40.940000
1175   1  1 0.0000 19.580000 16.020000 48.060000
1176   1  1 0.0000 19.580000 16.020000 55.180000
1177   1  1 0.0000 19.580000 23.140000  5.340000
1178   1  1 0.0000 19.580000 23.140000 12.460000
1179   1  1 0.0000 19.580000 23.140000 19.580000
1180   1  1 0.0000 19.580000 23.140000 26.700000
1181   1  1 0.0000 19.580000 23.140000 33.820000
1182   1  1 0.0000 19.580000 23.140000 40.940000
1183   1  1 0.0000 19.580000 23.140000 48.060000
1184   1  1 0.0000 19.580000 23.140000 55.180000
1185   1  1 0.0000 19.580000 30.260000  5.340000
1186   1  1 0.0000 19.580000 30.260000 12.460000
1187   1  1 0.0000 19.580000 30.260000 19.580000
1188   1  1 0.0000 19.580000 30.260000 26.700000
1189   1  1 0.0000 19.580000 30.260000 33.820000
1190   1  1 0.0000 19.580000 30.260000 40.940000
1191   1  1 0.0000 19.580000 30.260000 48.060000
1192   1  1 0.0000 19.580000 30.260000 55.180000
1193   1  1 0.0000 19.580000 37.380000  5.340000
1194   1  1 0.0000 19.580000 37.380000 12.460000
1195   1  1 0.0000 19.580000 37.380000 19.580000
1196   1  1 0.0000 19.580000 37.380000 26.700000
1197   1  1 0.0000 19.580000 37.380000 33.820000
1198   1  1 0.0000 19.580000 37.380000 40.940000
1199   1  1 0.0000 19.580000 37.380000 48.060000
1200   1  1 0.0000 19.580000 37.380000 55.180000
1201   1  1 0.0000 19.580000 44.500000  5.340000
1202   1  1 0.0000 19.580000 44.500000 12.460000
1203   1  1 0.0000 19.580000 44.500000 19.580000
1204   1  1 0.0000 19.580000 44.500000 26.700000
1205   1  1 0.0000 19.580000 44.500000 33.820000
1206   1  1 0.0000 19.580000 44.500000 40.940000
1207   1  1 0.0000 19.580000 44.500000 48.060000
1208   1  1 0.0000 19.580000 44.500000 55.180000
1209   1  1 0.0000 19.580000 51.620000  5.340000
1210   1  1 0.0000 19.580000 51.620000 12.460000
1211   1  1 0.0000 19.580000 51.620000 19.580000
1212   1  1 0.0000 19.580000 51.620000 26.700000
1213   1  1 0.0000 19.580000 51.620000 33.820000
1214   1  1 0.0000 19.580000 51.620000 40.940000
1215   1  1 0.0000 19.580000 51.620000 48.060000
1216   1  1 0.0000 19.580000 51.620000 55.180000
1217   1  1 0.0000 26.700000  1.780000  5.340000
1218   1  1 0.0000 26.700000  1.780000 12.460000
1219   1  1 0.0000 26.700000  1.780000 19.580000
1220   1  1 0.0000 26.700000  1.780000 26.700000
1221   1  1 0.0000 26.700000  1.780000 33.820000
1222   1  1 0.0000 26.700000  1.780000 40.940000
1223   1  1 0.0000 26.700000  1.780000 48.060000
1224   1  1 0.0000 26.700000  1.780000 55.180000
1225   1  1 0.0000 26.700000  8.900000  5.340000
1226   1  1 0.0000 26.700000  8.900000 12.460000
1227   1  1 0.0000 26.700000  8.900000 19.580000
1228   1  1 0.0000 26.700000  8.900000 26.700000
1229   1  1 0.0000 26.700000  8.900000 33.820000
1230   1  1 0.0000 26.700000  8.900000 40.940000
1231   1  1 0.0000 26.700000  8.900000 48.060000
1232   1  1 0.0000 26.700000  8.900000 55.180000
1233   1  1 0.0000 26.700000 16.020000  5.340000
1234   1  1 0.0000 26.700000 16.020000 12.460000
1235   1  1 0.0000 26.700000 16.020000 19.580000
1236   1  1 0.0000 26.700000 16.020000 26.700000
1237   1  1 0.0000 26.700000 16.020000 33.820000
1238   1  1 0.0000 26.700000 16.020000 40.940000
1239   1  1 0.0000 26.700000 16.020000 48.060000
1240   1  1 0.0000 26.700000 16.020000 55.180000
1241   1  1 0.0000 26.700000 23.140000  5.340000
1242   1  1 0.0000 26.700000 23.140000 12.460000
1243   1  1 0.0000 26.700000 23.140000 19.580000
1244   1  1 0.0000 26.700000 23.140000 26.700000
1245   1  1 0.0000 26.700000 23.140000 33.820000
1246   1  1 0.0000 26.700000 23.140000 40.940000
1247   1  1 0.0000 26.700000 23.140000 48.060000
1248   1  1 0.0000 26.700000 23.140000 55.180000
1249   1  1 0.0000 26.700000 30.260000  5.340000
1250   1  1 0.0000 26.700000 30.260000 12.460000
1251   1  1 0.0000 26.700000 30.260000 19.580000
1252   1  1 0.0000 26.700000 30.260000 26.700000
1253   1  1 0.0000 26.700000 30.260000 33.820000
1254   1  1 0.0000 26.700000 30.260000 40.940000
1255   1  1 0.0000 26.700000 30.260000 48.060000
1256   1  1 0.0000 26.700000 30.260000 55.180000
1257   1  1 0.0000 26.700000 37.380000  5.340000
1258   1  1 0.0000 26.700000 37.380000 12.460000
1259   1  1 0.0000 26.700000 37.380000 19.580000
1260   1  1 0.0000 26.700000 37.380000 26.700000
1261   1  1 0.0000 26.700000 37.380000 33.820000
1262   1  1 0.0000 26.700000 37.380000 40.940000
1263   1  1 0.0000 26.700000 37.380000 48.060000
1264   1  1 0.0000 26.700000 37.380000 55.180000
1265   1  1 0.0000 26.700000 44.500000  5.340000
1266   1  1 0.0000 26.700000 44.500000 12.460000
1267   1  1 0.0000 26.700000 44.500000 19.580000
1268   1  1 0.0000 26.700000 44.500000 26.700000
1269   1  1 0.0000 26.700000 44.500000 33.820000
1270   1  1 0.0000 26.700000 44.500000 40.940000
1271   1  1 0.0000 26.700000 44.500000 48.060000
1272   1  1 0.0000 26.700000 44.500000 55.180000
1273   1  1 0.0000 26.700000 51.620000  5.340000
1274   1  1 0.0000 26.700000 51.620000 12.460000
1275   1  1 0.0000 26.700000 51.620000 19.580000
1276   1  1 0.0000 26.700000 51.620000 26.700000
1277   1  1 0.0000 26.700000 51.620000 33.820000
1278   1  1 0.0000 26.700000 51.620000 40.940000
1279   1  1 0.0000 26.700000 51.620000 48.060000
1280   1  1 0.0000 26.700000 51.620000 55.180000
1281   1  1 0.0000 33.820000  1.780000  5.340000
1282   1  1 0.0000 33.820000  1.780000 12.460000
1283   1  1 0.0000 33.820000  1.780000 19.580000
1284   1  1 0.0000 33.820000  1.780000 26.700000
1285   1  1 0.0000 33.820000  1.780000 33.820000
1286   1  1 0.0000 33.820000  1.780000 40.940000
1287   1  1 0.0000 33.820000  1.780000 48.060000
1288   1  1 0.0000 33.820000  1.780000 55.180000
1289   1  1 0.0000 33.820000  8.900000  5.340000
1290   1  1 0.0000 33.820000  8.900000 12.460000
1291   1  1 0.0000 33.820000  8.900000 19.580000
1292   1  1 0.0000 33.820000  8.900000 26.700000
1293   1  1 0.0000 33.820000  8.900000 33.820000
1294   1  1 0.0000 33.820000  8.900000 40.940000
1295   1  1 0.0000 33.820000  8.900000 48.060000
1296   1  1 0.0000 33.820000  8.900000 55.180000
1297   1  1 0.0000 33.820000 16.020000  5.340000
1298   1  1 0.0000 33.820000 16.020000 12.460000
1299   1  1 0.0000 33.820000 16.020000 19.580000
1300   1  1 0.0000 33.820000 16.020000 26.700000
1301   1  1 0.0000 33.820000 16.020000 33.820000
1302   1  1 0.0000 33.820000 16.020000 40.940000
1303   1  1 0.0000 33.820000 16.020000 48.060000
1304   1  1 0.0000 33.820000 16.020000 55.180000
1305   1  1 0.0000 33.820000 23.140000  5.340000
1306   1  1 0.0000 33.820000 23.140000 12.460000
1307   1  1 0.0000 33.820000 23.140000 19.580000
1308   1  1 0.0000 33.820000 23.140000 26.700000
1309   1  1 0.0000 33.820000 23.140000 33.820000
1310   1  1 0.0000 33.820000 23.140000 40.940000
1311   1  1 0.0000 33.820000 23.140000 48.060000
1312   1  1 0.0000 33.820000 23.140000 55.180000
1313   1  1 0.0000 33.820000 30.260000  5.340000
1314   1  1 0.0000 33.820000 30.260000 12.460000
1315   1  1 0.0000 33.820000 30.260000 19.580000
1316   1  1 0.0000 33.820000 30.260000 26.700000
1317   1  1 0.0000 33.820000 30.260000 33.820000
1318   1  1 0.0000 33.820000 30.260000 40.940000
1319   1  1 0.0000 33.820000 30.260000 48.060000
1320   1  1 0.0000 33.820000 30.260000 55.180000
1321   1  1 0.0000 33.820000 37.380000  5.340000
1322   1  1 0.0000 33.820000 37.380000 12.460000
1323   1  1 0.0000 33.820000 37.380000 19.580000
1324   1  1 0.0000 33.820000 37.380000 26.700000
1325   1  1 0.0000 33.820000 37.380000 33.820000
1326   1  1 0.0000 33.820000 37.380000 40.940000
1327   1  1 0.0000 33.820000 37.380000 48.060000
1328   1  1 0.0000 33.820000 37.380000 55.180000
1329   1  1 0.0000 33.820000 44.500000  5.340000
1330   1  1 0.0000 33.820000 44.500000 12.460000
1331   1  1 0.0000 33.820000 44.500000 19.580000
1332   1  1 0.0000 33.820000 44.500000 26.700000
1333   1  1 0.0000 33.820000 44.500000 33.820000
1334   1  1 0.0000 33.820000 44.500000 40.940000
1335   1  1 0.0000 33.820000 44.500000 48.060000
1336   1  1 0.0000 33.820000 44.500000 55.180000
1337   1  1 0.0000 33.820000 51.620000  5.340000
1338   1  1 0.0000 33.820000 51.620000 12.460000
1339   1  1 0.0000 33.820000 51.620000 19.580000
1340   1  1 0.0000 33.820000 51.620000 26.700000
1341   1  1 0.0000 33.820000 51.620000 33.820000
1342   1  1 0.0000 33.820000 51.620000 40.940000
1343   1  1 0.0000 33.820000 51.620000 48.060000
1344   1  1 0.0000 33.820000 51.620000 55.180000
1345   1  1 0.0000 40.940000  1.780000  5.340000
1346   1  1 0.0000 40.940000  1.780000 12.460000
1347   1  1 0.0000 40.940000  1.780000 19.580000
1348   1  1 0.0000 40.940000  1.780000 26.700000
1349   1  1 0.0000 40.940000  1.780000 33.820000
1350   1  1 0.0000 40.940000  1.780000 40.940000
1351   1  1 0.0000 40.940000  1.780000 48.060000
1352   1  1 0.0000 40.940000  1.780000 55.180000
1353   1  1 0.0000 40.940000  8.900000  5.340000
1354   1  1 0.0000 40.940000  8.900000 12.460000
1355   1  1 0.0000 40.940000  8.900000 19.580000
1356   1  1 0.0000 40.940000  8.900000 26.700000
1357   1  1 0.0000 40.940000  8.900000 33.820000
1358   1  1 0.0000 40.940000  8.900000 40.940000
1359   1  1 0.0000 40.940000  8.900000 48.060000
1360   1  1 0.0000 40.940000  8.900000 55.180000
1361   1  1 0.0000 40.940000 16.020000  5.340000
1362   1  1 0.0000 40.940000 16.020000 12.460000
1363   1  1 0.0000 40.940000 16.020000 19.580000
1364   1  1 0.0000 40.940000 16.020000 26.700000
1365   1  1 0.0000 40.940000 16.020000 33.820000
1366   1  1 0.0000 40.940000 16.020000 40.940000
1367   1  1 0.0000 40.940000 16.020000 48.060000
1368   1  1 0.0000 40.940000 16.020000 55.180000
1369   1  1 0.0000 40.940000 23.140000  5.340000
1370   1  1 0.0000 40.940000 23.140000 12.460000
1371   1  1 0.0000 40.940000 23.140000 19.580000
1372   1  1 0.0000 40.940000 23.140000 26.700000
1373   1  1 0.0000 40.940000 23.140000 33.820000
1374   1  1 0.0000 40.940000 23.140000 40.940000
1375   1  1 0.0000 40.940000 23.140000 48.060000
1376   1  1 0.0000 40.940000 23.140000 55.180000
1377   1  1 0.0000 40.940000 30.260000  5.340000
1378   1  1 0.0000 40.940000 30.260000 12.460000
1379   1  1 0.0000 40.940000 30.260000 19.580000
1380   1  1 0.0000 40.940000 30.260000 26.700000
1381   1  1 0.0000 40.940000 30.260000 33.820000
1382   1  1 0.0000 40.940000 30.260000 40.940000
1383   1  1 0.0000 40.940000 30.260000 48.060000
1384   1  1 0.0000 40.940000 30.260000 55.180000
1385   1  1 0.0000 40.940000 37.380000  5.340000
1386   1  1 0.0000 40.940000 37.380000 12.460000
1387   1  1 0.0000 40.940000 37.380000 19.580000
1388   1  1 0.0000 40.940000 37.380000 26.700000
1389   1  1 0.0000 40.940000 37.380000 33.820000
1390   1  1 0.0000 40.940000 37.380000 40.940000
1391   1  1 0.0000 40.940000 37.380000 48.060000
1392   1  1 0.0000 40.940000 37.380000 55.180000
1393   1  1 0.0000 40.940000 44.500000  5.340000
1394   1  1 0.0000 40.940000 44.500000 12.460000
1395   1  1 0.0000 40.940000 44.500000 19.580000
1396   1  1 0.0000 40.940000 44.500000 26.700000
1397   1  1 0.0000 40.940000 44.500000 33.820000
1398   1  1 0.0000 40.940000 44.500000 40.940000
1399   1  1 0.0000 40.940000 44.500000 48.060000
1400   1  1 0.0000 40.940000 44.500000 55.180000
1401   1  1 0.0000 40.940000 51.620000  5.340000
1402   1  1 0.0000 40.940000 51.620000 12.460000
1403   1  1 0.0000 40.940000 51.620000 19.580000
1404   1  1 0.0000 40.940000 51.620000 26.700000
1405   1  1 0.0000 40.940000 51.620000 33.820000
1406   1  1 0.0000 40.940000 51.620000 40.940000
1407   1  1 0.0000 40.940000 51.620000 48.060000
1408   1  1 0.0000 40.940000 51.620000 55.180000
1409   1  1 0.0000 48.060000  1.780000  5.340000
1410   1  1 0.0000 48.060000  1.780000 12.460000
1411   1  1 0.0000 48.060000  1.780000 19.580000
1412   1  1 0.0000 48.060000  1.780000 26.700000
1413   1  1 0.0000 48.060000  1.780000 33.820000
1414   1  1 0.0000 48.060000  1.780000 40.940000
1415   1  1 0.0000 48.060000  1.780000 48.060000
1416   1  1 0.0000 48.060000  1.780000 55.180000
1417   1  1 0.0000 48.060000  8.900000  5.340000
1418   1  1 0.0000 48.060000  8.900000 12.460000
1419   1  1 0.0000 48.060000  8.900000 19.580000
1420   1  1 0.0000 48.060000  8.900000 26.700000
1421   1  1 0.0000 48.060000  8.900000 33.820000
1422   1  1 0.0000 48.060000  8.900000 40.940000
1423   1  1 0.0000 48.060000  8.900000 48.060000
1424   1  1 0.0000 48.060000  8.900000 55.180000
1425   1  1 0.0000 48.060000 16.020000  5.340000
1426   1  1 0.0000 48.060000 16.020000 12.460000
1427   1  1 0.0000 48.060000 16.020000 19.580000
1428   1  1 0.0000 48.060000 16.020000 26.700000
1429   1  1 0.0000 48.060000 16.020000 33.820000
1430   1  1 0.0000 48.060000 16.020000 40.940000
1431   1  1 0.0000 48.060000 16.020000 48.060000
1432   1  1 0.0000 48.060000 16.020000 55.180000
1433   1  1 0.0000 48.060000 23.140000  5.340000
1434   1  1 0.0000 48.060000 23.140000 12.460000
1435   1  1 0.0000 48.060000 23.140000 19.580000
1436   1  1 0.0000 48.060000 23.140000 26.700000
1437   1  1 0.0000 48.060000 23.140000 33.820000
1438   1  1 0.0000 48.060000 23.140000 40.940000
1439   1  1 0.0000 48.060000 23.140000 48.060000
1440   1  1 0.0000 48.060000 23.140000 55.180000
1441   1  1 0.0000 48.060000 30.260000  5.340000
1442   1  1 0.0000 48.060000 30.260000 12.460000
1443   1  1 0.0000 48.060000 30.260000 19.580000
1444   1  1 0.0000 48.060000 30.260000 26.700000
1445   1  1 0.0000 48.060000 30.260000 33.820000
1446   1  1 0.0000 48.060000 30.260000 40.940000
1447   1  1 0.0000 48.060000 30.260000 48.060000
1448   1  1 0.0000 48.060000 30.260000 55.180000
1449   1  1 0.0000 48.060000 37.380000  5.340000
1450   1  1 0.0000 48.060000 37.380000 12.460000
1451   1  1 0.0000 48.060000 37.380000 19.580000
1452   1  1 0.0000 48.060000 37.380000 26.700000
1453   1  1 0.0000 48.060000 37.380000 33.820000
1454   1  1 0.0000 48.060000 37.380000 40.940000
1455   1  1 0.0000 48.060000 37.380000 48.060000
1456   1  1 0.0000 48.060000 37.380000 55.180000
1457   1  1 0.0000 48.060000 44.500000  5.340000
1458   1  1 0.0000 48.060000 44.500000 12.460000
1459   1  1 0.0000 48.060000 44.500000 19.580000
1460   1  1 0.0000 48.060000 44.500000 26.700000
1461   1  1 0.0000 48.060000 44.500000 33.820000
1462   1  1 0.0000 48.060000 44.500000 40.940000
1463   1  1 0.0000 48.060000 44.500000 48.060000
1464   1  1 0.0000 48.060000 44.500000 55.180000
1465   1  1 0.0000 48.060000 51.620000  5.340000
1466   1  1 0.0000 48.060000 51.620000 12.460000
1467   1  1 0.0000 48.060000 51.620000 19.580000
1468   1  1 0.0000 48.060000 51.620000 26.700000
1469   1  1 0.0000 48.060000 51.620000 33.820000
1470   1  1 0.0000 48.060000 51.620000 40.940000
1471   1  1 0.0000 48.060000 51.620000 48.060000
1472   1  1 0.0000 48.060000 51.620000 55.180000
1473   1  1 0.0000 55.180000  1.780000  5.340000
1474   1  1 0.0000 55.180000  1.780000 12.460000
1475   1  1 0.0000 55.180000  1.780000 19.580000
1476   1  1 0.0000 55.180000  1.780000 26.700000
1477   1  1 0.0000 55.180000  1.780000 33.820000
1478   1  1 0.0000 55.180000  1.780000 40.940000
1479   1  1 0.0000 55.180000  1.780000 48.060000
1480   1  1 0.0000 55.180000  1.780000 55.180000
1481   1  1 0.0000 55.180000  8.900000  5.340000
1482   1  1 0.0000 55.180000  8.900000 12.460000
1483   1  1 0.0000 55.180000  8.900000 19.580000
1484   1  1 0.0000 55.180000  8.900000 26.700000
1485   1  1 0.0000 55.180000  8.900000 33.820000
1486   1  1 0.0000 55.180000  8.900000 40.940000
1487   1  1 0.0000 55.180000  8.900000 48.060000
1488   1  1 0.0000 55.180000  8.900000 55.180000
1489   1  1 0.0000 55.180000 16.020000  5.340000
1490   1  1 0.0000 55.180000 16.020000 12.460000
1491   1  1 0.0000 55.180000 16.020000 19.580000
1492   1  1 0.0000 55.180000 16.020000 26.700000
1493   1  1 0.0000 55.180000 16.020000 33.820000
1494   1  1 0.0000 55.180000 16.020000 40.940000
1495   1  1 0.0000 55.180000 16.020000 48.060000
1496   1  1 0.0000 55.180000 16.020000 55.180000
1497   1  1 0.0000 55.180000 23.140000  5.340000
1498   1  1 0.0000 55.180000 23.140000 12.460000
1499   1  1 0.0000 55.180000 23.140000 19.580000
1500   1  1 0.0000 55.180000 23.140000 26.700000
1501   1  1 0.0000 55.180000 23.140000 33.820000
1502   1  1 0.0000 55.180000 23.140000 40.940000
1503   1  1 0.0000 55.180000 23.140000 48.060000
1504   1  1 0.0000 55.180000 23.140000 55.180000
1505   1  1 0.0000 55.180000 30.260000  5.340000
1506   1  1 0.0000 55.180000 30.260000 12.460000
1507   1  1 0.0000 55.180000 30.260000 19.580000
1508   1  1 0.0000 55.180000 30.260000 26.700000
1509   1  1 0.0000 55.180000 30.260000 33.820000
1510   1  1 0.0000 55.180000 30.260000 40.940000
1511   1  1 0.0000 55.180000 30.260000 48.060000
1512   1  1 0.0000 55.180000 30.260000 55.180000
1513   1  1 0.0000 55.180000 37.380000  5.340000
1514   1  1 0.0000 55.180000 37.380000 12.460000
1515   1  1 0.0000 55.180000 37.380000 19.580000
1516   1  1 0.0000 55.180000 37.380000 26.700000
1517   1  1 0.0000 55.180000 37.380000 33.820000
1518   1  1 0.0000 55.180000 37.380000 40.940000
1519   1  1 0.0000 55.180000 37.380000 48.060000
1520   1  1 0.0000 55.180000 37.380000 55.180000
1521   1  1 0.0000 55.180000 44.500000  5.340000
1522   1  1 0.0000 55.180000 44.500000 12.460000
1523   1  1 0.0000 55.180000 44.500000 19.580000
1524   1  1 0.0000 55.180000 44.500000 26.700000
1525   1  1 0.0000 55.180000 44.500000 33.820000
1526   1  1 0.0000 55.180000 44.500000 40.940000
1527   1  1 0.0000 55.180000 44.500000 48.060000
1528   1  1 0.0000 55.180000 44.500000 55.180000
1529   1  1 0.0000 55.180000 51.620000  5.340000
1530   1  1 0.0000 55.180000 51.620000 12.460000
1531   1  1 0.0000 55.180000 51.620000 19.580000
1532   1  1 0.0000 55.180000 51.620000 26.700000
1533   1  1 0.0000 55.180000 51.620000 33.820000
1534   1  1 0.0000 55.180000 51.620000 40.940000
1535   1  1 0.0000 55.180000 51.620000 48.060000
1536   1  1 0.0000 55.180000 51.620000 55.180000
1537   1  1 0.0000  1.780000  5.340000  5.340000
1538   1  1 0.0000  1.780000  5.340000 12.460000
1539   1  1 0.0000  1.780000  5.340000 19.580000
1540   1  1 0.0000  1.780000  5.340000 26.700000
1541   1  1 0.0000  1.780000  5.340000 33.820000
1542   1  1 0.0000  1.780000  5.340000 40.940000
1543   1  1 0.0000  1.780000  5.340000 48.060000
1544   1  1 0.0000  1.780000  5.340000 55.180000
1545   1  1 0.0000  1.780000 12.460000  5.340000
1546   1  1 0.0000  1.780000 12.460000 12.460000
1547   1  1 0.0000  1.780000 12.460000 19.580000
1548   1  1 0.0000  1.780000 12.460000 26.700000
1549   1  1 0.0000  1.780000 12.460000 33.820000
1550   1  1 0.0000  1.780000 12.460000 40.940000
1551   1  1 0.0000  1.780000 12.460000 48.060000
1552   1  1 0.0000  1.780000 12.460000 55.180000
1553   1  1 0.0000  1.780000 19.580000  5.340000
1554   1  1 0.0000  1.780000 19.580000 12.460000
1555   1  1 0.0000  1.780000 19.580000 19.580000
1556   1  1 0.0000  1.780000 19.580000 26.700000
1557   1  1 0.0000  1.780000 19.580000 33.820000
1558   1  1 0.0000  1.780000 19.580000 40.940000
1559   1  1 0.0000  1.780000 19.580000 48.060000
1560   1  1 0.0000  1.780000 19.580000 55.180000
1561   1  1 0.0000  1.780000 26.700000  5.340000
1562   1  1 0.0000  1.780000 26.700000 12.460000
1563   1  1 0.0000  1.780000 26.700000 19.580000
1564   1  1 0.0000  1.780000 26.700000 26.700000
1565   1  1 0.0000  1.780000 26.700000 33.820000
1566   1  1 0.0000  1.780000 26.700000 40.940000
1567   1  1 0.0000  1.780000 26.700000 48.060000
1568   1  1 0.0000  1.780000 26.700000 55.180000
1569   1  1 0.0000  1.780000 33.820000  5.340000
1570   1  1 0.0000  1.780000 33.820000 12.460000
1571   1  1 0.0000  1.780000 33.820000 19.580000
1572   1  1 0.0000  1.780000 33.820000 26.700000
1573   1  1 0.0000  1.780000 33.820000 33.820000
1574   1  1 0.0000  1.780000 33.820000 40.940000
1575   1  1 0.0000  1.780000 33.820000 48.060000
1576   1  1 0.0000  1.780000 33.820000 55.180000
1577   1  1 0.0000  1.780000 40.940000  5.340000
1578   1  1 0.0000  1.780000 40.940000 12.460000
1579   1  1 0.0000  1.780000 40.940000 19.580000
1580   1  1 0.0000  1.780000 40.940000 26.700000
1581   1  1 0.0000  1.780000 40.940000 33.820000
1582   1  1 0.0000  1.780000 40.940000 40.940000
1583   1  1 0.0000  1.780000 40.940000 48.060000
1584   1  1 0.0000  1.780000 40.940000 55.180000
1585   1  1 0.0000  1.780000 48.060000  5.340000
1586   1  1 0.0000  1.780000 48.060000 12.460000
1587   1  1 0.0000  1.780000 48.060000 19.580000
1588   1  1 0.0000  1.780000 48.060000 26.700000
1589   1  1 0.0000  1.780000 48.060000 33.820000
1590   1  1 0.0000  1.780000 48.060000 40.940000
1591   1  1 0.0000  1.780000 48.060000 48.060000
1592   1  1 0.0000  1.780000 48.060000 55.180000
1593   1  1 0.0000  1.780000 55.180000  5.340000
1594   1  1 0.0000  1.780000 55.180000 12.460000
1595   1  1 0.0000  1.780000 55.180000 19.580000
1596   1  1 0.0000  1.780000 55.180000 26.700000
1597   1  1 0.0000  1.780000 55.180000 33.820000
1598   1  1 0.0000  1.780000 55.180000 40.940000
1599   1  1 0.0000  1.780000 55.180000 48.060000
1600   1  1 0.0000  1.780000 55.180000 55.180000
1601   1  1 0.0000  8.900000  5.340000  5.340000
1602   1  1 0.0000  8.900000  5.340000 12.460000
1603   1  1 0.0000  8.900000  5.340000 19.580000
1604   1  1 0.0000  8.900000  5.340000 26.700000
1605   1  1 0.0000  8.900000  5.340000 33.820000
1606   1  1 0.0000  8.900000  5.340000 40.940000
1607   1  1 0.0000  8.900000  5.340000 48.060000
1608   1  1 0.0000  8.900000  5.340000 55.180000
1609   1  1 0.0000  8.900000 12.460000  5.340000
1610   1  1 0.0000  8.900000 12.460000 12.460000
1611   1  1 0.0000  8.900000 12.460000 19.580000
1612   1  1 0.0000  8.900000 12.460000 26.700000
1613   1  1 0.0000  8.900000 12.460000 33.820000
1614   1  1 0.0000  8.900000 12.460000 40.940000
1615   1  1 0.0000  8.900000 12.460000 48.060000
1616   1  1 0.0000  8.900000 12.460000 55.180000
1617   1  1 0.0000  8.900000 19.580000  5.340000
1618   1  1 0.0000  8.900000 19.580000 12.460000
1619   1  1 0.0000  8.900000 19.580000 19.580000
1620   1  1 0.0000  8.900000 19.580000 26.700000
1621   1  1 0.0000  8.900000 19.580000 33.820000
1622   1  1 0.0000  8.900000 19.580000 40.940000
1623   1  1 0.0000  8.900000 19.580000 48.060000
1624   1  1 0.0000  8.900000 19.580000 55.180000
1625   1  1 0.0000  8.900000 26.700000  5.340000
1626   1  1 0.0000  8.900000 26.700000 12.460000
1627   1  1 0.0000  8.900000 26.700000 19.580000
1628   1  1 0.0000  8.900000 26.700000 26.700000
1629   1  1 0.0000  8.900000 26.700000 33.820000
1630   1  1 0.0000  8.900000 26.700000 40.940000
1631   1  1 0.0000  8.900000 26.700000 48.060000
1632   1  1 0.0000  8.900000 26.700000 55.180000
1633   1  1 0.0000  8.900000 33.820000  5.340000
1634   1  1 0.0000  8.900000 33.820000 12.460000
1635   1  1 0.0000  8.900000 33.820000 19.580000
1636   1  1 0.0000  8.900000 33.820000 26.700000
1637   1  1 0.0000  8.900000 33.820000 33.820000
1638   1  1 0.0000  8.900000 33.820000 40.940000
1639   1  1 0.0000  8.900000 33.820000 48.060000
1640   1  1 0.0000  8.900000 33.820000 55.180000
1641   1  1 0.0000  8.900000 40.940000  5.340000
1642   1  1 0.0000  8.900000 40.940000 12.460000
1643   1  1 0.0000  8.900000 40.940000 19.580000
1644   1  1 0.0000  8.900000 40.940000 26.700000
1645   1  1 0.0000  8.900000 40.940000 33.820000
1646   1  1 0.0000  8.900000 40.940000 40.940000
1647   1  1 0.0000  8.900000 40.940000 48.060000
1648   1  1 0.0000  8.900000 40.940000 55.180000
1649   1  1 0.0000  8.900000 48.060000  5.340000
1650   1  1 0.0000  8.900000 48.060000 12.460000
1651   1  1 0.0000  8.900000 48.060000 19.580000
1652   1  1 0.0000  8.900000 48.060000 26.700000
1653   1  1 0.0000  8.900000 48.060000 33.820000
1654   1  1 0.0000  8.900000 48.060000 40.940000
1655   1  1 0.0000  8.900000 48.060000 48.060000
1656   1  1 0.0000  8.900000 48.060000 55.180000
1657   1  1 0.0000  8.900000 55.180000  5.340000
1658   1  1 0.0000  8.900000 55.180000 12.460000
1659   1  1 0.0000  8.900000 55.180000 19.580000
1660   1  1 0.0000  8.900000 55.180000 26.700000
1661   1  1 0.0000  8.900000 55.180000 33.820000
1662   1  1 0.0000  8.900000 55.180000 40.940000
1663   1  1 0.0000  8.900000 55.180000 48.060000
1664   1  1 0.0000  8.900000 55.180000 55.180000
1665   1  1 0.0000 16.020000  5.340000  5.340000
1666   1  1 0.0000 16.020000  5.340000 12.460000
1667   1  1 0.0000 16.020000  5.340000 19.580000
1668   1  1 0.0000 16.020000  5.340000 26.700000
1669   1  1 0.0000 16.020000  5.340000 33.820000
1670   1  1 0.0000 16.020000  5.340000 40.940000
1671   1  1 0.0000 16.020000  5.340000 48.060000
1672   1  1 0.0000 16.020000  5.340000 55.180000
1673   1  1 0.0000 16.020000 12.460000  5.340000
1674   1  1 0.0000 16.020000 12.460000 12.460000
1675   1  1 0.0000 16.020000 12.460000 19.580000
1676   1  1 0.0000 16.020000 12.460000 26.700000
1677   1  1 0.0000 16.020000 12.460000 33.820000
1678   1  1 0.0000 16.020000 12.460000 40.940000
1679   1  1 0.0000 16.020000 12.460000 48.060000
1680   1  1 0.0000 16.020000 12.460000 55.180000
1681   1  1 0.0000 16.020000 19.580000  5.340000
1682   1  1 0.0000 16.020000 19.580000 12.460000
1683   1  1 0.0000 16.020000 19.580000 19.580000
1684   1  1 0.0000 16.020000 19.580000 26.700000
1685   1  1 0.0000 16.020000 19.580000 33.820000
1686   1  1 0.0000 16.020000 19.580000 40.940000
1687   1  1 0.0000 16.020000 19.580000 48.060000
1688   1  1 0.0000 16.020000 19.580000 55.180000
1689   1  1 0.0000 16.020000 26.700000  5.340000
1690   1  1 0.0000 16.020000 26.700000 12.460000
1691   1  1 0.0000 16.020000 26.700000 19.580000
1692   1  1 0.0000 16.020000 26.700000 26.700000
1693   1  1 0.0000 16.020000 26.700000 33.820000
1694   1  1 0.0000 16.020000 26.700000 40.940000
1695   1  1 0.0000 16.020000 26.700000 48.060000
1696   1  1 0.0000 16.020000 26.700000 55.180000
1697   1  1 0.0000 16.020000 33.820000  5.340000
1698   1  1 0.0000 16.020000 33.820000 12.460000
1699   1  1 0.0000 16.020000 33.820000 19.580000
1700   1  1 0.0000 16.020000 33.820000 26.700000
1701   1  1 0.0000 16.020000 33.820000 33.820000
1702   1  1 0.0000 16.020000 33.820000 40.940000
1703   1  1 0.0000 16.020000 33.820000 48.060000
1704   1  1 0.0000 16.020000 33.820000 55.180000
1705   1  1 0.0000 16.020000 40.940000  5.340000
1706   1  1 0.0000 16.020000 40.940000 12.460000
1707   1  1 0.0000 16.020000 40.940000 19.580000
1708   1  1 0.0000 16.020000 40.940000 26.700000
1709   1  1 0.0000 16.020000 40.940000 33.820000
1710   1  1 0.0000 16.020000 40.940000 40.940000
1711   1  1 0.0000 16.020000 40.940000 48.060000
1712   1  1 0.0000 16.020000 40.940000 55.180000
1713   1  1 0.0000 16.020000 48.060000  5.340000
1714   1  1 0.0000 16.020000 48.060000 12.460000
1715   1  1 0.0000 16.020000 48.060000 19.580000
1716   1  1 0.0000 16.020000 48.060000 26.700000
1717   1  1 0.0000 16.020000 48.060000 33.820000
1718   1  1 0.0000 16.020000 48.060000 40.940000
1719   1  1 0.0000 16.020000 48.060000 48.060000
1720   1  1 0.0000 16.020000 48.060000 55.180000
1721   1  1 0.0000 16.020000 55.180000  5.340000
1722   1  1 0.0000 16.020000 55.180000 12.460000
1723   1  1 0.0000 16.020000 55.180000 19.580000
1724   1  1 0.0000 16.020000 55.180000 26.700000
1725   1  1 0.0000 16.020000 55.180000 33.820000
1726   1  1 0.0000 16.020000 55.180000 40.940000
1727   1  1 0.0000 16.020000 55.180000 48.060000
1728   1  1 0.0000 16.020000 55.180000 55.180000
1729   1  1 0.0000 23.140000  5.340000  5.340000
1730   1  1 0.0000 23.140000  5.340000 12.460000
1731   1  1 0.0000 23.140000  5.340000 19.580000
1732   1  1 0.0000 23.140000  5.340000 26.700000
1733   1  1 0.0000 23.140000  5.340000 33.820000
1734   1  1 0.0000 23.140000  5.340000 40.940000
1735   1  1 0.0000 23.140000  5.340000 48.060000
1736   1  1 0.0000 23.140000  5.340000 55.180000
1737   1  1 0.0000 23.140000 12.460000  5.340000
1738   1  1 0.0000 23.140000 12.460000 12.460000
1739   1  1 0.0000 23.140000 12.460000 19.580000
1740   1  1 0.0000 23.140000 12.460000 26.700000
1741   1  1 0.0000 23.140000 12.460000 33.820000
1742   1  1 0.0000 23.140000 12.460000 40.940000
1743   1  1 0.0000 23.140000 12.460000 48.060000
1744   1  1 0.0000 23.140000 12.460000 55.180000
1745   1  1 0.0000 23.140000 19.580000  5.340000
1746   1  1 0.0000 23.140000 19.580000 12.460000
1747   1  1 0.0000 23.140000 19.580000 19.580000
1748   1  1 0.0000 23.140000 19.580000 26.700000
1749   1  1 0.0000 23.140000 19.580000 33.820000
1750   1  1 0.0000 23.140000 19.580000 40.940000
1751   1  1 0.0000 23.140000 19.580000 48.060000
1752   1  1 0.0000 23.140000 19.580000 55.180000
1753   1  1 0.0000 23.140000 26.700000  5.340000
1754   1  1 0.0000 23.140000 26.700000 12.460000
1755   1  1 0.0000 23.140000 26.700000 19.580000
1756   1  1 0.0000 23.140000 26.700000 26.700000
1757   1  1 0.0000 23.140000 26.700000 33.820000
1758   1  1 0.0000 23.140000 26.700000 40.940000
1759   1  1 0.0000 23.140000 26.700000 48.060000
1760   1  1 0.0000 23.140000 26.700000 55.180000
1761   1  1 0.0000 23.140000 33.820000  5.340000
1762   1  1 0.0000 23.140000 33.820000 12.460000
1763   1  1 0.0000 23.140000 33.820000 19.580000
1764   1  1 0.0000 23.140000 33.820000 26.700000
1765   1  1 0.0000 23.140000 33.820000 33.820000
1766   1  1 0.0000 23.140000 33.820000 40.940000
1767   1  1 0.0000 23.140000 33.820000 48.060000
1768   1  1 0.0000 23.140000 33.820000 55.180000
1769   1  1 0.0000 23.140000 40.940000  5.340000
1770   1  1 0.0000 23.140000 40.940000 12.460000
1771   1  1 0.0000 23.140000 40.940000 19.580000
1772   1  1 0.0000 23.140000 40.940000 26.700000
1773   1  1 0.0000 23.140000 40.940000 33.820000
1774   1  1 0.0000 23.140000 40.940000 40.940000
1775   1  1 0.0000 23.140000 40.940000 48.060000
1776   1  1 0.0000 23.140000 40.940000 55.180000
1777   1  1 0.0000 23.140000 48.060000  5.340000
1778   1  1 0.0000 23.140000 48.060000 12.460000
1779   1  1 0.0000 23.140000 48.060000 19.580000
1780   1  1 0.0000 23.140000 48.060000 26.700000
1781   1  1 0.0000 23.140000 48.060000 33.820000
1782   1  1 0.0000 23.140000 48.060000 40.940000
1783   1  1 0.0000 23.140000 48.060000 48.060000
1784   1  1 0.0000 23.140000 48.060000 55.180000
1785   1  1 0.0000 23.140000 55.180000  5.340000
1786   1  1 0.0000 23.140000 55.180000 12.460000
1787   1  1 0.0000 23.140000 55.180000 19.580000
1788   1  1 0.0000 23.140000 55.180000 26.700000
1789   1  1 0.0000 23.140000 55.180000 33.820000
1790   1  1 0.0000 23.140000 55.180000 40.940000
1791   1  1 0.0000 23.140000 55.180000 48.060000
1792   1  1 0.0000 23.140000 55.180000 55.180000
1793   1  1 0.0000 30.260000  5.340000  5.340000
1794   1  1 0.0000 30.260000  5.340000 12.460000
1795   1  1 0.0000 30.260000  5.340000 19.580000
1796   1  1 0.0000 30.260000  5.340000 26.700000
1797   1  1 0.0000 30.260000  5.340000 33.820000
1798   1  1 0.0000 30.260000  5.340000 40.940000
1799   1  1 0.0000 30.260000  5.340000 48.060000
1800   1  1 0.0000 30.260000  5.340000 55.180000
1801   1  1 0.0000 30.260000 12.460000  5.340000
1802   1  1 0.0000 30.260000 12.460000 12.460000
1803   1  1 0.0000 30.260000 12.460000 19.580000
1804   1  1 0.0000 30.260000 12.460000 26.700000
1805   1  1 0.0000 30.260000 12.460000 33.820000
1806   1  1 0.0000 30.260000 12.460000 40.940000
1807   1  1 0.0000 30.260000 12.460000 48.060000
1808   1  1 0.0000 30.260000 12.460000 55.180000
1809   1  1 0.0000 30.260000 19.580000  5.340000
1810   1  1 0.0000 30.260000 19.580000 12.460000
1811   1  1 0.0000 30.260000 19.580000 19.580000
1812   1  1 0.0000 30.260000 19.580000 26.700000
1813   1  1 0.0000 30.260000 19.580000 33.820000
1814   1  1 0.0000 30.260000 19.580000 40.940000
1815   1  1 0.0000 30.260000 19.580000 48.060000
1816   1  1 0.0000 30.260000 19.580000 55.180000
1817   1  1 0.0000 30.260000 26.700000  5.340000
1818   1  1 0.0000 30.260000 26.700000 12.460000
1819   1  1 0.0000 30.260000 26.700000 19.580000
1820   1  1 0.0000 30.260000 26.700000 26.700000
1821   1  1 0.0000 30.260000 26.700000 33.820000
1822   1  1 0.0000 30.260000 26.700000 40.940000
1823   1  1 0.0000 30.260000 26.700000 48.060000
1824   1  1 0.0000 30.260000 26.700000 55.180000
1825   1  1 0.0000 30.260000 33.820000  5.340000
1826   1  1 0.0000 30.260000 33.820000 12.460000
1827   1  1 0.0000 30.260000 33.820000 19.580000
1828   1  1 0.0000 30.260000 33.820000 26.700000
1829   1  1 0.0000 30.260000 33.820000 33.820000
1830   1  1 0.0000 30.260000 33.820000 40.940000
1831   1  1 0.0000 30.260000 33.820000 48.060000
1832   1  1 0.0000 30.260000 33.820000 55.180000
1833   1  1 0.0000 30.260000 40.940000  5.340000
1834   1  1 0.0000 30.260000 40.940000 12.460000
1835   1  1 0.0000 30.260000 40.940000 19.580000
1836   1  1 0.0000 30.260000 40.940000 26.700000
1837   1  1 0.0000 30.260000 40.940000 33.820000
1838   1  1 0.0000 30.260000 40.940000 40.940000
1839   1  1 0.0000 30.260000 40.940000 48.060000
1840   1  1 0.0000 30.260000 40.940000 55.180000
1841   1  1 0.0000 30.260000 48.060000  5.340000
1842   1  1 0.0000 30.260000 48.060000 12.460000
1843   1  1 0.0000 30.260000 48.060000 19.580000
1844   1  1 0.0000 30.260000 48.060000 26.700000
1845   1  1 0.0000 30.260000 48.060000 33.820000
1846   1  1 0.0000 30.260000 48.060000 40.940000
1847   1  1 0.0000 30.260000 48.060000 48.060000
1848   1  1 0.0000 30.260000 48.060000 55.180000
1849   1  1 0.0000 30.260000 55.180000  5.340000
1850   1  1 0.0000 30.260000 55.180000 12.460000
1851   1  1 0.0000 30.260000 55.180000 19.580000
1852   1  1 0.0000 30.260000 55.180000 26.700000
1853   1  1 0.0000 30.260000 55.180000 33.820000
1854   1  1 0.0000 30.260000 55.180000 40.940000
1855   1  1 0.0000 30.260000 55.180000 48.060000
1856   1  1 0.0000 30.260000 55.180000 55.180000
1857   1  1 0.0000 37.380000  5.340000  5.340000
1858   1  1 0.0000 37.380000  5.340000 12.460000
1859   1  1 0.0000 37.380000  5.340000 19.580000
1860   1  1 0.0000 37.380000  5.340000 26.700000
1861   1  1 0.0000 37.380000  5.340000 33.820000
1862   1  1 0.0000 37.380000  5.340000 40.940000
1863   1  1 0.0000 37.380000  5.340000 48.060000
1864   1  1 0.0000 37.380000  5.340000 55.180000
1865   1  1 0.0000 37.380000 12.460000  5.340000
1866   1  1 0.0000 37.380000 12.460000 12.460000
1867   1  1 0.0000 37.380000 12.460000 19.580000
1868   1  1 0.0000 37.380000 12.460000 26.700000
1869   1  1 0.0000 37.380000 12.460000 33.820000
1870   1  1 0.0000 37.380000 12.460000 40.940000
1871   1  1 0.0000 37.380000 12.460000 48.060000
1872   1  1 0.0000 37.380000 12.460000 55.180000
1873   1  1 0.0000 37.380000 19.580000  5.340000
1874   1  1 0.0000 37.380000 19.580000 12.460000
1875   1  1 0.0000 37.380000 19.580000 19.580000
1876   1  1 0.0000 37.380000 19.580000 26.700000
1877   1  1 0.0000 37.380000 19.580000 33.820000
1878   1  1 0.0000 37.380000 19.580000 40.940000
1879   1  1 0.0000 37.380000 19.580000 48.060000
1880   1  1 0.0000 37.380000 19.580000 55.180000
1881   1  1 0.0000 37.380000 26.700000  5.340000
1882   1  1 0.0000 37.380000 26.700000 12.460000
1883   1  1 0.0000 37.380000 26.700000 19.580000
1884   1  1 0.0000 37.380000 26.700000 26.700000
1885   1  1 0.0000 37.380000 26.700000 33.820000
1886   1  1 0.0000 37.380000 26.700000 40.940000
1887   1  1 0.0000 37.380000 26.700000 48.060000
1888   1  1 0.0000 37.380000 26.700000 55.180000
1889   1  1 0.0000 37.380000 33.820000  5.340000
1890   1  1 0.0000 37.380000 33.820000 12.460000
1891   1  1 0.0000 37.380000 33.820000 19.580000
1892   1  1 0.0000 37.380000 33.820000 26.700000
1893   1  1 0.0000 37.380000 33.820000 33.820000
1894   1  1 0.0000 37.380000 33.820000 40.940000
1895   1  1 0.0000 37.380000 33.820000 48.060000
1896   1  1 0.0000 37.380000 33.820000 55.180000
1897   1  1 0.0000 37.380000 40.940000  5.340000
1898   1  1 0.0000 37.380000 40.940000 12.460000
1899   1  1 0.0000 37.380000 40.940000 19.580000
1900   1  1 0.0000 37.380000 40.940000 26.700000
1901   1  1 0.0000 37.380000 40.940000 33.820000
1902   1  1 0.0000 37.380000 40.940000 40.940000
1903   1  1 0.0000 37.380000 40.940000 48.060000
1904   1  1 0.0000 37.380000 40.940000 55.180000
1905   1  1 0.0000 37.380000 48.060000  5.340000
1906   1  1 0.0000 37.380000 48.060000 12.460000
1907   1  1 0.0000 37.380000 48.060000 19.580000
1908   1  1 0.0000 37.380000 48.060000 26.700000
1909   1  1 0.0000 37.380000 48.060000 33.820000
1910   1  1 0.0000 37.380000 48.060000 40.940000
1911   1  1 0.0000 37.380000 48.060000 48.060000
1912   1  1 0.0000 37.380000 48.060000 55.180000
1913   1  1 0.0000 37.380000 55.180000  5.340000
1914   1  1 0.0000 37.380000 55.180000 12.460000
1915   1  1 0.0000 37.380000 55.180000 19.580000
1916   1  1 0.0000 37.380000 55.180000 26.700000
1917   1  1 0.0000 37.380000 55.180000 33.820000
1918   1  1 0.0000 37.380000 55.180000 40.940000
1919   1  1 0.0000 37.380000 55.180000 48.060000
1920   1  1 0.0000 37.380000 55.180000 55.180000
1921   1  1 0.0000 44.500000  5.340000  5.340000
1922   1  1 0.0000 44.500000  5.340000 12.460000
1923   1  1 0.0000 44.500000  5.340000 19.580000
1924   1  1 0.0000 44.500000  5.340000 26.700000
1925   1  1 0.0000 44.500000  5.340000 33.820000
1926   1  1 0.0000 44.500000  5.340000 40.940000
1927   1  1 0.0000 44.500000  5.340000 48.060000
1928   1  1 0.0000 44.500000  5.340000 55.180000
1929   1  1 0.0000 44.500000 12.460000  5.340000
1930   1  1 0.0000 44.500000 12.460000 12.460000
1931   1  1 0.0000 44.500000 12.460000 19.580000
1932   1  1 0.0000 44.500000 12.460000 26.700000
1933   1  1 0.0000 44.500000 12.460000 33.820000
1934   1  1 0.0000 44.500000 12.460000 40.940000
1935   1  1 0.0000 44.500000 12.460000 48.060000
1936   1  1 0.0000 44.500000 12.460000 55.180000
1937   1  1 0.0000 44.500000 19.580000  5.340000
1938   1  1 0.0000 44.500000 19.580000 12.460000
1939   1  1 0.0000 44.500000 19.580000 19.580000
1940   1  1 0.0000 44.500000 19.580000 26.700000
1941   1  1 0.0000 44.500000 19.580000 33.820000
1942   1  1 0.0000 44.500000 19.580000 40.940000
1943   1  1 0.0000 44.500000 19.580000 48.060000
1944   1  1 0.0000 44.500000 19.580000 55.180000
1945   1  1 0.0000 44.500000 26.700000  5.340000
1946   1  1 0.0000 44.500000 26.700000 12.460000
1947   1  1 0.0000 44.500000 26.700000 19.580000
1948   1  1 0.0000 44.500000 26.700000 26.700000
1949   1  1 0.0000 44.500000 26.700000 33.820000
1950   1  1 0.0000 44.500000 26.700000 40.940000
1951   1  1 0.0000 44.500000 26.700000 48.060000
1952   1  1 0.0000 44.500000 26.700000 55.180000
1953   1  1 0.0000 44.500000 33.820000  5.340000
1954   1  1 0.0000 44.500000 33.820000 12.460000
1955   1  1 0.0000 44.500000 33.820000 19.580000
1956   1  1 0.0000 44.500000 33.820000 26.700000
1957   1  1 0.0000 44.500000 33.820000 33.820000
1958   1  1 0.0000 44.500000 33.820000 40.940000
1959   1  1 0.0000 44.500000 33.820000 48.060000
1960   1  1 0.0000 44.500000 33.820000 55.180000
1961   1  1 0.0000 44.500000 40.940000  5.340000
1962   1  1 0.0000 44.500000 40.940000 12.460000
1963   1  1 0.0000 44.500000 40.940000 19.580000
1964   1  1 0.0000 44.500000 40.940000 26.700000
1965   1  1 0.0000 44.500000 40.940000 33.820000
1966   1  1 0.0000 44.500000 40.940000 40.940000
1967   1  1 0.0000 44.500000 40.940000 48.060000
1968   1  1 0.0000 44.500000 40.940000 55.180000
1969   1  1 0.0000 44.500000 48.060000  5.340000
1970   1  1 0.0000 44.500000 48.060000 12.460000
1971   1  1 0.0000 44.500000 48.060000 19.580000
1972   1  1 0.0000 44.500000 48.060000 26.700000
1973   1  1 0.0000 44.500000 48.060000 33.820000
1974   1  1 0.0000 44.500000 48.060000 40.940000
1975   1  1 0.0000 44.500000 48.060000 48.060000
1976   1  1 0.0000 44.500000 48.060000 55.180000
1977   1  1 0.0000 44.500000 55.180000  5.340000
1978   1  1 0.0000 44.500000 55.180000 12.460000
1979   1  1 0.0000 44.500000 55.180000 19.580000
1980   1  1 0.0000 44.500000 55.180000 26.700000
1981   1  1 0.0000 44.500000 55.180000 33.820000
1982   1  1 0.0000 44.500000 55.180000 40.940000
1983   1  1 0.0000 44.500000 55.180000 48.060000
1984   1  1 0.0000 44.500000 55.180000 55.180000
1985   1  1 0.0000 51.620000  5.340000  5.340000
1986   1  1 0.0000 51.620000  5.340000 12.460000
1987   1  1 0.0000 51.620000  5.340000 19.580000
1988   1  1 0.0000 51.620000  5.340000 26.700000
1989   1  1 0.0000 51.620000  5.340000 33.820000
1990   1  1 0.0000 51.620000  5.340000 40.940000
1991   1  1 0.0000 51.620000  5.340000 48.060000
1992   1  1 0.0000 51.620000  5.340000 55.180000
1993   1  1 0.0000 51.620000 12.460000  5.340000
1994   1  1 0.0000 51.620000 12.460000 12.460000
1995   1  1 0.0000 51.620000 12.460000 19.580000
1996   1  1 0.0000 51.620000 12.460000 26.700000
1997   1  1 0.0000 51.620000 12.460000 33.820000
1998   1  1 0.0000 51.620000 12.460000 40.940000
1999   1  1 0.0000 51.620000 12.460000 48.060000
2000   1  1 0.0000 51.620000 12.460000 55.180000
2001   1  1 0.0000 51.620000 19.580000  5.340000
2002   1  1 0.0000 51.620000 19.580000 12.460000
2003   1  1 0.0000 51.620000 19.580000 19.580000
2004   1  1 0.0000 51.620000 19.580000 26.700000
2005   1  1 0.0000 51.620000 19.580000 33.820000
2006   1  1 0.0000 51.620000 19.580000 40.940000
2007   1  1 0.0000 51.620000 19.580000 48.060000
2008   1  1 0.0000 51.620000 19.580000 55.180000
2009   1  1 0.0000 51.620000 26.700000  5.340000
2010   1  1 0.0000 51.620000 26.700000 12.460000
2011   1  1 0.0000 51.620000 26.700000 19.580000
2012   1  1 0.0000 51.620000 26.700000 26.700000
2013   1  1 0.0000 51.620000 26.700000 33.820000
2014   1  1 0.0000 51.620000 26.700000 40.940000
2015   1  1 0.0000 51.620000 26.700000 48.060000
2016   1  1 0.0000 51.620000 26.700000 55.180000
2017   1  1 0.0000 51.620000 33.820000  5.340000
2018   1  1 0.0000 51.620000 33.820000 12.460000
2019   1  1 0.0000 51.620000 33.820000 19.580000
2020   1  1 0.0000 51.620000 33.820000 26.700000
2021   1  1 0.0000 51.620000 33.820000 33.820000
2022   1  1 0.0000 51.620000 33.820000 40.940000
2023   1  1 0.0000 51.620000 33.820000 48.060000
2024   1  1 0.0000 51.620000 33.820000 55.180000
2025   1  1 0.0000 51.620000 40.940000  5.340000
2026   1  1 0.0000 51.620000 40.940000 12.460000
2027   1  1 0.0000 51.620000 40.940000 19.580000
2028   1  1 0.0000 51.620000 40.940000 26.700000
2029   1  1 0.0000 51.620000 40.940000 33.820000
2030   1  1 0.0000 51.620000 40.940000 40.940000
2031   1  1 0.0000 51.620000 40.940000 48.060000
2032   1  1 0.0000 51.620000 40.940000 55.180000
2033   1  1 0.0000 51.620000 48.060000  5.340000
2034   1  1 0.0000 51.620000 48.060000 12.460000
2035   1  1 0.0000 51.620000 48.060000 19.580000
2036   1  1 0.0000 51.620000 48.060000 26.700000
2037   1  1 0.0000 51.620000 48.060000 33.820000
2038   1  1 0.0000 51.620000 48.060000 40.940000
2039   1  1 0.0000 51.620000 48.060000 48.060000
2040   1  1 0.0000 51.620000 48.060000 55.180000
2041   1  1 0.0000 51.620000 55.180000  5.340000
2042   1  1 0.0000 51.620000 55.180000 12.460000
2043   1  1 0.0000 51.620000 55.180000 19.580000
2044   1  1 0.0000 51.620000 55.180000 26.700000
2045   1  1 0.0000 51.620000 55.180000 33.820000
2046   1  1 0.0000 51.620000 55.180000 40.940000
2047   1  1 0.0000 51.620000 55.180000 48.060000
2048   1  1 0.0000 51.620000 55.180000 55.180000
2049   1  1 0.0000  5.340000  5.340000  1.780000
2050   1  1 0.0000  5.340000  5.340000  8.900000
2051   1  1 0.0000  5.340000  5.340000 16.020000
2052   1  1 0.0000  5.340000  5.340000 23.140000
2053   1  1 0.0000  5.340000  5.340000 30.260000
2054   1  1 0.0000  5.340000  5.340000 37.380000
2055   1  1 0.0000  5.340000  5.340000 44.500000
2056   1  1 0.0000  5.340000  5.340000 51.620000
2057   1  1 0.0000  5.340000 12.460000  1.780000
2058   1  1 0.0000  5.340000 12.460000  8.900000
2059   1  1 0.0000  5.340000 12.460000 16.020000
2060   1  1 0.0000  5.340000 12.460000 23.140000
2061   1  1 0.0000  5.340000 12.460000 30.260000
2062   1  1 0.0000  5.340000 12.460000 37.380000
2063   1  1 0.0000  5.340000 12.460000 44.500000
2064   1  1 0.0000  5.340000 12.460000 51.620000
2065   1  1 0.0000  5.340000 19.580000  1.780000
2066   1  1 0.0000  5.340000 19.580000  8.900000
2067   1  1 0.0000  5.340000 19.580000 16.020000
2068   1  1 0.0000  5.340000 19.580000 23.140000
2069   1  1 0.0000  5.340000 19.580000 30.260000
2070   1  1 0.0000  5.340000 19.580000 37.380000
2071   1  1 0.0000  5.340000 19.580000 44.500000
2072   1  1 0.0000  5.340000 19.580000 51.620000
2073   1  1 0.0000  5.340000 26.700000  1.780000
2074   1  1 0.0000  5.340000 26.700000  8.900000
2075   1  1 0.0000  5.340000 26.700000 16.020000
2076   1  1 0.0000  5.340000 26.700000 23.140000
2077   1  1 0.0000  5.340000 26.700000 30.260000
2078   1  1 0.0000  5.340000 26.700000 37.380000
2079   1  1 0.0000  5.340000 26.700000 44.500000
2080   1  1 0.0000  5.340000 26.700000 51.620000
2081   1  1 0.0000  5.340000 33.820000  1.780000
2082   1  1 0.0000  5.340000 33.820000  8.900000
2083   1  1 0.0000  5.340000 33.820000 16.020000
2084   1  1 0.0000  5.340000 33.820000 23.140000
2085   1  1 0.0000  5.340000 33.820000 30.260000
2086   1  1 0.0000  5.340000 33.820000 37.380000
2087   1  1 0.0000  5.340000 33.820000 44.500000
2088   1  1 0.0000  5.340000 33.820000 51.620000
2089   1  1 0.0000  5.340000 40.940000  1.780000
2090   1  1 0.0000  5.340000 40.940000  8.900000
2091   1  1 0.0000  5.340000 40.940000 16.020000
2092   1  1 0.0000  5.340000 40.940000 23.140000
2093   1  1 0.0000  5.340000 40.940000 30.260000
2094   1  1 0.0000  5.340000 40.940000 37.380000
2095   1  1 0.0000  5.340000 40.940000 44.500000
2096   1  1 0.0000  5.340000 40.940000 51.620000
2097   1  1 0.0000  5.340000 48.060000  1.780000
2098   1  1 0.0000  5.340000 48.060000  8.900000
2099   1  1 0.0000  5.340000 48.060000 16.020000
2100   1  1 0.0000  5.340000 48.060000 23.140000
2101   1  1 0.0000  5.340000 48.060000 30.260000
2102   1  1 0.0000  5.340000 48.060000 37.380000
2103   1  1 0.0000  5.340000 48.060000 44.500000
2104   1  1 0.0000  5.340000 48.060000 51.620000
2105   1  1 0.0000  5.340000 55.180000  1.780000
2106   1  1 0.0000  5.340000 55.180000  8.900000
2107   1  1 0.0000  5.340000 55.180000 16.020000
2108   1  1 0.0000  5.340000 55.180000 23.140000
2109   1  1 0.0000  5.340000 55.180000 30.260000
2110   1  1 0.0000  5.340000 55.180000 37.380000
2111   1  1 0.0000  5.340000 55.180000 44.500000
2112   1  1 0.0000  5.340000 55.180000 51.620000
2113   1  1 0.0000 12.460000  5.340000  1.780000
2114   1  1 0.0000 12.460000  5.340000  8.900000
2115   1  1 0.0000 12.460000  5.340000 16.020000
2116   1  1 0.0000 12.460000  5.340000 23.140000
2117   1  1 0.0000 12.460000  5.340000 30.260000
2118   1  1 0.0000 12.460000  5.340000 37.380000
2119   1  1 0.0000 12.460000  5.340000 44.500000
2120   1  1 0.0000 12.460000  5.340000 51.620000
2121   1  1 0.0000 12.460000 12.460000  1.780000
2122   1  1 0.0000 12.460000 12.460000  8.900000
2123   1  1 0.0000 12.460000 12.460000 16.020000
2124   1  1 0.0000 12.460000 12.460000 23.140000
2125   1  1 0.0000 12.460000 12.460000 30.260000
2126   1  1 0.0000 12.460000 12.460000 37.380000
2127   1  1 0.0000 12.460000 12.460000 44.500000
2128   1  1 0.0000 12.460000 12.460000 51.620000
2129   1  1 0.0000 12.460000 19.580000  1.780000
2130   1  1 0.0000 12.460000 19.580000  8.900000
2131   1  1 0.0000 12.460000 19.580000 16.020000
2132   1  1 0.0000 12.460000 19.580000 23.140000
2133   1  1 0.0000 12.460000 19.580000 30.260000
2134   1  1 0.0000 12.460000 19.580000 37.380000
2135   1  1 0.0000 12.460000 19.580000 44.500000
2136   1  1 0.0000 12.460000 19.580000 51.620000
2137   1  1 0.0000 12.460000 26.700000  1.780000
2138   1  1 0.0000 12.460000 26.700000  8.900000
2139   1  1 0.0000 12.460000 26.700000 16.020000
2140   1  1 0.0000 12.460000 26.700000 23.140000
2141   1  1 0.0000 12.460000 26.700000 30.260000
2142   1  1 0.0000 12.460000 26.700000 37.380000
2143   1  1 0.0000 12.460000 26.700000 44.500000
2144   1  1 0.0000 12.460000 26.700000 51.620000
2145   1  1 0.0000 12.460000 33.820000  1.780000
2146   1  1 0.0000 12.460000 33.820000  8.900000
2147   1  1 0.0000 12.460000 33.820000 16.020000
2148   1  1 0.0000 12.460000 33.820000 23.140000
2149   1  1 0.0000 12.460000 33.820000 30.260000
2150   1  1 0.0000 12.460000 33.820000 37.380000
2151   1  1 0.0000 12.460000 33.820000 44.500000
2152   1  1 0.0000 12.460000 33.820000 51.620000
2153   1  1 0.0000 12.460000 40.940000  1.780000
2154   1  1 0.0000 12.460000 40.940000  8.900000
2155   1  1 0.0000 12.460000 40.940000 16.020000
2156   1  1 0.0000 12.460000 40.940000 23.140000
2157   1  1 0.0000 12.460000 40.940000 30.260000
2158   1  1 0.0000 12.460000 40.940000 37.380000
2159   1  1 0.0000 12.460000 40.940000 44.500000
2160   1  1 0.0000 12.460000 40.940000 51.620000
2161   1  1 0.0000 12.460000 48.060000  1.780000
2162   1  1 0.0000 12.460000 48.060000  8.900000
2163   1  1 0.0000 12.460000 48.060000 16.020000
2164   1  1 0.0000 12.460000 48.060000 23.140000
2165   1  1 0.0000 12.460000 48.060000 30.260000
2166   1  1 0.0000 12.460000 48.060000 37.380000
2167   1  1 0.0000 12.460000 48.060000 44.500000
2168   1  1 0.0000 12.460000 48.060000 51.620000
2169   1  1 0.0000 12.460000 55.180000  1.780000
2170   1  1 0.0000 12.460000 55.180000  8.900000
2171   1  1 0.0000 12.460000 55.180000 16.020000
2172   1  1 0.0000 12.460000 55.180000 23.140000
2173   1  1 0.0000 12.460000 55.180000 30.260000
2174   1  1 0.0000 12.460000 55.180000 37.380000
2175   1  1 0.0000 12.460000 55.180000 44.500000
2176   1  1 0.0000 12.460000 55.180000 51.620000
2177   1  1 0.0000 19.580000  5.340000  1.780000
2178   1  1 0.0000 19.580000  5.340000  8.900000
2179   1  1 0.0000 19.580000  5.340000 16.020000
2180   1  1 0.0000 19.580000  5.340000 23.140000
2181   1  1 0.0000 19.580000  5.340000 30.260000
2182   1  1 0.0000 19.580000  5.340000 37.380000
2183   1  1 0.0000 19.580000  5.340000 44.500000
2184   1  1 0.0000 19.580000  5.340000 51.620000
2185   1  1 0.0000 19.580000 12.460000  1.780000
2186   1  1 0.0000 19.580000 12.460000  8.900000
2187   1  1 0.0000 19.580000 12.460000 16.020000
2188   1  1 0.0000 19.580000 12.460000 23.140000
2189   1  1 0.0000 19.580000 12.460000 30.260000
2190   1  1 0.0000 19.580000 12.460000 37.380000
2191   1  1 0.0000 19.580000 12.460000 44.500000
2192   1  1 0.0000 19.580000 12.460000 51.620000
2193   1  1 0.0000 19.580000 19.580000  1.780000
2194   1  1 0.0000 19.580000 19.580000  8.900000
2195   1  1 0.0000 19.580000 19.580000 16.020000
2196   1  1 0.0000 19.580000 19.580000 23.140000
2197   1  1 0.0000 19.580000 19.580000 30.260000
2198   1  1 0.0000 19.580000 19.580000 37.380000
2199   1  1 0.0000 19.580000 19.580000 44.500000
2200   1  1 0.0000 19.580000 19.580000 51.620000
2201   1  1 0.0000 19.580000 26.700000  1.780000
2202   1  1 0.0000 19.580000 26.700000  8.900000
2203   1  1 0.0000 19.580000 26.700000 16.020000
2204   1  1 0.0000 19.580000 26.700000 23.140000
2205   1  1 0.0000 19.580000 26.700000 30.260000
2206   1  1 0.0000 19.580000 26.700000 37.380000
2207   1  1 0.0000 19.580000 26.700000 44.500000
2208   1  1 0.0000 19.580000 26.700000 51.620000
2209   1  1 0.0000 19.580000 33.820000  1.780000
2210   1  1 0.0000 19.580000 33.820000  8.900000
2211   1  1 0.0000 19.580000 33.820000 16.020000
2212   1  1 0.0000 19.580000 33.820000 23.140000
2213   1  1 0.0000 19.580000 33.820000 30.260000
2214   1  1 0.0000 19.580000 33.820000 37.380000
2215   1  1 0.0000 19.580000 33.820000 44.500000
2216   1  1 0.0000 19.580000 33.820000 51.620000
2217   1  1 0.0000 19.580000 40.940000  1.780000
2218   1  1 0.0000 19.580000 40.940000  8.900000
2219   1  1 0.0000 19.580000 40.940000 16.020000
2220   1  1 0.0000 19.580000 40.940000 23.140000
2221   1  1 0.0000 19.580000 40.940000 30.260000
2222   1  1 0.0000 19.580000 40.940000 37.380000
2223   1  1 0.0000 19.580000 40.940000 44.500000
2224   1  1 0.0000 19.580000 40.940000 51.620000
2225   1  1 0.0000 19.580000 48.060000  1.780000
2226   1  1 0.0000 19.580000 48.060000  8.900000
2227   1  1 0.0000 19.580000 48.060000 16.020000
2228   1  1 0.0000 19.580000 48.060000 23.140000
2229   1  1 0.0000 19.580000 48.060000 30.260000
2230   1  1 0.0000 19.580000 48.060000 37.380000
2231   1  1 0.0000 19.580000 48.060000 44.500000
2232   1  1 0.0000 19.580000 48.060000 51.620000
2233   1  1 0.0000 19.580000 55.180000  1.780000
2234   1  1 0.0000 19.580000 55.180000  8.900000
2235   1  1 0.0000 19.580000 55.180000 16.020000
2236   1  1 0.0000 19.580000 55.180000 23.140000
2237   1  1 0.0000 19.580000 55.180000 30.260000
2238   1  1 0.0000 19.580000 55.180000 37.380000
2239   1  1 0.0000 19.580000 55.180000 44.500000
2240   1  1 0.0000 19.580000 55.180000 51.620000
2241   1  1 0.0000 26.700000  5.340000  1.780000
2242   1  1 0.0000 26.700000  5.340000  8.900000
2243   1  1 0.0000 26.700000  5.340000 16.020000
2244   1  1 0.0000 26.700000  5.340000 23.140000
2245   1  1 0.0000 26.700000  5.340000 30.260000
2246   1  1 0.0000 26.700000  5.340000 37.380000
2247   1  1 0.0000 26.700000  5.340000 44.500000
2248   1  1 0.0000 26.700000  5.340000 51.620000
2249   1  1 0.0000 26.700000 12.460000  1.780000
2250   1  1 0.0000 26.700000 12.460000  8.900000
2251   1  1 0.0000 26.700000 12.460000 16.020000
2252   1  1 0.0000 26.700000 12.460000 23.140000
2253   1  1 0.0000 26.700000 12.460000 30.260000
2254   1  1 0.0000 26.700000 12.460000 37.380000
2255   1  1 0.0000 26.700000 12.460000 44.500000
2256   1  1 0.0000 26.700000 12.460000 51.620000
2257   1  1 0.0000 26.700000 19.580000  1.780000
2258   1  1 0.0000 26.700000 19.580000  8.900000
2259   1  1 0.0000 26.700000 19.580000 16.020000
2260   1  1 0.0000 26.700000 19.580000 23.140000
2261   1  1 0.0000 26.700000 19.580000 30.260000
2262   1  1 0.0000 26.700000 19.580000 37.380000
2263   1  1 0.0000 26.700000 19.580000 44.500000
2264   1  1 0.0000 26.700000 19.580000 51.620000
2265   1  1 0.0000 26.700000 26.700000  1.780000
2266   1  1 0.0000 26.700000 26.700000  8.900000
2267   1  1 0.0000 26.700000 26.700000 16.020000
2268   1  1 0.0000 26.700000 26.700000 23.140000
2269   1  1 0.0000 26.700000 26.700000 30.260000
2270   1  1 0.0000 26.700000 26.700000 37.380000
2271   1  1 0.0000 26.700000 26.700000 44.500000
2272   1  1 0.0000 26.700000 26.700000 51.620000
2273   1  1 0.0000 26.700000 33.820000  1.780000
2274   1  1 0.0000 26.700000 33.820000  8.900000
2275   1  1 0.0000 26.700000 33.820000 16.020000
2276   1  1 0.0000 26.700000 33.820000 23.140000
2277   1  1 0.0000 26.700000 33.820000 30.260000
2278   1  1 0.0000 26.700000 33.820000 37.380000
2279   1  1 0.0000 26.700000 33.820000 44.500000
2280   1  1 0.0000 26.700000 33.820000 51.620000
2281   1  1 0.0000 26.700000 40.940000  1.780000
2282   1  1 0.0000 26.700000 40.940000  8.900000
2283   1  1 0.0000 26.700000 40.940000 16.020000
2284   1  1 0.0000 26.700000 40.940000 23.140000
2285   1  1 0.0000 26.700000 40.940000 30.260000
2286   1  1 0.0000 26.700000 40.940000 37.380000
2287   1  1 0.0000 26.700000 40.940000 44.500000
2288   1  1 0.0000 26.700000 40.940000 51.620000
2289   1  1 0.0000 26.700000 48.060000  1.780000
2290   1  1 0.0000 26.700000 48.060000  8.900000
2291   1  1 0.0000 26.700000 48.060000 16.020000
2292   1  1 0.0000 26.700000 48.060000 23.140000
2293   1  1 0.0000 26.700000 48.060000 30.260000
2294   1  1 0.0000 26.700000 48.060000 37.380000
2295   1  1 0.0000 26.700000 48.060000 44.500000
2296   1  1 0.0000 26.700000 48.060000 51.620000
2297   1  1 0.0000 26.700000 55.180000  1.780000
2298   1  1 0.0000 26.700000 55.180000  8.900000
2299   1  1 0.0000 26.700000 55.180000 16.020000
2300   1  1 0.0000 26.700000 55.180000 23.140000
2301   1  1 0.0000 26.700000 55.180000 30.260000
2302   1  1 0.0000 26.700000 55.180000 37.380000
2303   1  1 0.0000 26.700000 55.180000 44.500000
2304   1  1 0.0000 26.700000 55.180000 51.620000
2305   1  1 0.0000 33.820000  5.340000  1.780000
2306   1  1 0.0000 33.820000  5.340000  8.900000
2307   1  1 0.0000 33.820000  5.340000 16.020000
2308   1  1 0.0000 33.820000  5.340000 23.140000
2309   1  1 0.0000 33.820000  5.340000 30.260000
2310   1  1 0.0000 33.820000  5.340000 37.380000
2311   1  1 0.0000 33.820000  5.340000 44.500000
2312   1  1 0.0000 33.820000  5.340000 51.620000
2313   1  1 0.0000 33.820000 12.460000  1.780000
2314   1  1 0.0000 33.820000 12.460000  8.900000
2315   1  1 0.0000 33.820000 12.460000 16.020000
2316   1  1 0.0000 33.820000 12.460000 23.140000
2317   1  1 0.0000 33.820000 12.460000 30.260000
2318   1  1 0.0000 33.820000 12.460000 37.380000
2319   1  1 0.0000 33.820000 12.460000 44.500000
2320   1  1 0.0000 33.820000 12.460000 51.620000
2321   1  1 0.0000 33.820000 19.580000  1.780000
2322   1  1 0.0000 33.820000 19.580000  8.900000
2323   1  1 0.0000 33.820000 19.580000 16.020000
2324   1  1 0.0000 33.820000 19.580000 23.140000
2325   1  1 0.0000 33.820000 19.580000 30.260000
2326   1  1 0.0000 33.820000 19.580000 37.380000
2327   1  1 0.0000 33.820000 19.580000 44.500000
2328   1  1 0.0000 33.820000 19.580000 51.620000
2329   1  1 0.0000 33.820000 26.700000  1.780000
2330   1  1 0.0000 33.820000 26.700000  8.900000
2331   1  1 0.0000 33.820000 26.700000 16.020000
2332   1  1 0.0000 33.820000 26.700000 23.140000
2333   1  1 0.0000 33.820000 26.700000 30.260000
2334   1  1 0.0000 33.820000 26.700000 37.380000
2335   1  1 0.0000 33.820000 26.700000 44.500000
2336   1  1 0.0000 33.820000 26.700000 51.620000
2337   1  1 0.0000 33.820000 33.820000  1.780000
2338   1  1 0.0000 33.820000 33.820000  8.900000
2339   1  1 0.0000 33.820000 33.820000 16.020000
2340   1  1 0.0000 33.820000 33.820000 23.140000
2341   1  1 0.0000 33.820000 33.820000 30.260000
2342   1  1 0.0000 33.820000 33.820000 37.380000
2343   1  1 0.0000 33.820000 33.820000 44.500000
2344   1  1 0.0000 33.820000 33.820000 51.620000
2345   1  1 0.0000 33.820000 40.940000  1.780000
2346   1  1 0.0000 33.820000 40.940000  8.900000
2347   1  1 0.0000 33.820000 40.940000 16.020000
2348   1  1 0.0000 33.820000 40.940000 23.140000
2349   1  1 0.0000 33.820000 40.940000 30.260000
2350   1  1 0.0000 33.820000 40.940000 37.380000
2351   1  1 0.0000 33.820000 40.940000 44.500000
2352   1  1 0.0000 33.820000 40.940000 51.620000
2353   1  1 0.0000 33.820000 48.060000  1.780000
2354   1  1 0.0000 33.820000 48.060000  8.900000
2355   1  1 0.0000 33.820000 48.060000 16.020000
2356   1  1 0.0000 33.820000 48.060000 23.140000
2357   1  1 0.0000 33.820000 48.060000 30.260000
2358   1  1 0.0000 33.820000 48.060000 37.380000
2359   1  1 0.0000 33.820000 48.060000 44.500000
2360   1  1 0.0000 33.820000 48.060000 51.620000
2361   1  1 0.0000 33.820000 55.180000  1.780000
2362   1  1 0.0000 33.820000 55.180000  8.900000
2363   1  1 0.0000 33.820000 55.180000 16.020000
2364   1  1 0.0000 33.820000 55.180000 23.140000
2365   1  1 0.0000 33.820000 55.180000 30.260000
2366   1  1 0.0000 33.820000 55.180000 37.380000
2367   1  1 0.0000 33.820000 55.180000 44.500000
2368   1  1 0.0000 33.820000 55.180000 51.620000
2369   1  1 0.0000 40.940000  5.340000  1.780000
2370   1  1 0.0000 40.940000  5.340000  8.900000
2371   1  1 0.0000 40.940000  5.340000 16.020000
2372   1  1 0.0000 40.940000  5.340000 23.140000
2373   1  1 0.0000 40.940000  5.340000 30.260000
2374   1  1 0.0000 40.940000  5.340000 37.380000
2375   1  1 0.0000 40.940000  5.340000 44.500000
2376   1  1 0.0000 40.940000  5.340000 51.620000
2377   1  1 0.0000 40.940000 12.460000  1.780000
2378   1  1 0.0000 40.940000 12.460000  8.900000
2379   1  1 0.0000 40.940000 12.460000 16.020000
2380   1  1 0.0000 40.940000 12.460000 23.140000
2381   1  1 0.0000 40.940000 12.460000 30.260000
2382   1  1 0.0000 40.940000 12.460000 37.380000
2383   1  1 0.0000 40.940000 12.460000 44.500000
2384   1  1 0.0000 40.940000 12.460000 51.620000
2385   1  1 0.0000 40.940000 19.580000  1.780000
2386   1  1 0.0000 40.940000 19.580000  8.900000
2387   1  1 0.0000 40.940000 19.580000 16.020000
2388   1  1 0.0000 40.940000 19.580000 23.140000
2389   1  1 0.0000 40.940000 19.580000 30.260000
2390   1  1 0.0000 40.940000 19.580000 37.380000
2391   1  1 0.0000 40.940000 19.580000 44.500000
2392   1  1 0.0000 40.940000 19.580000 51.620000
2393   1  1 0.0000 40.940000 26.700000  1.780000
2394   1  1 0.0000 40.940000 26.700000  8.900000
2395   1  1 0.0000 40.940000 26.700000 16.020000
2396   1  1 0.0000 40.940000 26.700000 23.140000
2397   1  1 0.0000 40.940000 26.700000 30.260000
2398   1  1 0.0000 40.940000 26.700000 37.380000
2399   1  1 0.0000 40.940000 26.700000 44.500000
2400   1  1 0.0000 40.940000 26.700000 51.620000
2401   1  1 0.0000 40.940000 33.820000  1.780000
2402   1  1 0.0000 40.940000 33.820000  8.900000
2403   1  1 0.0000 40.940000 33.820000 16.020000
2404   1  1 0.0000 40.940000 33.820000 23.140000
2405   1  1 0.0000 40.940000 33.820000 30.260000
2406   1  1 0.0000 40.940000 33.820000 37.380000
2407   1  1 0.0000 40.940000 33.820000 44.500000
2408   1  1 0.0000 40.940000 33.820000 51.620000
2409   1  1 0.0000 40.940000 40.940000  1.780000
2410   1  1 0.0000 40.940000 40.940000  8.900000
2411   1  1 0.0000 40.940000 40.940000 16.020000
2412   1  1 0.0000 40.940000 40.940000 23.140000
2413   1  1 0.0000 40.940000 40.940000 30.260000
2414   1  1 0.0000 40.940000 40.940000 37.380000
2415   1  1 0.0000 40.940000 40.940000 44.500000
2416   1  1 0.0000 40.940000 40.940000 51.620000
2417   1  1 0.0000 40.940000 48.060000  1.780000
2418   1  1 0.0000 40.940000 48.060000  8.900000
2419   1  1 0.0000 40.940000 48.060000 16.020000
2420   1  1 0.0000 40.940000 48.060000 23.140000
2421   1  1 0.0000 40.940000 48.060000 30.260000
2422   1  1 0.0000 40.940000 48.060000 37.380000
2423   1  1 0.0000 40.940000 48.060000 44.500000
2424   1  1 0.0000 40.940000 48.060000 51.620000
2425   1  1 0.0000 40.940000 55.180000  1.780000
2426   1  1 0.0000 40.940000 55.180000  8.900000
2427   1  1 0.0000 40.940000 55.180000 16.020000
2428   1  1 0.0000 40.940000 55.180000 23.140000
2429   1  1 0.0000 40.940000 55.180000 30.260000
2430   1  1 0.0000 40.940000 55.180000 37.380000
2431   1  1 0.0000 40.940000 55.180000 44.500000
2432   1  1 0.0000 40.940000 55.180000 51.620000
2433   1  1 0.0000 48.060000  5.340000  1.780000
2434   1  1 0.0000 48.060000  5.340000  8.900000
2435   1  1 0.0000 48.060000  5.340000 16.020000
2436   1  1 0.0000 48.060000  5.340000 23.140000
2437   1  1 0.0000 48.060000  5.340000 30.260000
2438   1  1 0.0000 48.060000  5.340000 37.380000
2439   1  1 0.0000 48.060000  5.340000 44.500000
2440   1  1 0.0000 48.060000  5.340000 51.620000
2441   1  1 0.0000 48.060000 12.460000  1.780000
2442   1  1 0.0000 48.060000 12.460000  8.900000
2443   1  1 0.0000 48.060000 12.460000 16.020000
2444   1  1 0.0000 48.060000 12.460000 23.140000
2445   1  1 0.0000 48.060000 12.460000 30.260000
2446   1  1 0.0000 48.060000 12.460000 37.380000
2447   1  1 0.0000 48.060000 12.460000 44.500000
2448   1  1 0.0000 48.060000 12.460000 51.620000
2449   1  1 0.0000 48.060000 19.580000  1.780000
2450   1  1 0.0000 48.060000 19.580000  8.900000
2451   1  1 0.0000 48.060000 19.580000 16.020000
2452   1  1 0.0000 48.060000 19.580000 23.140000
2453   1  1 0.0000 48.060000 19.580000 30.260000
2454   1  1 0.0000 48.060000 19.580000 37.380000
2455   1  1 0.0000 48.060000 19.580000 44.500000
2456   1  1 0.0000 48.060000 19.580000 51.620000
2457   1  1 0.0000 48.060000 26.700000  1.780000
2458   1  1 0.0000 48.060000 26.700000  8.900000
2459   1  1 0.0000 48.060000 26.700000 16.020000
2460   1  1 0.0000 48.060000 26.700000 23.140000
2461   1  1 0.0000 48.060000 26.700000 30.260000
2462   1  1 0.0000 48.060000 26.700000 37.380000
2463   1  1 0.0000 48.060000 26.700000 44.500000
2464   1  1 0.0000 48.060000 26.700000 51.620000
2465   1  1 0.0000 48.060000 33.820000  1.780000
2466   1  1 0.0000 48.060000 33.820000  8.900000
2467   1  1 0.0000 48.060000 33.820000 16.020000
2468   1  1 0.0000 48.060000 33.820000 23.140000
2469   1  1 0.0000 48.060000 33.820000 30.260000
2470   1  1 0.0000 48.060000 33.820000 37.380000
2471   1  1 0.0000 48.060000 33.820000 44.500000
2472   1  1 0.0000 48.060000 33.820000 51.620000
2473   1  1 0.0000 48.060000 40.940000  1.780000
2474   1  1 0.0000 48.060000 40.940000  8.900000
2475   1  1 0.0000 48.060000 40.940000 16.020000
2476   1  1 0.0000 48.060000 40.940000 23.140000
2477   1  1 0.0000 48.060000 40.940000 30.260000
2478   1  1 0.0000 48.060000 40.940000 37.380000
2479   1  1 0.0000 48.060000 40.940000 44.500000
2480   1  1 0.0000 48.060000 40.940000 51.620000
2481   1  1 0.0000 48.060000 48.060000  1.780000
2482   1  1 0.0000 48.060000 48.060000  8.900000
2483   1  1 0.0000 48.060000 48.060000 16.020000
2484   1  1 0.0000 48.060000 48.060000 23.140000
2485   1  1 0.0000 48.060000 48.060000 30.260000
2486   1  1 0.0000 48.060000 48.060000 37.380000
2487   1  1 0.0000 48.060000 48.060000 44.500000
2488   1  1 0.0000 48.060000 48.060000 51.620000
2489   1  1 0.0000 48.060000 55.180000  1.780000
2490   1  1 0.0000 48.060000 55.180000  8.900000
2491   1  1 0.0000 48.060000 55.180000 16.020000
2492   1  1 0.0000 48.060000 55.180000 23.140000
2493   1  1 0.0000 48.060000 55.180000 30.260000
2494   1  1 0.0000 48.060000 55.180000 37.380000
2495   1  1 0.0000 48.060000 55.180000 44.500000
2496   1  1 0.0000 48.060000 55.180000 51.620000
2497   1  1 0.0000 55.180000  5.340000  1.780000
2498   1  1 0.0000 55.180000  5.340000  8.900000
2499   1  1 0.0000 55.180000  5.340000 16.020000
2500   1  1 0.0000 55.180000  5.340000 23.140000
2501   1  1 0.0000 55.180000  5.340000 30.260000
2502   1  1 0.0000 55.180000  5.340000 37.380000
2503   1  1 0.0000 55.180000  5.340000 44.500000
2504   1  1 0.0000 55.180000  5.340000 51.620000
2505   1  1 0.0000 55.180000 12.460000  1.780000
2506   1  1 0.0000 55.180000 12.460000  8.900000
2507   1  1 0.0000 55.180000 12.460000 16.020000
2508   1  1 0.0000 55.180000 12.460000 23.140000
2509   1  1 0.0000 55.180000 12.460000 30.260000
2510   1  1 0.0000 55.180000 12.460000 37.380000
2511   1  1 0.0000 55.180000 12.460000 44.500000
2512   1  1 0.0000 55.180000 12.460000 51.620000
2513   1  1 0.0000 55.180000 19.580000  1.780000
2514   1  1 0.0000 55.180000 19.580000  8.900000
2515   1  1 0.0000 55.180000 19.580000 16.020000
2516   1  1 0.0000 55.180000 19.580000 23.140000
2517   1  1 0.0000 55.180000 19.580000 30.260000
2518   1  1 0.0000 55.180000 19.580000 37.380000
2519   1  1 0.0000 55.180000 19.580000 44.500000
2520   1  1 0.0000 55.180000 19.580000 51.620000
2521   1  1 0.0000 55.180000 26.700000  1.780000
2522   1  1 0.0000 55.180000 26.700000  8.900000
2523   1  1 0.0000 55.180000 26.700000 16.020000
2524   1  1 0.0000 55.180000 26.700000 23.140000
2525   1  1 0.0000 55.180000 26.700000 30.260000
2526   1  1 0.0000 55.180000 26.700000 37.380000
2527   1  1 0.0000 55.180000 26.700000 44.500000
2528   1  1 0.0000 55.180000 26.700000 51.620000
2529   1  1 0.0000 55.180000 33.820000  1.780000
2530   1  1 0.0000 55.180000 33.820000  8.900000
2531   1  1 0.0000 55.180000 33.820000 16.020000
2532   1  1 0.0000 55.180000 33.820000 23.140000
2533   1  1 0.0000 55.180000 33.820000 30.260000
2534   1  1 0.0000 55.180000 33.820000 37.380000
2535   1  1 0.0000 55.180000 33.820000 44.500000
2536   1  1 0.0000 55.180000 33.820000 51.620000
2537   1  1 0.0000 55.180000 40.940000  1.780000
2538   1  1 0.0000 55.180000 40.940000  8.900000
2539   1  1 0.0000 55.180000 40.940000 16.020000
2540   1  1 0.0000 55.180000 40.940000 23.140000
2541   1  1 0.0000 55.180000 40.940000 30.260000
2542   1  1 0.0000 55.180000 40.940000 37.380000
2543   1  1 0.0000 55.180000 40.940000 44.500000
2544   1  1 0.0000 55.180000 40.940000 51.620000
2545   1  1 0.0000 55.180000 48.060000  1.780000
2546   1  1 0.0000 55.180000 48.060000  8.900000
2547   1  1 0.0000 55.180000 48.060000 16.020000
2548   1  1 0.0000 55.180000 48.060000 23.140000
2549   1  1 0.0000 55.180000 48.060000 30.260000
2550   1  1 0.0000 55.180000 48.060000 37.380000
2551   1  1 0.0000 55.180000 48.060000 44.500000
2552   1  1 0.0000 55.180000 48.060000 51.620000
2553   1  1 0.0000 55.180000 55.180000  1.780000
2554   1  1 0.0000 55.180000 55.180000  8.900000
2555   1  1 0.0000 55.180000 55.180000 16.020000
2556   1  1 0.0000 55.180000 55.180000 23.140000
2557   1  1 0.0000 55.180000 55.180000 30.260000
2558   1  1 0.0000 55.180000 55.180000 37.380000
2559   1  1 0.0000 55.180000 55.180000 44.500000
2560   1  1 0.0000 55.180000 55.180000 51.620000
2561   1  1 0.0000  0.000000  3.560000  3.560000
2562   1  1 0.0000  0.000000  3.560000 10.680000
2563   1  1 0.0000  0.000000  3.560000 17.800000
2564   1  1 0.0000  0.000000  3.560000 24.920000
2565   1  1 0.0000  0.000000  3.560000 32.040000
2566   1  1 0.0000  0.000000  3.560000 39.160000
2567   1  1 0.0000  0.000000  3.560000 46.280000
2568   1  1 0.0000  0.000000  3.560000 53.400000
2569   1  1 0.0000  0.000000 10.680000  3.560000
2570   1  1 0.0000  0.000000 10.680000 10.680000
2571   1  1 0.0000  0.000000 10.680000 17.800000
2572   1  1 0.0000  0.000000 10.680000 24.920000
2573   1  1 0.0000  0.000000 10.680000 32.040000
2574   1  1 0.0000  0.000000 10.680000 39.160000
2575   1  1 0.0000  0.000000 10.680000 46.280000
2576   1  1 0.0000  0.000000 10.680000 53.400000
2577   1  1 0.0000  0.000000 17.800000  3.560000
2578   1  1 0.0000  0.000000 17.800000 10.680000
2579   1  1 0.0000  0.000000 17.800000 17.800000
2580   1  1 0.0000  0.000000 17.800000 24.920000
2581   1  1 0.0000  0.000000 17.800000 32.040000
2582   1  1 0.0000  0.000000 17.800000 39.160000
2583   1  1 0.0000  0.000000 17.800000 46.280000
2584   1  1 0.0000  0.000000 17.800000 53.400000
2585   1  1 0.0000  0.000000 24.920000  3.560000
2586   1  1 0.0000  0.000000 24.920000 10.680000
2587   1  1 0.0000  0.000000 24.920000 17.800000
2588   1  1 0.0000  0.000000 24.920000 24.920000
2589   1  1 0.0000  0.000000 24.920000 32.040000
2590   1  1 0.0000  0.000000 24.920000 39.160000
2591   1  1 0.0000  0.000000 24.920000 46.280000
2592   1  1 0.0000  0.000000 24.920000 53.400000
2593   1  1 0.0000  0.000000 32.040000  3.560000
2594   1  1 0.0000  0.000000 32.040000 10.680000
2595   1  1 0.0000  0.000000 32.040000 17.800000
2596   1  1 0.0000  0.000000 32.040000 24.920000
2597   1  1 0.0000  0.000000 32.040000 32.040000
2598   1  1 0.0000  0.000000 32.040000 39.160000
2599   1  1 0.0000  0.000000 32.040000 46.280000
2600   1  1 0.0000  0.000000 32.040000 53.400000
2601   1  1 0.0000  0.000000 39.160000  3.560000
2602   1  1 0.0000  0.000000 39.160000 10.680000
2603   1  1 0.0000  0.000000 39.160000 17.800000
2604   1  1 0.0000  0.000000 39.160000 24.920000
2605   1  1 0.0000  0.000000 39.160000 32.040000
2606   1  1 0.0000  0.000000 39.160000 39.160000
2607   1  1 0.0000  0.000000 39.160000 46.280000
2608   1  1 0.0000  0.000000 39.160000 53.400000
2609   1  1 0.0000  0.000000 46.280000  3.560000
2610   1  1 0.0000  0.000000 46.280000 10.680000
2611   1  1 0.0000  0.000000 46.280000 17.800000
2612   1  1 0.0000  0.000000 46.280000 24.920000
2613   1  1 0.0000  0.000000 46.280000 32.040000
2614   1  1 0.0000  0.000000 46.280000 39.160000
2615   1  1 0.0000  0.000000 46.280000 46.280000
2616   1  1 0.0000  0.000000 46.280000 53.400000
2617   1  1 0.0000  0.000000 53.400000  3.560000
2618   1  1 0.0000  0.000000 53.400000 10.680000
2619   1  1 0.0000  0.000000 53.400000 17.800000
2620   1  1 0.0000  0.000000 53.400000 24.920000
2621   1  1 0.0000  0.000000 53.400000 32.040000
2622   1  1 0.0000  0.000000 53.400000 39.160000
2623   1  1 0.0000  0.000000 53.400000 46.280000
2624   1  1 0.0000  0.000000 53.400000 53.400000
2625   1  1 0.0000  7.120000  3.560000  3.560000
2626   1  1 0.0000  7.120000  3.560000 10.680000
2627   1  1 0.0000  7.120000  3.560000 17.800000
2628   1  1 0.0000  7.120000  3.560000 24.920000
2629   1  1 0.0000  7.120000  3.560000 32.040000
2630   1  1 0.0000  7.120000  3.560000 39.160000
2631   1  1 0.0000  7.120000  3.560000 46.280000
2632   1  1 0.0000  7.120000  3.560000 53.400000
2633   1  1 0.0000  7.120000 10.680000  3.560000
2634   1  1 0.0000  7.120000 10.680000 10.680000
2635   1  1 0.0000  7.120000 10.680000 17.800000
2636   1  1 0.0000  7.120000 10.680000 24.920000
2637   1  1 0.0000  7.120000 10.680000 32.040000
2638   1  1 0.0000  7.120000 10.680000 39.160000
2639   1  1 0.0000  7.120000 10.680000 46.280000
2640   1  1 0.0000  7.120000 10.680000 53.400000
2641   1  1 0.0000  7.120000 17.800000  3.560000
2642   1  1 0.0000  7.120000 17.800000 10.680000
2643   1  1 0.0000  7.120000 17.800000 17.800000
2644   1  1 0.0000  7.120000 17.800000 24.920000
2645   1  1 0.0000  7.120000 17.800000 32.040000
2646   1  1 0.0000  7.120000 17.800000 39.160000
2647   1  1 0.0000  7.120000 17.800000 46.280000
2648   1  1 0.0000  7.120000 17.800000 53.400000
2649   1  1 0.0000  7.120000 24.920000  3.560000
2650   1  1 0.0000  7.120000 24.920000 10.680000
2651   1  1 0.0000  7.120000 24.920000 17.800000
2652   1  1 0.0000  7.120000 24.920000 24.920000
2653   1  1 0.0000  7.120000 24.920000 32.040000
2654   1  1 0.0000  7.120000 24.920000 39.160000
2655   1  1 0.0000  7.120000 24.920000 46.280000
2656   1  1 0.0000  7.120000 24.920000 53.400000
2657   1  1 0.0000  7.120000 32.040000  3.560000
2658   1  1 0.0000  7.120000 32.040000 10.680000
2659   1  1 0.0000  7.120000 32.040000 17.800000
2660   1  1 0.0000  7.120000 32.040000 24.920000
2661   1  1 0.0000  7.120000 32.040000 32.040000
2662   1  1 0.0000  7.120000 32.040000 39.160000
2663   1  1 0.0000  7.120000 32.040000 46.280000
2664   1  1 0.0000  7.120000 32.040000 53.400000
2665   1  1 0.0000  7.120000 39.160000  3.560000
2666   1  1 0.0000  7.120000 39.160000 10.680000
2667   1  1 0.0000  7.120000 39.160000 17.800000
2668   1  1 0.0000  7.120000 39.160000 24.920000
2669   1  1 0.0000  7.120000 39.160000 32.040000
2670   1  1 0.0000  7.120000 39.160000 39.160000
2671   1  1 0.0000  7.120000 39.160000 46.280000
2672   1  1 0.0000  7.120000 39.160000 53.400000
2673   1  1 0.0000  7.120000 46.280000  3.560000
2674   1  1 0.0000  7.120000 46.280000 10.680000
2675   1  1 0.0000  7.120000 46.280000 17.800000
2676   1  1 0.0000  7.120000 46.280000 24.920000
2677   1  1 0.0000  7.120000 46.280000 32.040000
2678   1  1 0.0000  7.120000 46.280000 39.160000
2679   1  1 0.0000  7.120000 46.280000 46.280000
2680   1  1 0.0000  7.120000 46.280000 53.400000
2681   1  1 0.0000  7.120000 53.400000  3.560000
2682   1  1 0.0000  7.120000 53.400000 10.680000
2683   1  1 0.0000  7.120000 53.400000 17.800000
2684   1  1 0.0000  7.120000 53.400000 24.920000
2685   1  1 0.0000  7.120000 53.400000 32.040000
2686   1  1 0.0000  7.120000 53.400000 39.160000
2687   1  1 0.0000  7.120000 53.400000 46.280000
2688   1  1 0.0000  7.120000 53.400000 53.400000
2689   1  1 0.0000 14.240000  3.560000  3.560000
2690   1  1 0.0000 14.240000  3.560000 10.680000
2691   1  1 0.0000 14.240000  3.560000 17.800000
2692   1  1 0.0000 14.240000  3.560000 24.920000
2693   1  1 0.0000 14.240000  3.560000 32.040000
2694   1  1 0.0000 14.240000  3.560000 39.160000
2695   1  1 0.0000 14.240000  3.560000 46.280000
2696   1  1 0.0000 14.240000  3.560000 53.400000
2697   1  1 0.0000 14.240000 10.680000  3.560000
2698   1  1 0.0000 14.240000 10.680000 10.680000
2699   1  1 0.0000 14.240000 10.680000 17.800000
2700   1  1 0.0000 14.240000 10.680000 24.920000
2701   1  1 0.0000 14.240000 10.680000 32.040000
2702   1  1 0.0000 14.240000 10.680000 39.160000
2703   1  1 0.0000 14.240000 10.680000 46.280000
2704   1  1 0.0000 14.240000 10.680000 53.400000
2705   1  1 0.0000 14.240000 17.800000  3.560000
2706   1  1 0.0000 14.240000 17.800000 10.680000
2707   1  1 0.0000 14.240000 17.800000 17.800000
2708   1  1 0.0000 14.240000 17.800000 24.920000
2709   1  1 0.0000 14.240000 17.800000 32.040000
2710   1  1 0.0000 14.240000 17.800000 39.160000
2711   1  1 0.0000 14.240000 17.800000 46.280000
2712   1  1 0.0000 14.240000 17.800000 53.400000
2713   1  1 0.0000 14.240000 24.920000  3.560000
2714   1  1 0.0000 14.240000 24.920000 10.680000
2715   1  1 0.0000 14.240000 24.920000 17.800000
2716   1  1 0.0000 14.240000 24.920000 24.920000
2717   1  1 0.0000 14.240000 24.920000 32.040000
2718   1  1 0.0000 14.240000 24.920000 39.160000
2719   1  1 0.0000 14.240000 24.920000 46.280000
2720   1  1 0.0000 14.240000 24.920000 53.400000
2721   1  1 0.0000 14.240000 32.040000  3.560000
2722   1  1 0.0000 14.240000 32.040000 10.680000
2723   1  1 0.0000 14.240000 32.040000 17.800000
2724   1  1 0.0000 14.240000 32.040000 24.920000
2725   1  1 0.0000 14.240000 32.040000 32.040000
2726   1  1 0.0000 14.240000 32.040000 39.160000
2727   1  1 0.0000 14.240000 32.040000 46.280000
2728   1  1 0.0000 14.240000 32.040000 53.400000
2729   1  1 0.0000 14.240000 39.160000  3.560000
2730   1  1 0.0000 14.240000 39.160000 10.680000
2731   1  1 0.0000 14.240000 39.160000 17.800000
2732   1  1 0.0000 14.240000 39.160000 24.920000
2733   1  1 0.0000 14.240000 39.160000 32.040000
2734   1  1 0.0000 14.240000 39.160000 39.160000
2735   1  1 0.0000 14.240000 39.160000 46.280000
2736   1  1 0.0000 14.240000 39.160000 53.400000
2737   1  1 0.0000 14.240000 46.280000  3.560000
2738   1  1 0.0000 14.240000 46.280000 10.680000
2739   1  1 0.0000 14.240000 46.280000 17.800000
2740   1  1 0.0000 14.240000 46.280000 24.920000
2741   1  1 0.0000 14.240000 46.280000 32.040000
2742   1  1 0.0000 14.240000 46.280000 39.160000
2743   1  1 0.0000 14.240000 46.280000 46.280000
2744   1  1 0.0000 14.240000 46.280000 53.400000
2745   1  1 0.0000 14.240000 53.400000  3.560000
2746   1  1 0.0000 14.240000 53.400000 10.680000
2747   1  1 0.0000 14.240000 53.400000 17.800000
2748   1  1 0.0000 14.240000 53.400000 24.920000
2749   1  1 0.0000 14.240000 53.400000 32.040000
2750   1  1 0.0000 14.240000 53.400000 39.160000
2751   1  1 0.0000 14.240000 53.400000 46.280000
2752   1  1 0.0000 14.240000 53.400000 53.400000
2753   1  1 0.0000 21.360000  3.560000  3.560000
2754   1  1 0.0000 21.360000  3.560000 10.680000
2755   1  1 0.0000 21.360000  3.560000 17.800000
2756   1  1 0.0000 21.360000  3.560000 24.920000
2757   1  1 0.0000 21.360000  3.560000 32.040000
2758   1  1 0.0000 21.360000  3.560000 39.160000
2759   1  1 0.0000 21.360000  3.560000 46.280000
2760   1  1 0.0000 21.360000  3.560000 53.400000
2761   1  1 0.0000 21.360000 10.680000  3.560000
2762   1  1 0.0000 21.360000 10.680000 10.680000
2763   1  1 0.0000 21.360000 10.680000 17.800000
2764   1  1 0.0000 21.360000 10.680000 24.920000
2765   1  1 0.0000 21.360000 10.680000 32.040000
2766   1  1 0.0000 21.360000 10.680000 39.160000
2767   1  1 0.0000 21.360000 10.680000 46.280000
2768   1  1 0.0000 21.360000 10.680000 53.400000
2769   1  1 0.0000 21.360000 17.800000  3.560000
2770   1  1 0.0000 21.360000 17.800000 10.680000
2771   1  1 0.0000 21.360000 17.800000 17.800000
2772   1  1 0.0000 21.360000 17.800000 24.920000
2773   1  1 0.0000 21.360000 17.800000 32.040000
2774   1  1 0.0000 21.360000 17.800000 39.160000
2775   1  1 0.0000 21.360000 17.800000 46.280000
2776   1  1 0.0000 21.360000 17.800000 53.400000
2777   1  1 0.0000 21.360000 24.920000  3.560000
2778   1  1 0.0000 21.360000 24.920000 10.680000
2779   1  1 0.0000 21.360000 24.920000 17.800000
2780   1  1 0.0000 21.360000 24.920000 24.920000
2781   1  1 0.0000 21.360000 24.920000 32.040000
2782   1  1 0.0000 21.360000 24.920000 39.160000
2783   1  1 0.0000 21.360000 24.920000 46.280000
2784   1  1 0.0000 21.360000 24.920000 53.400000
2785   1  1 0.0000 21.360000 32.040000  3.560000
2786   1  1 0.0000 21.360000 32.040000 10.680000
2787   1  1 0.0000 21.360000 32.040000 17.800000
2788   1  1 0.0000 21.360000 32.040000 24.920000
2789   1  1 0.0000 21.360000 32.040000 32.040000
2790   1  1 0.0000 21.360000 32.040000 39.160000
2791   1  1 0.0000 21.360000 32.040000 46.280000
2792   1  1 0.0000 21.360000 32.040000 53.400000
2793   1  1 0.0000 21.360000 39.160000  3.560000
2794   1  1 0.0000 21.360000 39.160000 10.680000
2795   1  1 0.0000 21.360000 39.160000 17.800000
2796   1  1 0.0000 21.360000 39.160000 24.920000
2797   1  1 0.0000 21.360000 39.160000 32.040000
2798   1  1 0.0000 21.360000 39.160000 39.160000
2799   1  1 0.0000 21.360000 39.160000 46.280000
2800   1  1 0.0000 21.360000 39.160000 53.400000
2801   1  1 0.0000 21.360000 46.280000  3.560000
2802   1  1 0.0000 21.360000 46.280000 10.680000
2803   1  1 0.0000 21.360000 46.280000 17.800000
2804   1  1 0.0000 21.360000 46.280000 24.920000
2805   1  1 0.0000 21.360000 46.280000 32.040000
2806   1  1 0.0000 21.360000 46.280000 39.160000
2807   1  1 0.0000 21.360000 46.280000 46.280000
2808   1  1 0.0000 21.360000 46.280000 53.400000
2809   1  1 0.0000 21.360000 53.400000  3.560000
2810   1  1 0.0000 21.360000 53.400000 10.680000
2811   1  1 0.0000 21.360000 53.400000 17.800000
2812   1  1 0.0000 21.360000 53.400000 24.920000
2813   1  1 0.0000 21.360000 53.400000 32.040000
2814   1  1 0.0000 21.360000 53.400000 39.160000
2815   1  1 0.0000 21.360000 53.400000 46.280000
2816   1  1 0.0000 21.360000 53.400000 53.400000
2817   1  1 0.0000 28.480000  3.560000  3.560000
2818   1  1 0.0000 28.480000  3.560000 10.680000
2819   1  1 0.0000 28.480000  3.560000 17.800000
2820   1  1 0.0000 28.480000  3.560000 24.920000
2821   1  1 0.0000 28.480000  3.560000 32.040000
2822   1  1 0.0000 28.480000  3.560000 39.160000
2823   1  1 0.0000 28.480000  3.560000 46.280000
2824   1  1 0.0000 28.480000  3.560000 53.400000
2825   1  1 0.0000 28.480000 10.680000  3.560000
2826   1  1 0.0000 28.480000 10.680000 10.680000
2827   1  1 0.0000 28.480000 10.680000 17.800000
2828   1  1 0.0000 28.480000 10.680000 24.920000
2829   1  1 0.0000 28.480000 10.680000 32.040000
2830   1  1 0.0000 28.480000 10.680000 39.160000
2831   1  1 0.0000 28.480000 10.680000 46.280000
2832   1  1 0.0000 28.480000 10.680000 53.400000
2833   1  1 0.0000 28.480000 17.800000  3.560000
2834   1  1 0.0000 28.480000 17.800000 10.680000
2835   1  1 0.0000 28.480000 17.800000 17.800000
2836   1  1 0.0000 28.480000 17.800000 24.920000
2837   1  1 0.0000 28.480000 17.800000 32.040000
2838   1  1 0.0000 28.480000 17.800000 39.160000
2839   1  1 0.0000 28.480000 17.800000 46.280000
2840   1  1 0.0000 28.480000 17.800000 53.400000
2841   1  1 0.0000 28.480000 24.920000  3.560000
2842   1  1 0.0000 28.480000 24.920000 10.680000
2843   1  1 0.0000 28.480000 24.920000 17.800000
2844   1  1 0.0000 28.480000 24.920000 24.920000
2845   1  1 0.0000 28.480000 24.920000 32.040000
2846   1  1 0.0000 28.480000 24.920000 39.160000
2847   1  1 0.0000 28.480000 24.920000 46.280000
2848   1  1 0.0000 28.480000 24.920000 53.400000
2849   1  1 0.0000 28.480000 32.040000  3.560000
2850   1  1 0.0000 28.480000 32.040000 10.680000
2851   1  1 0.0000 28.480000 32.040000 17.800000
2852   1  1 0.0000 28.480000 32.040000 24.920000
2853   1  1 0.0000 28.480000 32.040000 32.040000
2854   1  1 0.0000 28.480000 32.040000 39.160000
2855   1  1 0.0000 28.480000 32.040000 46.280000
2856   1  1 0.0000 28.480000 32.040000 53.400000
2857   1  1 0.0000 28.480000 39.160000  3.560000
2858   1  1 0.0000 28.480000 39.160000 10.680000
2859   1  1 0.0000 28.480000 39.160000 17.800000
2860   1  1 0.0000 28.480000 39.160000 24.920000
2861   1  1 0.0000 28.480000 39.160000 32.040000
2862   1  1 0.0000 28.480000 39.160000 39.160000
2863   1  1 0.0000 28.480000 39.160000 46.280000
2864   1  1 0.0000 28.480000 39.160000 53.400000
2865   1  1 0.0000 28.480000 46.280000  3.560000
2866   1  1 0.0000 28.480000 46.280000 10.680000
2867   1  1 0.0000 28.480000 46.280000 17.800000
2868   1  1 0.0000 28.480000 46.280000 24.920000
2869   1  1 0.0000 28.480000 46.280000 32.040000
2870   1  1 0.0000 28.480000 46.280000 39.160000
2871   1  1 0.0000 28.480000 46.280000 46.280000
2872   1  1 0.0000 28.480000 46.280000 53.400000
2873   1  1 0.0000 28.480000 53.400000  3.560000
2874   1  1 0.0000 28.480000 53.400000 10.680000
2875   1  1 0.0000 28.480000 53.400000 17.800000
2876   1  1 0.0000 28.480000 53.400000 24.920000
2877   1  1 0.0000 28.480000 53.400000 32.040000
2878   1  1 0.0000 28.480000 53.400000 39.160000
2879   1  1 0.0000 28.480000 53.400000 46.280000
2880   1  1 0.0000 28.480000 53.400000 53.400000
2881   1  1 0.0000 35.600000  3.560000  3.560000
2882   1  1 0.0000 35.600000  3.560000 10.680000
2883   1  1 0.0000 35.600000  3.560000 17.800000
2884   1  1 0.0000 35.600000  3.560000 24.920000
2885   1  1 0.0000 35.600000  3.560000 32.040000
2886   1  1 0.0000 35.600000  3.560000 39.160000
2887   1  1 0.0000 35.600000  3.560000 46.280000
2888   1  1 0.0000 35.600000  3.560000 53.400000
2889   1  1 0.0000 35.600000 10.680000  3.560000
2890   1  1 0.0000 35.600000 10.680000 10.680000
2891   1  1 0.0000 35.600000 10.680000 17.800000
2892   1  1 0.0000 35.600000 10.680000 24.920000
2893   1  1 0.0000 35.600000 10.680000 32.040000
2894   1  1 0.0000 35.600000 10.680000 39.160000
2895   1  1 0.0000 35.600000 10.680000 46.280000
2896   1  1 0.0000 35.600000 10.680000 53.400000
2897   1  1 0.0000 35.600000 17.800000  3.560000
2898   1  1 0.0000 35.600000 17.800000 10.680000
2899   1  1 0.0000 35.600000 17.800000 17.800000
2900   1  1 0.0000 35.600000 17.800000 24.920000
2901   1  1 0.0000 35.600000 17.800000 32.040000
2902   1  1 0.0000 35.600000 17.800000 39.160000
2903   1  1 0.0000 35.600000 17.800000 46.280000
2904   1  1 0.0000 35.600000 17.800000 53.400000
2905   1  1 0.0000 35.600000 24.920000  3.560000
2906   1  1 0.0000 35.600000 24.920000 10.680000
2907   1  1 0.0000 35.600000 24.920000 17.800000
2908   1  1 0.0000 35.600000 24.920000 24.920000
2909   1  1 0.0000 35.600000 24.920000 32.040000
2910   1  1 0.0000 35.600000 24.920000 39.160000
2911   1  1 0.0000 35.600000 24.920000 46.280000
2912   1  1 0.0000 35.600000 24.920000 53.400000
2913   1  1 0.0000 35.600000 32.040000  3.560000
2914   1  1 0.0000 35.600000 32.040000 10.680000
2915   1  1 0.0000 35.600000 32.040000 17.800000
2916   1  1 0.0000 35.600000 32.040000 24.920000
2917   1  1 0.0000 35.600000 32.040000 32.040000
2918   1  1 0.0000 35.600000 32.040000 39.160000
2919   1  1 0.0000 35.600000 32.040000 46.280000
2920   1  1 0.0000 35.600000 32.040000 53.400000
2921   1  1 0.0000 35.600000 39.160000  3.560000
2922   1  1 0.0000 35.600000 39.160000 10.680000
2923   1  1 0.0000 35.600000 39.160000 17.800000
2924   1  1 0.0000 35.600000 39.160000 24.920000
2925   1  1 0.0000 35.600000 39.160000 32.040000
2926   1  1 0.0000 35.600000 39.160000 39.160000
2927   1  1 0.0000 35.600000 39.160000 46.280000
2928   1  1 0.0000 35.600000 39.160000 53.400000
2929   1  1 0.0000 35.600000 46.280000  3.560000
2930   1  1 0.0000 35.600000 46.280000 10.680000
2931   1  1 0.0000 35.600000 46.280000 17.800000
2932   1  1 0.0000 35.600000 46.280000 24.920000
2933   1  1 0.0000 35.600000 46.280000 32.040000
2934   1  1 0.0000 35.600000 46.280000 39.160000
2935   1  1 0.0000 35.600000 46.280000 46.280000
2936   1  1 0.0000 35.600000 46.280000 53.400000
2937   1  1 0.0000 35.600000 53.400000  3.560000
2938   1  1 0.0000 35.600000 53.400000 10.680000
2939   1  1 0.0000 35.600000 53.400000 17.800000
2940   1  1 0.0000 35.600000 53.400000 24.920000
2941   1  1 0.0000 35.600000 53.400000 32.040000
2942   1  1 0.0000 35.600000 53.400000 39.160000
2943   1  1 0.0000 35.600000 53.400000 46.280000
2944   1  1 0.0000 35.600000 53.400000 53.400000
2945   1  1 0.0000 42.720000  3.560000  3.560000
2946   1  1 0.0000 42.720000  3.560000 10.680000
2947   1  1 0.0000 42.720000  3.560000 17.800000
2948   1  1 0.0000 42.720000  3.560000 24.920000
2949   1  1 0.0000 42.720000  3.560000 32.040000
2950   1  1 0.0000 42.720000  3.560000 39.160000
2951   1  1 0.0000 42.720000  3.560000 46.280000
2952   1  1 0.0000 42.720000  3.560000 53.400000
2953   1  1 0.0000 42.720000 10.680000  3.560000
2954   1  1 0.0000 42.720000 10.680000 10.680000
2955   1  1 0.0000 42.720000 10.680000 17.800000
2956   1  1 0.0000 42.720000 10.680000 24.920000
2957   1  1 0.0000 42.720000 10.680000 32.040000
2958   1  1 0.0000 42.720000 10.680000 39.160000
2959   1  1 0.0000 42.720000 10.680000 46.280000
2960   1  1 0.0000 42.720000 10.680000 53.400000
2961   1  1 0.0000 42.720000 17.800000  3.560000
2962   1  1 0.0000 42.720000 17.800000 10.680000
2963   1  1 0.0000 42.720000 17.800000 17.800000
2964   1  1 0.0000 42.720000 17.800000 24.920000
2965   1  1 0.0000 42.720000 17.800000 32.040000
2966   1  1 0.0000 42.720000 17.800000 39.160000
2967   1  1 0.0000 42.720000 17.800000 46.280000
2968   1  1 0.0000 42.720000 17.800000 53.400000
2969   1  1 0.0000 42.720000 24.920000  3.560000
2970   1  1 0.0000 42.720000 24.920000 10.680000
2971   1  1 0.0000 42.720000 24.920000 17.800000
2972   1  1 0.0000 42.720000 24.920000 24.920000
2973   1  1 0.0000 42.720000 24.920000 32.040000
2974   1  1 0.0000 42.720000 24.920000 39.160000
2975   1  1 0.0000 42.720000 24.920000 46.280000
2976   1  1 0.0000 42.720000 24.920000 53.400000
2977   1  1 0.0000 42.720000 32.040000  3.560000
2978   1  1 0.0000 42.720000 32.040000 10.680000
2979   1  1 0.0000 42.720000 32.040000 17.800000
2980   1  1 0.0000 42.720000 32.040000 24.920000
2981   1  1 0.0000 42.720000 32.040000 32.040000
2982   1  1 0.0000 42.720000 32.040000 39.160000
2983   1  1 0.0000 42.720000 32.040000 46.280000
2984   1  1 0.0000 42.720000 32.040000 53.400000
2985   1  1 0.0000 42.720000 39.160000  3.560000
2986   1  1 0.0000 42.720000 39.160000 10.680000
2987   1  1 0.0000 42.720000 39.160000 17.800000
2988   1  1 0.0000 42.720000 39.160000 24.920000
2989   1  1 0.0000 42.720000 39.160000 32.040000
2990   1  1 0.0000 42.720000 39.160000 39.160000
2991   1  1 0.0000 42.720000 39.160000 46.280000
2992   1  1 0.0000 42.720000 39.160000 53.400000
2993   1  1 0.0000 42.720000 46.280000  3.560000
2994   1  1 0.0000 42.720000 46.280000 10.680000
2995   1  1 0.0000 42.720000 46.280000 17.800000
2996   1  1 0.0000 42.720000 46.280000 24.920000
2997   1  1 0.0000 42.720000 46.280000 32.040000
2998   1  1 0.0000 42.720000 46.280000 39.160000
2999   1  1 0.0000 42.720000 46.280000 46.280000
3000   1  1 0.0000 42.720000 46.280000 53.400000
3001   1  1 0.0000 42.720000 53.400000  3.560000
3002   1  1 0.0000 42.720000 53.400000 10.680000
3003   1  1 0.0000 42.720000 53.400000 17.800000
3004   1  1 0.0000 42.720000 53.400000 24.920000
3005   1  1 0.0000 42.720000 53.400000 32.040000
3006   1  1 0.0000 42.720000 53.400000 39.160000
3007   1  1 0.0000 42.720000 53.400000 46.280000
3008   1  1 0.0000 42.720000 53.400000 53.400000
3009   1  1 0.0000 49.840000  3.560000  3.560000
3010   1  1 0.0000 49.840000  3.560000 10.680000
3011   1  1 0.0000 49.840000  3.560000 17.800000
3012   1  1 0.0000 49.840000  3.560000 24.920000
3013   1  1 0.0000 49.840000  3.560000 32.040000
3014   1  1 0.0000 49.840000  3.560000 39.160000
3015   1  1 0.0000 49.840000  3.560000 46.280000
3016   1  1 0.0000 49.840000  3.560000 53.400000
3017   1  1 0.0000 49.840000 10.680000  3.560000
3018   1  1 0.0000 49.840000 10.680000 10.680000
3019   1  1 0.0000 49.840000 10.680000 17.800000
3020   1  1 0.0000 49.840000 10.680000 24.920000
3021   1  1 0.0000 49.840000 10.680000 32.040000
3022   1  1 0.0000 49.840000 10.680000 39.160000
3023   1  1 0.0000 49.840000 10.680000 46.280000
3024   1  1 0.0000 49.840000 10.680000 53.400000
3025   1  1 0.0000 49.840000 17.800000  3.560000
3026   1  1 0.0000 49.840000 17.800000 10.680000
3027   1  1 0.0000 49.840000 17.800000 17.800000
3028   1  1 0.0000 49.840000 17.800000 24.920000
3029   1  1 0.0000 49.840000 17.800000 32.040000
3030   1  1 0.0000 49.840000 17.800000 39.160000
3031   1  1 0.0000 49.840000 17.800000 46.280000
3032   1  1 0.0000 49.840000 17.800000 53.400000
3033   1  1 0.0000 49.840000 24.920000  3.560000
3034   1  1 0.0000 49.840000 24.920000 10.680000
3035   1  1 0.0000 49.840000 24.920000 17.800000
3036   1  1 0.0000 49.840000 24.920000 24.920000
3037   1  1 0.0000 49.840000 24.920000 32.040000
3038   1  1 0.0000 49.840000 24.920000 39.160000
3039   1  1 0.0000 49.840000 24.920000 46.280000
3040   1  1 0.0000 49.840000 24.920000 53.400000
3041   1  1 0.0000 49.840000 32.040000  3.560000
3042   1  1 0.0000 49.840000 32.040000 10.680000
3043   1  1 0.0000 49.840000 32.040000 17.800000
3044   1  1 0.0000 49.840000 32.040000 24.920000
3045   1  1 0.0000 49.840000 32.040000 32.040000
3046   1  1 0.0000 49.840000 32.040000 39.160000
3047   1  1 0.0000 49.840000 32.040000 46.280000
3048   1  1 0.0000 49.840000 32.040000 53.400000
3049   1  1 0.0000 49.840000 39.160000  3.560000
3050   1  1 0.0000 49.840000 39.160000 10.680000
3051   1  1 0.0000 49.840000 39.160000 17.800000
3052   1  1 0.0000 49.840000 39.160000 24.920000
3053   1  1 0.0000 49.840000 39.160000 32.040000
3054   1  1 0.0000 49.840000 39.160000 39.160000
3055   1  1 0.0000 49.840000 39.160000 46.280000
3056   1  1 0.0000 49.840000 39.160000 53.400000
3057   1  1 0.0000 49.840000 46.280000  3.560000
3058   1  1 0.0000 49.840000 46.280000 10.680000
3059   1  1 0.0000 49.840000 46.280000 17.800000
3060   1  1 0.0000 49.840000 46.280000 24.920000
3061   1  1 0.0000 49.840000 46.280000 32.040000
3062   1  1 0.0000 49.840000 46.280000 39.160000
3063   1  1 0.0000 49.840000 46.280000 46.280000
3064   1  1 0.0000 49.840000 46.280000 53.400000
3065   1  1 0.0000 49.840000 53.400000  3.560000
3066   1  1 0.0000 49.840000 53.400000 10.680000
3067   1  1 0.0000 49.840000 53.400000 17.800000
3068   1  1 0.0000 49.840000 53.400000 24.920000
3069   1  1 0.0000 49.840000 53.400000 32.040000
3070   1  1 0.0000 49.840000 53.400000 39.160000
3071   1  1 0.0000 49.840000 53.400000 46.280000
3072   1  1 0.0000 49.840000 53.400000 53.400000
3073   1  1 0.0000  3.560000  0.000000  3.560000
3074   1  1 0.0000  3.560000  0.000000 10.680000
3075   1  1 0.0000  3.560000  0.000000 17.800000
3076   1  1 0.0000  3.560000  0.000000 24.920000
3077   1  1 0.0000  3.560000  0.000000 32.040000
3078   1  1 0.0000  3.560000  0.000000 39.160000
3079   1  1 0.0000  3.560000  0.000000 46.280000
3080   1  1 0.0000  3.560000  0.000000 53.400000
3081   1  1 0.0000  3.560000  7.120000  3.560000
3082   1  1 0.0000  3.560000  7.120000 10.680000
3083   1  1 0.0000  3.560000  7.120000 17.800000
3084   1  1 0.0000  3.560000  7.120000 24.920000
3085   1  1 0.0000  3.560000  7.120000 32.040000
3086   1  1 0.0000  3.560000  7.120000 39.160000
3087   1  1 0.0000  3.560000  7.120000 46.280000
3088   1  1 0.0000  3.560000  7.120000 53.400000
3089   1  1 0.0000  3.560000 14.240000  3.560000
3090   1  1 0.0000  3.560000 14.240000 10.680000
3091   1  1 0.0000  3.560000 14.240000 17.800000
3092   1  1 0.0000  3.560000 14.240000 24.920000
3093   1  1 0.0000  3.560000 14.240000 32.040000
3094   1  1 0.0000  3.560000 14.240000 39.160000
3095   1  1 0.0000  3.560000 14.240000 46.280000
3096   1  1 0.0000  3.560000 14.240000 53.400000
3097   1  1 0.0000  3.560000 21.360000  3.560000
3098   1  1 0.0000  3.560000 21.360000 10.680000
3099   1  1 0.0000  3.560000 21.360000 17.800000
3100   1  1 0.0000  3.560000 21.360000 24.920000
3101   1  1 0.0000  3.560000 21.360000 32.040000
3102   1  1 0.0000  3.560000 21.360000 39.160000
3103   1  1 0.0000  3.560000 21.360000 46.280000
3104   1  1 0.0000  3.560000 21.360000 53.400000
3105   1  1 0.0000  3.560000 28.480000  3.560000
3106   1  1 0.0000  3.560000 28.480000 10.680000
3107   1  1 0.0000  3.560000 28.480000 17.800000
3108   1  1 0.0000  3.560000 28.480000 24.920000
3109   1  1 0.0000  3.560000 28.480000 32.040000
3110   1  1 0.0000  3.560000 28.480000 39.160000
3111   1  1 0.0000  3.560000 28.480000 46.280000
3112   1  1 0.0000  3.560000 28.480000 53.400000
3113   1  1 0.0000  3.560000 35.600000  3.560000
3114   1  1 0.0000  3.560000 35.600000 10.680000
3115   1  1 0.0000  3.560000 35.600000 17.800000
3116   1  1 0.0000  3.560000 35.600000 24.920000
3117   1  1 0.0000  3.560000 35.600000 32.040000
3118   1  1 0.0000  3.560000 35.600000 39.160000
3119   1  1 0.0000  3.560000 35.600000 46.280000
3120   1  1 0.0000  3.560000 35.600000 53.400000
3121   1  1 0.0000  3.560000 42.720000  3.560000
3122   1  1 0.0000  3.560000 42.720000 10.680000
3123   1  1 0.0000  3.560000 42.720000 17.800000
3124   1  1 0.0000  3.560000 42.720000 24.920000
3125   1  1 0.0000  3.560000 42.720000 32.040000
3126   1  1 0.0000  3.560000 42.720000 39.160000
3127   1  1 0.0000  3.560000 42.720000 46.280000
3128   1  1 0.0000  3.560000 42.720000 53.400000
3129   1  1 0.0000  3.560000 49.840000  3.560000
3130   1  1 0.0000  3.560000 49.840000 10.680000
3131   1  1 0.0000  3.560000 49.840000 17.800000
3132   1  1 0.0000  3.560000 49.840000 24.920000
3133   1  1 0.0000  3.560000 49.840000 32.040000
3134   1  1 0.0000  3.560000 49.840000 39.160000
3135   1  1 0.0000  3.560000 49.840000 46.280000
3136   1  1 0.0000  3.560000 49.840000 53.400000
3137   1  1 0.0000 10.680000  0.000000  3.560000
3138   1  1 0.0000 10.680000  0.000000 10.680000
3139   1  1 0.0000 10.680000  0.000000 17.800000
3140   1  1 0.0000 10.680000  0.000000 24.920000
3141   1  1 0.0000 10.680000  0.000000 32.040000
3142   1  1 0.0000 10.680000  0.000000 39.160000
3143   1  1 0.0000 10.680000  0.000000 46.280000
3144   1  1 0.0000 10.680000  0.000000 53.400000
3145   1  1 0.0000 10.680000  7.120000  3.560000
3146   1  1 0.0000 10.680000  7.120000 10.680000
3147   1  1 0.0000 10.680000  7.120000 17.800000
3148   1  1 0.0000 10.680000  7.120000 24.920000
3149   1  1 0.0000 10.680000  7.120000 32.040000
3150   1  1 0.0000 10.680000  7.120000 39.160000
3151   1  1 0.0000 10.680000  7.120000 46.280000
3152   1  1 0.0000 10.680000  7.120000 53.400000
3153   1  1 0.0000 10.680000 14.240000  3.560000
3154   1  1 0.0000 10.680000 14.240000 10.680000
3155   1  1 0.0000 10.680000 14.240000 17.800000
3156   1  1 0.0000 10.680000 14.240000 24.920000
3157   1  1 0.0000 10.680000 14.240000 32.040000
3158   1  1 0.0000 10.680000 14.240000 39.160000
3159   1  1 0.0000 10.680000 14.240000 46.280000
3160   1  1 0.0000 10.680000 14.240000 53.400000
3161   1  1 0.0000 10.680000 21.360000  3.560000
3162   1  1 0.0000 10.680000 21.360000 10.680000
3163   1  1 0.0000 10.680000 21.360000 17.800000
3164   1  1 0.0000 10.680000 21.360000 24.920000
3165   1  1 0.0000 10.680000 21.360000 32.040000
3166   1  1 0.0000 10.680000 21.360000 39.160000
3167   1  1 0.0000 10.680000 21.360000 46.280000
3168   1  1 0.0000 10.680000 21.360000 53.400000
3169   1  1 0.0000 10.680000 28.480000  3.560000
3170   1  1 0.0000 10.680000 28.480000 10.680000
3171   1  1 0.0000 10.680000 28.480000 17.800000
3172   1  1 0.0000 10.680000 28.480000 24.920000
3173   1  1 0.0000 10.680000 28.480000 32.040000
3174   1  1 0.0000 10.680000 28.480000 39.160000
3175   1  1 0.0000 10.680000 28.480000 46.280000
3176   1  1 0.0000 10.680000 28.480000 53.400000
3177   1  1 0.0000 10.680000 35.600000  3.560000
3178   1  1 0.0000 10.680000 35.600000 10.680000
3179   1  1 0.0000 10.680000 35.600000 17.800000
3180   1  1 0.0000 10.680000 35.600000 24.920000
3181   1  1 0.0000 10.680000 35.600000 32.040000
3182   1  1 0.0000 10.680000 35.600000 39.160000
3183   1  1 0.0000 10.680000 35.600000 46.280000
3184   1  1 0.0000 10.680000 35.600000 53.400000
3185   1  1 0.0000 10.680000 42.720000  3.560000
3186   1  1 0.0000 10.680000 42.720000 10.680000
3187   1  1 0.0000 10.680000 42.720000 17.800000
3188   1  1 0.0000 10.680000 42.720000 24.920000
3189   1  1 0.0000 10.680000 42.720000 32.040000
3190   1  1 0.0000 10.680000 42.720000 39.160000
3191   1  1 0.0000 10.680000 42.720000 46.280000
3192   1  1 0.0000 10.680000 42.720000 53.400000
3193   1  1 0.0000 10.680000 49.840000  3.560000
3194   1  1 0.0000 10.680000 49.840000 10.680000
3195   1  1 0.0000 10.680000 49.840000 17.800000
3196   1  1 0.0000 10.680000 49.840000 24.920000
3197   1  1 0.0000 10.680000 49.840000 32.040000
3198   1  1 0.0000 10.680000 49.840000 39.160000
3199   1  1 0.0000 10.680000 49.840000 46.280000
3200   1  1 0.0000 10.680000 49.840000 53.400000
3201   1  1 0.0000 17.800000  0.000000  3.560000
3202   1  1 0.0000 17.800000  0.000000 10.680000
3203   1  1 0.0000 17.800000  0.000000 17.800000
3204   1  1 0.0000 17.800000  0.000000 24.920000
3205   1  1 0.0000 17.800000  0.000000 32.040000
3206   1  1 0.0000 17.800000  0.000000 39.160000
3207   1  1 0.0000 17.800000  0.000000 46.280000
3208   1  1 0.0000 17.800000  0.000000 53.400000
3209   1  1 0.0000 17.800000  7.120000  3.560000
3210   1  1 0.0000 17.800000  7.120000 10.680000
3211   1  1 0.0000 17.800000  7.120000 17.800000
3212   1  1 0.0000 17.800000  7.120000 24.920000
3213   1  1 0.0000 17.800000  7.120000 32.040000
3214   1  1 0.0000 17.800000  7.120000 39.160000
3215   1  1 0.0000 17.800000  7.120000 46.280000
3216   1  1 0.0000 17.800000  7.120000 53.400000
3217   1  1 0.0000 17.800000 14.240000  3.560000
3218   1  1 0.0000 17.800000 14.240000 10.680000
3219   1  1 0.0000 17.800000 14.240000 17.800000
3220   1  1 0.0000 17.800000 14.240000 24.920000
3221   1  1 0.0000 17.800000 14.240000 32.040000
3222   1  1 0.0000 17.800000 14.240000 39.160000
3223   1  1 0.0000 17.800000 14.240000 46.280000
3224   1  1 0.0000 17.800000 14.240000 53.400000
3225   1  1 0.0000 17.800000 21.360000  3.560000
3226   1  1 0.0000 17.800000 21.360000 10.680000
3227   1  1 0.0000 17.800000 21.360000 17.800000
3228   1  1 0.0000 17.800000 21.360000 24.920000
3229   1  1 0.0000 17.800000 21.360000 32.040000
3230   1  1 0.0000 17.800000 21.360000 39.160000
3231   1  1 0.0000 17.800000 21.360000 46.280000
3232   1  1 0.0000 17.800000 21.360000 53.400000
3233   1  1 0.0000 17.800000 28.480000  3.560000
3234   1  1 0.0000 17.800000 28.480000 10.680000
3235   1  1 0.0000 17.800000 28.480000 17.800000
3236   1  1 0.0000 17.800000 28.480000 24.920000
3237   1  1 0.0000 17.800000 28.480000 32.040000
3238   1  1 0.0000 17.800000 28.480000 39.160000
3239   1  1 0.0000 17.800000 28.480000 46.280000
3240   1  1 0.0000 17.800000 28.480000 53.400000
3241   1  1 0.0000 17.800000 35.600000  3.560000
3242   1  1 0.0000 17.800000 35.600000 10.680000
3243   1  1 0.0000 17.800000 35.600000 17.800000
3244   1  1 0.0000 17.800000 35.600000 24.920000
3245   1  1 0.0000 17.800000 35.600000 32.040000
3246   1  1 0.0000 17.800000 35.600000 39.160000
3247   1  1 0.0000 17.800000 35.600000 46.280000
3248   1  1 0.0000 17.800000 35.600000 53.400000
3249   1  1 0.0000 17.800000 42.720000  3.560000
3250   1  1 0.0000 17.800000 42.720000 10.680000
3251   1  1 0.0000 17.800000 42.720000 17.800000
3252   1  1 0.0000 17.800000 42.720000 24.920000
3253   1  1 0.0000 17.800000 42.720000 32.040000
3254   1  1 0.0000 17.800000 42.720000 39.160000
3255   1  1 0.0000 17.800000 42.720000 46.280000
3256   1  1 0.0000 17.800000 42.720000 53.400000
3257   1  1 0.0000 17.800000 49.840000  3.560000
3258   1  1 0.0000 17.800000 49.840000 10.680000
3259   1  1 0.0000 17.800000 49.840000 17.800000
3260   1  1 0.0000 17.800000 49.840000 24.920000
3261   1  1 0.0000 17.800000 49.840000 32.040000
3262   1  1 0.0000 17.800000 49.840000 39.160000
3263   1  1 0.0000 17.800000 49.840000 46.280000
3264   1  1 0.0000 17.800000 49.840000 53.400000
3265   1  1 0.0000 24.920000  0.000000  3.560000
3266   1  1 0.0000 24.920000  0.000000 10.680000
3267   1  1 0.0000 24.920000  0.000000 17.800000
3268   1  1 0.0000 24.920000  0.000000 24.920000
3269   1  1 0.0000 24.920000  0.000000 32.040000
3270   1  1 0.0000 24.920000  0.000000 39.160000
3271   1  1 0.0000 24.920000  0.000000 46.280000
3272   1  1 0.0000 24.920000  0.000000 53.400000
3273   1  1 0.0000 24.920000  7.120000  3.560000
3274   1  1 0.0000 24.920000  7.120000 10.680000
3275   1  1 0.0000 24.920000  7.120000 17.800000
3276   1  1 0.0000 24.920000  7.120000 24.920000
3277   1  1 0.0000 24.920000  7.120000 32.040000
3278   1  1 0.0000 24.920000  7.120000 39.160000
3279   1  1 0.0000 24.920000  7.120000 46.280000
3280   1  1 0.0000 24.920000  7.120000 53.400000
3281   1  1 0.0000 24.920000 14.240000  3.560000
3282   1  1 0.0000 24.920000 14.240000 10.680000
3283   1  1 0.0000 24.920000 14.240000 17.800000
3284   1  1 0.0000 24.920000 14.240000 24.920000
3285   1  1 0.0000 24.920000 14.240000 32.040000
3286   1  1 0.0000 24.920000 14.240000 39.160000
3287   1  1 0.0000 24.920000 14.240000 46.280000
3288   1  1 0.0000 24.920000 14.240000 53.400000
3289   1  1 0.0000 24.920000 21.360000  3.560000
3290   1  1 0.0000 24.920000 21.360000 10.680000
3291   1  1 0.0000 24.920000 21.360000 17.800000
3292   1  1 0.0000 24.920000 21.360000 24.920000
3293   1  1 0.0000 24.920000 21.360000 32.040000
3294   1  1 0.0000 24.920000 21.360000 39.160000
3295   1  1 0.0000 24.920000 21.360000 46.280000
3296   1  1 0.0000 24.920000 21.360000 53.400000
3297   1  1 0.0000 24.920000 28.480000  3.560000
3298   1  1 0.0000 24.920000 28.480000 10.680000
3299   1  1 0.0000 24.920000 28.480000 17.800000
3300   1  1 0.0000 24.920000 28.480000 24.920000
3301   1  1 0.0000 24.920000 28.480000 32.040000
3302   1  1 0.0000 24.920000 28.480000 39.160000
3303   1  1 0.0000 24.920000 28.480000 46.280000
3304   1  1 0.0000 24.920000 28.480000 53.400000
3305   1  1 0.0000 24.920000 35.600000  3.560000
3306   1  1 0.0000 24.920000 35.600000 10.680000
3307   1  1 0.0000 24.920000 35.600000 17.800000
3308   1  1 0.0000 24.920000 35.600000 24.920000
3309   1  1 0.0000 24.920000 35.600000 32.040000
3310   1  1 0.0000 24.920000 35.600000 39.160000
3311   1  1 0.0000 24.920000 35.600000 46.280000
3312   1  1 0.0000 24.920000 35.600000 53.400000
3313   1  1 0.0000 24.920000 42.720000  3.560000
3314   1  1 0.0000 24.920000 42.720000 10.680000
3315   1  1 0.0000 24.920000 42.720000 17.800000
3316   1  1 0.0000 24.920000 42.720000 24.920000
3317   1  1 0.0000 24.920000 42.720000 32.040000
3318   1  1 0.0000 24.920000 42.720000 39.160000
3319   1  1 0.0000 24.920000 42.720000 46.280000
3320   1  1 0.0000 24.920000 42.720000 53.400000
3321   1  1 0.0000 24.920000 49.840000  3.560000
3322   1  1 0.0000 24.920000 49.840000 10.680000
3323   1  1 0.0000 24.920000 49.840000 17.800000
3324   1  1 0.0000 24.920000 49.840000 24.920000
3325   1  1 0.0000 24.920000 49.840000 32.040000
3326   1  1 0.0000 24.920000 49.840000 39.160000
3327   1  1 0.0000 24.920000 49.840000 46.280000
3328   1  1 0.0000 24.920000 49.840000 53.400000
3329   1  1 0.0000 32.040000  0.000000  3.560000
3330   1  1 0.0000 32.040000  0.000000 10.680000
3331   1  1 0.0000 32.040000  0.000000 17.800000
3332   1  1 0.0000 32.040000  0.000000 24.920000
3333   1  1 0.0000 32.040000  0.000000 32.040000
3334   1  1 0.0000 32.040000  0.000000 39.160000
3335   1  1 0.0000 32.040000  0.000000 46.280000
3336   1  1 0.0000 32.040000  0.000000 53.400000
3337   1  1 0.0000 32.040000  7.120000  3.560000
3338   1  1 0.0000 32.040000  7.120000 10.680000
3339   1  1 0.0000 32.040000  7.120000 17.800000
3340   1  1 0.0000 32.040000  7.120000 24.920000
3341   1  1 0.0000 32.040000  7.120000 32.040000
3342   1  1 0.0000 32.040000  7.120000 39.160000
3343   1  1 0.0000 32.040000  7.120000 46.280000
3344   1  1 0.0000 32.040000  7.120000 53.400000
3345   1  1 0.0000 32.040000 14.240000  3.560000
3346   1  1 0.0000 32.040000 14.240000 10.680000
3347   1  1 0.0000 32.040000 14.240000 17.800000
3348   1  1 0.0000 32.040000 14.240000 24.920000
3349   1  1 0.0000 32.040000 14.240000 32.040000
3350   1  1 0.0000 32.040000 14.240000 39.160000
3351   1  1 0.0000 32.040000 14.240000 46.280000
3352   1  1 0.0000 32.040000 14.240000 53.400000
3353   1  1 0.0000 32.040000 21.360000  3.560000
3354   1  1 0.0000 32.040000 21.360000 10.680000
3355   1  1 0.0000 32.040000 21.360000 17.800000
3356   1  1 0.0000 32.040000 21.360000 24.920000
3357   1  1 0.0000 32.040000 21.360000 32.040000
3358   1  1 0.0000 32.040000 21.360000 39.160000
3359   1  1 0.0000 32.040000 21.360000 46.280000
3360   1  1 0.0000 32.040000 21.360000 53.400000
3361   1  1 0.0000 32.040000 28.480000  3.560000
3362   1  1 0.0000 32.040000 28.480000 10.680000
3363   1  1 0.0000 32.040000 28.480000 17.800000
3364   1  1 0.0000 32.040000 28.480000 24.920000
3365   1  1 0.0000 32.040000 28.480000 32.040000
3366   1  1 0.0000 32.040000 28.480000 39.160000
3367   1  1 0.0000 32.040000 28.480000 46.280000
3368   1  1 0.0000 32.040000 28.480000 53.400000
3369   1  1 0.0000 32.040000 35.600000  3.560000
3370   1  1 0.0000 32.040000 35.600000 10.680000
3371   1  1 0.0000 32.040000 35.600000 17.800000
3372   1  1 0.0000 32.040000 35.600000 24.920000
3373   1  1 0.0000 32.040000 35.600000 32.040000
3374   1  1 0.0000 32.040000 35.600000 39.160000
3375   1  1 0.0000 32.040000 35.600000 46.280000
3376   1  1 0.0000 32.040000 35.600000 53.400000
3377   1  1 0.0000 32.040000 42.720000  3.560000
3378   1  1 0.0000 32.040000 42.720000 10.680000
3379   1  1 0.0000 32.040000 42.720000 17.800000
3380   1  1 0.0000 32.040000 42.720000 24.920000
3381   1  1 0.0000 32.040000 42.720000 32.040000
3382   1  1 0.0000 32.040000 42.720000 39.160000
3383   1  1 0.0000 32.040000 42.720000 46.280000
3384   1  1 0.0000 32.040000 42.720000 53.400000
3385   1  1 0.0000 32.040000 49.840000  3.560000
3386   1  1 0.0000 32.040000 49.840000 10.680000
3387   1  1 0.0000 32.040000 49.840000 17.800000
3388   1  1 0.0000 32.040000 49.840000 24.920000
3389   1  1 0.0000 32.040000 49.840000 32.040000
3390   1  1 0.0000 32.040000 49.840000 39.160000
3391   1  1 0.0000 32.040000 49.840000 46.280000
3392   1  1 0.0000 32.040000 49.840000 53.400000
3393   1  1 0.0000 39.160000  0.000000  3.560000
3394   1  1 0.0000 39.160000  0.000000 10.680000
3395   1  1 0.0000 39.160000  0.000000 17.800000
3396   1  1 0.0000 39.160000  0.000000 24.920000
3397   1  1 0.0000 39.160000  0.000000 32.040000
3398   1  1 0.0000 39.160000  0.000000 39.160000
3399   1  1 0.0000 39.160000  0.000000 46.280000
3400   1  1 0.0000 39.160000  0.000000 53.400000
3401   1  1 0.0000 39.160000  7.120000  3.560000
3402   1  1 0.0000 39.160000  7.120000 10.680000
3403   1  1 0.0000 39.160000  7.120000 17.800000
3404   1  1 0.0000 39.160000  7.120000 24.920000
3405   1  1 0.0000 39.160000  7.120000 32.040000
3406   1  1 0.0000 39.160000  7.120000 39.160000
3407   1  1 0.0000 39.160000  7.120000 46.280000
3408   1  1 0.0000 39.160000  7.120000 53.400000
3409   1  1 0.0000 39.160000 14.240000  3.560000
3410   1  1 0.0000 39.160000 14.240000 10.680000
3411   1  1 0.0000 39.160000 14.240000 17.800000
3412   1  1 0.0000 39.160000 14.240000 24.920000
3413   1  1 0.0000 39.160000 14.240000 32.040000
3414   1  1 0.0000 39.160000 14.240000 39.160000
3415   1  1 0.0000 39.160000 14.240000 46.280000
3416   1  1 0.0000 39.160000 14.240000 53.400000
3417   1  1 0.0000 39.160000 21.360000  3.560000
3418   1  1 0.0000 39.160000 21.360000 10.680000
3419   1  1 0.0000 39.160000 21.360000 17.800000
3420   1  1 0.0000 39.160000 21.360000 24.920000
3421   1  1 0.0000 39.160000 21.360000 32.040000
3422   1  1 0.0000 39.160000 21.360000 39.160000
3423   1  1 0.0000 39.160000 21.360000 46.280000
3424   1  1 0.0000 39.160000 21.360000 53.400000
3425   1  1 0.0000 39.160000 28.480000  3.560000
3426   1  1 0.0000 39.160000 28.480000 10.680000
3427   1  1 0.0000 39.160000 28.480000 17.800000
3428   1  1 0.0000 39.160000 28.480000 24.920000
3429   1  1 0.0000 39.160000 28.480000 32.040000
3430   1  1 0.0000 39.160000 28.480000 39.160000
3431   1  1 0.0000 39.160000 28.480000 46.280000
3432   1  1 0.0000 39.160000 28.480000 53.400000
3433   1  1 0.0000 39.160000 35.600000  3.560000
3434   1  1 0.0000 39.160000 35.600000 10.680000
3435   1  1 0.0000 39.160000 35.600000 17.800000
3436   1  1 0.0000 39.160000 35.600000 24.920000
3437   1  1 0.0000 39.160000 35.600000 32.040000
3438   1  1 0.0000 39.160000 35.600000 39.160000
3439   1  1 0.0000 39.160000 35.600000 46.280000
3440   1  1 0.0000 39.160000 35.600000 53.400000
3441   1  1 0.0000 39.160000 42.720000  3.560000
3442   1  1 0.0000 39.160000 42.720000 10.680000
3443   1  1 0.0000 39.160000 42.720000 17.800000
3444   1  1 0.0000 39.160000 42.720000 24.920000
3445   1  1 0.0000 39.160000 42.720000 32.040000
3446   1  1 0.0000 39.160000 42.720000 39.160000
3447   1  1 0.0000 39.160000 42.720000 46.280000
3448   1  1 0.0000 39.160000 42.720000 53.400000
3449   1  1 0.0000 39.160000 49.840000  3.560000
3450   1  1 0.0000 39.160000 49.840000 10.680000
3451   1  1 0.0000 39.160000 49.840000 17.800000
3452   1  1 0.0000 39.160000 49.840000 24.920000
3453   1  1 0.0000 39.160000 49.840000 32.040000
3454   1  1 0.0000 39.160000 49.840000 39.160000
3455   1  1 0.0000 39.160000 49.840000 46.280000
3456   1  1 0.0000 39.160000 49.840000 53.400000
3457   1  1 0.0000 46.280000  0.000000  3.560000
3458   1  1 0.0000 46.280000  0.000000 10.680000
3459   1  1 0.0000 46.280000  0.000000 17.800000
3460   1  1 0.0000 46.280000  0.000000 24.920000
3461   1  1 0.0000 46.280000  0.000000 32.040000
3462   1  1 0.0000 46.280000  0.000000 39.160000
3463   1  1 0.0000 46.280000  0.000000 46.280000
3464   1  1 0.0000 46.280000  0.000000 53.400000
3465   1  1 0.0000 46.280000  7.120000  3.560000
3466   1  1 0.0000 46.280000  7.120000 10.680000
3467   1  1 0.0000 46.280000  7.120000 17.800000
3468   1  1 0.0000 46.280000  7.120000 24.920000
3469   1  1 0.0000 46.280000  7.120000 32.040000
3470   1  1 0.0000 46.280000  7.120000 39.160000
3471   1  1 0.0000 46.280000  7.120000 46.280000
3472   1  1 0.0000 46.280000  7.120000 53.400000
3473   1  1 0.0000 46.280000 14.240000  3.560000
3474   1  1 0.0000 46.280000 14.240000 10.680000
3475   1  1 0.0000 46.280000 14.240000 17.800000
3476   1  1 0.0000 46.280000 14.240000 24.920000
3477   1  1 0.0000 46.280000 14.240000 32.040000
3478   1  1 0.0000 46.280000 14.240000 39.160000
3479   1  1 0.0000 46.280000 14.240000 46.280000
3480   1  1 0.0000 46.280000 14.240000 53.400000
3481   1  1 0.0000 46.280000 21.360000  3.560000
3482   1  1 0.0000 46.280000 21.360000 10.680000
3483   1  1 0.0000 46.280000 21.360000 17.800000
3484   1  1 0.0000 46.280000 21.360000 24.920000
3485   1  1 0.0000 46.280000 21.360000 32.040000
3486   1  1 0.0000 46.280000 21.360000 39.160000
3487   1  1 0.0000 46.280000 21.360000 46.280000
3488   1  1 0.0000 46.280000 21.360000 53.400000
3489   1  1 0.0000 46.280000 28.480000  3.560000
3490   1  1 0.0000 46.280000 28.480000 10.680000
3491   1  1 0.0000 46.280000 28.480000 17.800000
3492   1  1 0.0000 46.280000 28.480000 24.920000
3493   1  1 0.0000 46.280000 28.480000 32.040000
3494   1  1 0.0000 46.280000 28.480000 39.160000
3495   1  1 0.0000 46.280000 28.480000 46.280000
3496   1  1 0.0000 46.280000 28.480000 53.400000
3497   1  1 0.0000 46.280000 35.600000  3.560000
3498   1  1 0.0000 46.280000 35.600000 10.680000
3499   1  1 0.0000 46.280000 35.600000 17.800000
3500   1  1 0.0000 46.280000 35.600000 24.920000
3501   1  1 0.0000 46.280000 35.600000 32.040000
3502   1  1 0.0000 46.280000 35.600000 39.160000
3503   1  1 0.0000 46.280000 35.600000 46.280000
3504   1  1 0.0000 46.280000 35.600000 53.400000
3505   1  1 0.0000 46.280000 42.720000  3.560000
3506   1  1 0.0000 46.280000 42.720000 10.680000
3507   1  1 0.0000 46.280000 42.720000 17.800000
3508   1  1 0.0000 46.280000 42.720000 24.920000
3509   1  1 0.0000 46.280000 42.720000 32.040000
3510   1  1 0.0000 46.280000 42.720000 39.160000
3511   1  1 0.0000 46.280000 42.720000 46.280000
3512   1  1 0.0000 46.280000 42.720000 53.400000
3513   1  1 0.0000 46.280000 49.840000  3.560000
3514   1  1 0.0000 46.280000 49.840000 10.680000
3515   1  1 0.0000 46.280000 49.840000 17.800000
3516   1  1 0.0000 46.280000 49.840000 24.920000
3517   1  1 0.0000 46.280000 49.840000 32.040000
3518   1  1 0.0000 46.280000 49.840000 39.160000
3519   1  1 0.0000 46.280000 49.840000 46.280000
3520   1  1 0.0000 46.280000 49.840000 53.400000
3521   1  1 0.0000 53.400000  0.000000  3.560000
3522   1  1 0.0000 53.400000  0.000000 10.680000
3523   1  1 0.0000 53.400000  0.000000 17.800000
3524   1  1 0.0000 53.400000  0.000000 24.920000
3525   1  1 0.0000 53.400000  0.000000 32.040000
3526   1  1 0.0000 53.400000  0.000000 39.160000
3527   1  1 0.0000 53.400000  0.000000 46.280000
3528   1  1 0.0000 53.400000  0.000000 53.400000
3529   1  1 0.0000 53.400000  7.120000  3.560000
3530   1  1 0.0000 53.400000  7.120000 10.680000
3531   1  1 0.0000 53.400000  7.120000 17.800000
3532   1  1 0.0000 53.400000  7.120000 24.920000
3533   1  1 0.0000 53.400000  7.120000 32.040000
3534   1  1 0.0000 53.400000  7.120000 39.160000
3535   1  1 0.0000 53.400000  7.120000 46.280000
3536   1  1 0.0000 53.400000  7.120000 53.400000
3537   1  1 0.0000 53.400000 14.240000  3.560000
3538   1  1 0.0000 53.400000 14.240000 10.680000
3539   1  1 0.0000 53.400000 14.240000 17.800000
3540   1  1 0.0000 53.400000 14.240000 24.920000
3541   1  1 0.0000 53.400000 14.240000 32.040000
3542   1  1 0.0000 53.400000 14.240000 39.160000
3543   1  1 0.0000 53.400000 14.240000 46.280000
3544   1  1 0.0000 53.400000 14.240000 53.400000
3545   1  1 0.0000 53.400000 21.360000  3.560000
3546   1  1 0.0000 53.400000 21.360000 10.680000
3547   1  1 0.0000 53.400000 21.360000 17.800000
3548   1  1 0.0000 53.400000 21.360000 24.920000
3549   1  1 0.0000 53.400000 21.360000 32.040000
3550   1  1 0.0000 53.400000 21.360000 39.160000
3551   1  1 0.0000 53.400000 21.360000 46.280000
3552   1  1 0.0000 53.400000 21.360000 53.400000
3553   1  1 0.0000 53.400000 28.480000  3.560000
3554   1  1 0.0000 53.400000 28.480000 10.680000
3555   1  1 0.0000 53.400000 28.480000 17.800000
3556   1  1 0.0000 53.400000 28.480000 24.920000
3557   1  1 0.0000 53.400000 28.480000 32.040000
3558   1  1 0.0000 53.400000 28.480000 39.160000
3559   1  1 0.0000 53.400000 28.480000 46.280000
3560   1  1 0.0000 53.400000 28.480000 53.400000
3561   1  1 0.0000 53.400000 35.600000  3.560000
3562   1  1 0.0000 53.400000 35.600000 10.680000
3563   1  1 0.0000 53.400000 35.600000 17.800000
3564   1  1 0.0000 53.400000 35.600000 24.920000
3565   1  1 0.0000 53.400000 35.600000 32.040000
3566   1  1 0.0000 53.400000 35.600000 39.160000
3567   1  1 0.0000 53.400000 35.600000 46.280000
3568   1  1 0.0000 53.400000 35.600000 53.400000
3569   1  1 0.0000 53.400000 42.720000  3.560000
3570   1  1 0.0000 53.400000 42.720000 10.680000
3571   1  1 0.0000 53.400000 42.720000 17.800000
3572   1  1 0.0000 53.400000 42.720000 24.920000
3573   1  1 0.0000 53.400000 42.720000 32.040000
3574   1  1 0.0000 53.400000 42.720000 39.160000
3575   1  1 0.0000 53.400000 42.720000 46.280000
3576   1  1 0.0000 53.400000 42.720000 53.400000
3577   1  1 0.0000 53.400000 49.840000  3.560000
3578   1  1 0.0000 53.400000 49.840000 10.680000
3579   1  1 0.0000 53.400000 49.840000 17.800000
3580   1  1 0.0000 53.400000 49.840000 24.920000
3581   1  1 0.0000 53.400000 49.840000 32.040000
3582   1  1 0.0000 53.400000 49.840000 39.160000
3583   1  1 0.0000 53.400000 49.840000 46.280000
3584   1  1 0.0000 53.400000 49.840000 53.400000
3585   1  1 0.0000  3.560000  3.560000 -0.000000
3586   1  1 0.0000  3.560000  3.560000  7.120000
3587   1  1 0.0000  3.560000  3.560000 14.240000
3588   1  1 0.0000  3.560000  3.560000 21.360000
3589   1  1 0.0000  3.560000  3.560000 28.480000
3590   1  1 0.0000  3.560000  3.560000 35.600000
3591   1  1 0.0000  3.560000  3.560000 42.720000
3592   1  1 0.0000  3.560000  3.560000 49.840000
3593   1  1 0.0000  3.560000 10.680000 -0.000000
3594   1  1 0.0000  3.560000 10.680000  7.120000
3595   1  1 0.0000  3.560000 10.680000 14.240000
3596   1  1 0.0000  3.560000 10.680000 21.360000
3597   1  1 0.0000  3.560000 10.680000 28.480000
3598   1  1 0.0000  3.560000 10.680000 35.600000
3599   1  1 0.0000  3.560000 10.680000 42.720000
3600   1  1 0.0000  3.560000 10.680000 49.840000
3601   1  1 0.0000  3.560000 17.800000 -0.000000
3602   1  1 0.0000  3.560000 17.800000  7.120000
3603   1  1 0.0000  3.560000 17.800000 14.240000
3604   1  1 0.0000  3.560000 17.800000 21.360000
3605   1  1 0.0000  3.560000 17.800000 28.480000
3606   1  1 0.0000  3.560000 17.800000 35.600000
3607   1  1 0.0000  3.560000 17.800000 42.720000
3608   1  1 0.0000  3.560000 17.800000 49.840000
3609   1  1 0.0000  3.560000 24.920000 -0.000000
3610   1  1 0.0000  3.560000 24.920000  7.120000
3611   1  1 0.0000  3.560000 24.920000 14.240000
3612   1  1 0.0000  3.560000 24.920000 21.360000
3613   1  1 0.0000  3.560000 24.920000 28.480000
3614   1  1 0.0000  3.560000 24.920000 35.600000
3615   1  1 0.0000  3.560000 24.920000 42.720000
3616   1  1 0.0000  3.560000 24.920000 49.840000
3617   1  1 0.0000  3.560000 32.040000 -0.000000
3618   1  1 0.0000  3.560000 32.040000  7.120000
3619   1  1 0.0000  3.560000 32.040000 14.240000
3620   1  1 0.0000  3.560000 32.040000 21.360000
3621   1  1 0.0000  3.560000 32.040000 28.480000
3622   1  1 0.0000  3.560000 32.040000 35.600000
3623   1  1 0.0000  3.560000 32.040000 42.720000
3624   1  1 0.0000  3.560000 32.040000 49.840000
3625   1  1 0.0000  3.560000 39.160000 -0.000000
3626   1  1 0.0000  3.560000 39.160000  7.120000
3627   1  1 0.0000  3.560000 39.160000 14.240000
3628   1  1 0.0000  3.560000 39.160000 21.360000
3629   1  1 0.0000  3.560000 39.160000 28.480000
3630   1  1 0.0000  3.560000 39.160000 35.600000
3631   1  1 0.0000  3.560000 39.160000 42.720000
3632   1  1 0.0000  3.560000 39.160000 49.840000
3633   1  1 0.0000  3.560000 46.280000 -0.000000
3634   1  1 0.0000  3.560000 46.280000  7.120000
3635   1  1 0.0000  3.560000 46.280000 14.240000
3636   1  1 0.0000  3.560000 46.280000 21.360000
3637   1  1 0.0000  3.560000 46.280000 28.480000
3638   1  1 0.0000  3.560000 46.280000 35.600000
3639   1  1 0.0000  3.560000 46.280000 42.720000
3640   1  1 0.0000  3.560000 46.280000 49.840000
3641   1  1 0.0000  3.560000 53.400000 -0.000000
3642   1  1 0.0000  3.560000 53.400000  7.120000
3643   1  1 0.0000  3.560000 53.400000 14.240000
3644   1  1 0.0000  3.560000 53.400000 21.360000
3645   1  1 0.0000  3.560000 53.400000 28.480000
3646   1  1 0.0000  3.560000 53.400000 35.600000
3647   1  1 0.0000  3.560000 53.400000 42.720000
3648   1  1 0.0000  3.560000 53.400000 49.840000
3649   1  1 0.0000 10.680000  3.560000 -0.000000
3650   1  1 0.0000 10.680000  3.560000  7.120000
3651   1  1 0.0000 10.680000  3.560000 14.240000
3652   1  1 0.0000 10.680000  3.560000 21.360000
3653   1  1 0.0000 10.680000  3.560000 28.480000
3654   1  1 0.0000 10.680000  3.560000 35.600000
3655   1  1 0.0000 10.680000  3.560000 42.720000
3656   1  1 0.0000 10.680000  3.560000 49.840000
3657   1  1 0.0000 10.680000 10.680000 -0.000000
3658   1  1 0.0000 10.680000 10.680000  7.120000
3659   1  1 0.0000 10.680000 10.680000 14.240000
3660   1  1 0.0000 10.680000 10.680000 21.360000
3661   1  1 0.0000 10.680000 10.680000 28.480000
3662   1  1 0.0000 10.680000 10.680000 35.600000
3663   1  1 0.0000 10.680000 10.680000 42.720000
3664   1  1 0.0000 10.680000 10.680000 49.840000
3665   1  1 0.0000 10.680000 17.800000 -0.000000
3666   1  1 0.0000 10.680000 17.800000  7.120000
3667   1  1 0.0000 10.680000 17.800000 14.240000
3668   1  1 0.0000 10.680000 17.800000 21.360000
3669   1  1 0.0000 10.680000 17.800000 28.480000
3670   1  1 0.0000 10.680000 17.800000 35.600000
3671   1  1 0.0000 10.680000 17.800000 42.720000
3672   1  1 0.0000 10.680000 17.800000 49.840000
3673   1  1 0.0000 10.680000 24.920000 -0.000000
3674   1  1 0.0000 10.680000 24.920000  7.120000
3675   1  1 0.0000 10.680000 24.920000 14.240000
3676   1  1 0.0000 10.680000 24.920000 21.360000
3677   1  1 0.0000 10.680000 24.920000 28.480000
3678   1  1 0.0000 10.680000 24.920000 35.600000
3679   1  1 0.0000 10.680000 24.920000 42.720000
3680   1  1 0.0000 10.680000 24.920000 49.840000
3681   1  1 0.0000 10.680000 32.040000 -0.000000
3682   1  1 0.0000 10.680000 32.040000  7.120000
3683   1  1 0.0000 10.680000 32.040000 14.240000
3684   1  1 0.0000 10.680000 32.040000 21.360000
3685   1  1 0.0000 10.680000 32.040000 28.480000
3686   1  1 0.0000 10.680000 32.040000 35.600000
3687   1  1 0.0000 10.680000 32.040000 42.720000
3688   1  1 0.0000 10.680000 32.040000 49.840000
3689   1  1 0.0000 10.680000 39.160000 -0.000000
3690   1  1 0.0000 10.680000 39.160000  7.120000
3691   1  1 0.0000 10.680000 39.160000 14.240000
3692   1  1 0.0000 10.680000 39.160000 21.360000
3693   1  1 0.0000 10.680000 39.160000 28.480000
3694   1  1 0.0000 10.680000 39.160000 35.600000
3695   1  1 0.0000 10.680000 39.160000 42.720000
3696   1  1 0.0000 10.680000 39.160000 49.840000
3697   1  1 0.0000 10.680000 46.280000 -0.000000
3698   1  1 0.0000 10.680000 46.280000  7.120000
3699   1  1 0.0000 10.680000 46.280000 14.240000
3700   1  1 0.0000 10.680000 46.280000 21.360000
3701   1  1 0.0000 10.680000 46.280000 28.480000
3702   1  1 0.0000 10.680000 46.280000 35.600000
3703   1  1 0.0000 10.680000 46.280000 42.720000
3704   1  1 0.0000 10.680000 46.280000 49.840000
3705   1  1 0.0000 10.680000 53.400000 -0.000000
3706   1  1 0.0000 10.680000 53.400000  7.120000
3707   1  1 0.0000 10.680000 53.400000 14.240000
3708   1  1 0.0000 10.680000 53.400000 21.360000
3709   1  1 0.0000 10.680000 53.400000 28.480000
3710   1  1 0.0000 10.680000 53.400000 35.600000
3711   1  1 0.0000 10.680000 53.400000 42.720000
3712   1  1 0.0000 10.680000 53.400000 49.840000
3713   1  1 0.0000 17.800000  3.560000 -0.000000
3714   1  1 0.0000 17.800000  3.560000  7.120000
3715   1  1 0.0000 17.800000  3.560000 14.240000
3716   1  1 0.0000 17.800000  3.560000 21.360000
3717   1  1 0.0000 17.800000  3.560000 28.480000
3718   1  1 0.0000 17.800000  3.560000 35.600000
3719   1  1 0.0000 17.800000  3.560000 42.720000
3720   1  1 0.0000 17.800000  3.560000 49.840000
3721   1  1 0.0000 17.800000 10.680000 -0.000000
3722   1  1 0.0000 17.800000 10.680000  7.120000
3723   1  1 0.0000 17.800000 10.680000 14.240000
3724   1  1 0.0000 17.800000 10.680000 21.360000
3725   1  1 0.0000 17.800000 10.680000 28.480000
3726   1  1 0.0000 17.800000 10.680000 35.600000
3727   1  1 0.0000 17.800000 10.680000 42.720000
3728   1  1 0.0000 17.800000 10.680000 49.840000
3729   1  1 0.0000 17.800000 17.800000 -0.000000
3730   1  1 0.0000 17.800000 17.800000  7.120000
3731   1  1 0.0000 17.800000 17.800000 14.240000
3732   1  1 0.0000 17.800000 17.800000 21.360000
3733   1  1 0.0000 17.800000 17.800000 28.480000
3734   1  1 0.0000 17.800000 17.800000 35.600000
3735   1  1 0.0000 17.800000 17.800000 42.720000
3736   1  1 0.0000 17.800000 17.800000 49.840000
3737   1  1 0.0000 17.800000 24.920000 -0.000000
3738   1  1 0.0000 17.800000 24.920000  7.120000
3739   1  1 0.0000 17.800000 24.920000 14.240000
3740   1  1 0.0000 17.800000 24.920000 21.360000
3741   1  1 0.0000 17.800000 24.920000 28.480000
3742   1  1 0.0000 17.800000 24.920000 35.600000
3743   1  1 0.0000 17.800000 24.920000 42.720000
3744   1  1 0.0000 17.800000 24.920000 49.840000
3745   1  1 0.0000 17.800000 32.040000 -0.000000
3746   1  1 0.0000 17.800000 32.040000  7.120000
3747   1  1 0.0000 17.800000 32.040000 14.240000
3748   1  1 0.0000 17.800000 32.040000 21.360000
3749   1  1 0.0000 17.800000 32.040000 28.480000
3750   1  1 0.0000 17.800000 32.040000 35.600000
3751   1  1 0.0000 17.800000 32.040000 42.720000
3752   1  1 0.0000 17.800000 32.040000 49.840000
3753   1  1 0.0000 17.800000 39.160000 -0.000000
3754   1  1 0.0000 17.800000 39.160000  7.120000
3755   1  1 0.0000 17.800000 39.160000 14.240000
3756   1  1 0.0000 17.800000 39.160000 21.360000
3757   1  1 0.0000 17.800000 39.160000 28.480000
3758   1  1 0.0000 17.800000 39.160000 35.600000
3759   1  1 0.0000 17.800000 39.160000 42.720000
3760   1  1 0.0000 17.800000 39.160000 49.840000
3761   1  1 0.0000 17.800000 46.280000 -0.000000
3762   1  1 0.0000 17.800000 46.280000  7.120000
3763   1  1 0.0000 17.800000 46.280000 14.240000
3764   1  1 0.0000 17.800000 46.280000 21.360000
3765   1  1 0.0000 17.800000 46.280000 28.480000
3766   1  1 0.0000 17.800000 46.280000 35.600000
3767   1  1 0.0000 17.800000 46.280000 42.720000
3768   1  1 0.0000 17.800000 46.280000 49.840000
3769   1  1 0.0000 17.800000 53.400000 -0.000000
3770   1  1 0.0000 17.800000 53.400000  7.120000
3771   1  1 0.0000 17.800000 53.400000 14.240000
3772   1  1 0.0000 17.800000 53.400000 21.360000
3773   1  1 0.0000 17.800000 53.400000 28.480000
3774   1  1 0.0000 17.800000 53.400000 35.600000
3775   1  1 0.0000 17.800000 53.400000 42.720000
3776   1  1 0.0000 17.800000 53.400000 49.840000
3777   1  1 0.0000 24.920000  3.560000 -0.000000
3778   1  1 0.0000 24.920000  3.560000  7.120000
3779   1  1 0.0000 24.920000  3.560000 14.240000
3780   1  1 0.0000 24.920000  3.560000 21.360000
3781   1  1 0.0000 24.920000  3.560000 28.480000
3782   1  1 0.0000 24.920000  3.560000 35.600000
3783   1  1 0.0000 24.920000  3.560000 42.720000
3784   1  1 0.0000 24.920000  3.560000 49.840000
3785   1  1 0.0000 24.920000 10.680000  0.000000
3786   1  1 0.0000 24.920000 10.680000  7.120000
3787   1  1 0.0000 24.920000 10.680000 14.240000
3788   1  1 0.0000 24.920000 10.680000 21.360000
3789   1  1 0.0000 24.920000 10.680000 28.480000
3790   1  1 0.0000 24.920000 10.680000 35.600000
3791   1  1 0.0000 24.920000 10.680000 42.720000
3792   1  1 0.0000 24.920000 10.680000 49.840000
3793   1  1 0.0000 24.920000 17.800000 -0.000000
3794   1  1 0.0000 24.920000 17.800000  7.120000
3795   1  1 0.0000 24.920000 17.800000 14.240000
3796   1  1 0.0000 24.920000 17.800000 21.360000
3797   1  1 0.0000 24.920000 17.800000 28.480000
3798   1  1 0.0000 24.920000 17.800000 35.600000
3799   1  1 0.0000 24.920000 17.800000 42.720000
3800   1  1 0.0000 24.920000 17.800000 49.840000
3801   1  1 0.0000 24.920000 24.920000 -0.000000
3802   1  1 0.0000 24.920000 24.920000  7.120000
3803   1  1 0.0000 24.920000 24.920000 14.240000
3804   1  1 0.0000 24.920000 24.920000 21.360000
3805   1  1 0.0000 24.920000 24.920000 28.480000
3806   1  1 0.0000 24.920000 24.920000 35.600000
3807   1  1 0.0000 24.920000 24.920000 42.720000
3808   1  1 0.0000 24.920000 24.920000 49.840000
3809   1  1 0.0000 24.920000 32.040000 -0.000000
3810   1  1 0.0000 24.920000 32.040000  7.120000
3811   1  1 0.0000 24.920000 32.040000 14.240000
3812   1  1 0.0000 24.920000 32.040000 21.360000
3813   1  1 0.0000 24.920000 32.040000 28.480000
3814   1  1 0.0000 24.920000 32.040000 35.600000
3815   1  1 0.0000 24.920000 32.040000 42.720000
3816   1  1 0.0000 24.920000 32.040000 49.840000
3817   1  1 0.0000 24.920000 39.160000 -0.000000
3818   1  1 0.0000 24.920000 39.160000  7.120000
3819   1  1 0.0000 24.920000 39.160000 14.240000
3820   1  1 0.0000 24.920000 39.160000 21.360000
3821   1  1 0.0000 24.920000 39.160000 28.480000
3822   1  1 0.0000 24.920000 39.160000 35.600000
3823   1  1 0.0000 24.920000 39.160000 42.720000
3824   1  1 0.0000 24.920000 39.160000 49.840000
3825   1  1 0.0000 24.920000 46.280000 -0.000000
3826   1  1 0.0000 24.920000 46.280000  7.120000
3827   1  1 0.0000 24.920000 46.280000 14.240000
3828   1  1 0.0000 24.920000 46.280000 21.360000
3829   1  1 0.0000 24.920000 46.280000 28.480000
3830   1  1 0.0000 24.920000 46.280000 35.600000
3831   1  1 0.0000 24.920000 46.280000 42.720000
3832   1  1 0.0000 24.920000 46.280000 49.840000
3833   1  1 0.0000 24.920000 53.400000 -0.000000
3834   1  1 0.0000 24.920000 53.400000  7.120000
3835   1  1 0.0000 24.920000 53.400000 14.240000
3836   1  1 0.0000 24.920000 53.400000 21.360000
3837   1  1 0.0000 24.920000 53.400000 28.480000
3838   1  1 0.0000 24.920000 53.400000 35.600000
3839   1  1 0.0000 24.920000 53.400000 42.720000
3840   1  1 0.0000 24.920000 53.400000 49.840000
3841   1  1 0.0000 32.040000  3.560000 -0.000000
3842   1  1 0.0000 32.040000  3.560000  7.120000
3843   1  1 0.0000 32.040000  3.560000 14.240000
3844   1  1 0.0000 32.040000  3.560000 21.360000
3845   1  1 0.0000 32.040000  3.560000 28.480000
3846   1  1 0.0000 32.040000  3.560000 35.600000
3847   1  1 0.0000 32.040000  3.560000 42.720000
3848   1  1 0.0000 32.040000  3.560000 49.840000
3849   1  1 0.0000 32.040000 10.680000 -0.000000
3850   1  1 0.0000 32.040000 10.680000  7.120000
3851   1  1 0.0000 32.040000 10.680000 14.240000
3852   1  1 0.0000 32.040000 10.680000 21.360000
3853   1  1 0.0000 32.040000 10.680000 28.480000
3854   1  1 0.0000 32.040000 10.680000 35.600000
3855   1  1 0.0000 32.040000 10.680000 42.720000
3856   1  1 0.0000 32.040000 10.680000 49.840000
3857   1  1 0.0000 32.040000 17.800000 -0.000000
3858   1  1 0.0000 32.040000 17.800000  7.120000
3859   1  1 0.0000 32.040000 17.800000 14.240000
3860   1  1 0.0000 32.040000 17.800000 21.360000
3861   1  1 0.0000 32.040000 17.800000 28.480000
3862   1  1 0.0000 32.040000 17.800000 35.600000
3863   1  1 0.0000 32.040000 17.800000 42.720000
3864   1  1 0.0000 32.040000 17.800000 49.840000
3865   1  1 0.0000 32.040000 24.920000 -0.000000
3866   1  1 0.0000 32.040000 24.920000  7.120000
3867   1  1 0.0000 32.040000 24.920000 14.240000
3868   1  1 0.0000 32.040000 24.920000 21.360000
3869   1  1 0.0000 32.040000 24.920000 28.480000
3870   1  1 0.0000 32.040000 24.920000 35.600000
3871   1  1 0.0000 32.040000 24.920000 42.720000
3872   1  1 0.0000 32.040000 24.920000 49.840000
3873   1  1 0.0000 32.040000 32.040000 -0.000000
3874   1  1 0.0000 32.040000 32.040000  7.120000
3875   1  1 0.0000 32.040000 32.040000 14.240000
3876   1  1 0.0000 32.040000 32.040000 21.360000
3877   1  1 0.0000 32.040000 32.040000 28.480000
3878   1  1 0.0000 32.040000 32.040000 35.600000
3879   1  1 0.0000 32.040000 32.040000 42.720000
3880   1  1 0.0000 32.040000 32.040000 49.840000
3881   1  1 0.0000 32.040000 39.160000 -0.000000
3882   1  1 0.0000 32.040000 39.160000  7.120000
3883   1  1 0.0000 32.040000 39.160000 14.240000
3884   1  1 0.0000 32.040000 39.160000 21.360000
3885   1  1 0.0000 32.040000 39.160000 28.480000
3886   1  1 0.0000 32.040000 39.160000 35.600000
3887   1  1 0.0000 32.040000 39.160000 42.720000
3888   1  1 0.0000 32.040000 39.160000 49.840000
3889   1  1 0.0000 32.040000 46.280000 -0.000000
3890   1  1 0.0000 32.040000 46.280000  7.120000
3891   1  1 0.0000 32.040000 46.280000 14.240000
3892   1  1 0.0000 32.040000 46.280000 21.360000
3893   1  1 0.0000 32.040000 46.280000 28.480000
3894   1  1 0.0000 32.040000 46.280000 35.600000
3895   1  1 0.0000 32.040000 46.280000 42.720000
3896   1  1 0.0000 32.040000 46.280000 49.840000
3897   1  1 0.0000 32.040000 53.400000 -0.000000
3898   1  1 0.0000 32.040000 53.400000  7.120000
3899   1  1 0.0000 32.040000 53.400000 14.240000
3900   1  1 0.0000 32.040000 53.400000 21.360000
3901   1  1 0.0000 32.040000 53.400000 28.480000
3902   1  1 0.0000 32.040000 53.400000 35.600000
3903   1  1 0.0000 32.040000 53.400000 42.720000
3904   1  1 0.0000 32.040000 53.400000 49.840000
3905   1  1 0.0000 39.160000  3.560000 -0.000000
3906   1  1 0.0000 39.160000  3.560000  7.120000
3907   1  1 0.0000 39.160000  3.560000 14.240000
3908   1  1 0.0000 39.160000  3.560000 21.360000
3909   1  1 0.0000 39.160000  3.560000 28.480000
3910   1  1 0.0000 39.160000  3.560000 35.600000
3911   1  1 0.0000 39.160000  3.560000 42.720000
3912   1  1 0.0000 39.160000  3.560000 49.840000
3913   1  1 0.0000 39.160000 10.680000 -0.000000
3914   1  1 0.0000 39.160000 10.680000  7.120000
3915   1  1 0.0000 39.160000 10.680000 14.240000
3916   1  1 0.0000 39.160000 10.680000 21.360000
3917   1  1 0.0000 39.160000 10.680000 28.480000
3918   1  1 0.0000 39.160000 10.680000 35.600000
3919   1  1 0.0000 39.160000 10.680000 42.720000
3920   1  1 0.0000 39.160000 10.680000 49.840000
3921   1  1 0.0000 39.160000 17.800000 -0.000000
3922   1  1 0.0000 39.160000 17.800000  7.120000
3923   1  1 0.0000 39.160000 17.800000 14.240000
3924   1  1 0.0000 39.160000 17.800000 21.360000
3925   1  1 0.0000 39.160000 17.800000 28.480000
3926   1  1 0.0000 39.160000 17.800000 35.600000
3927   1  1 0.0000 39.160000 17.800000 42.720000
3928   1  1 0.0000 39.160000 17.800000 49.840000
3929   1  1 0.0000 39.160000 24.920000 -0.000000
3930   1  1 0.0000 39.160000 24.920000  7.120000
3931   1  1 0.0000 39.160000 24.920000 14.240000
3932   1  1 0.0000 39.160000 24.920000 21.360000
3933   1  1 0.0000 39.160000 24.920000 28.480000
3934   1  1 0.0000 39.160000 24.920000 35.600000
3935   1  1 0.0000 39.160000 24.920000 42.720000
3936   1  1 0.0000 39.160000 24.920000 49.840000
3937   1  1 0.0000 39.160000 32.040000 -0.000000
3938   1  1 0.0000 39.160000 32.040000  7.120000
3939   1  1 0.0000 39.160000 32.040000 14.240000
3940   1  1 0.0000 39.160000 32.040000 21.360000
3941   1  1 0.0000 39.160000 32.040000 28.480000
3942   1  1 0.0000 39.160000 32.040000 35.600000
3943   1  1 0.0000 39.160000 32.040000 42.720000
3944   1  1 0.0000 39.160000 32.040000 49.840000
3945   1  1 0.0000 39.160000 39.160000 -0.000000
3946   1  1 0.0000 39.160000 39.160000  7.120000
3947   1  1 0.0000 39.160000 39.160000 14.240000
3948   1  1 0.0000 39.160000 39.160000 21.360000
3949   1  1 0.0000 39.160000 39.160000 28.480000
3950   1  1 0.0000 39.160000 39.160000 35.600000
3951   1  1 0.0000 39.160000 39.160000 42.720000
3952   1  1 0.0000 39.160000 39.160000 49.840000
3953   1  1 0.0000 39.160000 46.280000 -0.000000
3954   1  1 0.0000 39.160000 46.280000  7.120000
3955   1  1 0.0000 39.160000 46.280000 14.240000
3956   1  1 0.0000 39.160000 46.280000 21.360000
3957   1  1 0.0000 39.160000 46.280000 28.480000
3958   1  1 0.0000 39.160000 46.280000 35.600000
3959   1  1 0.0000 39.160000 46.280000 42.720000
3960   1  1 0.0000 39.160000 46.280000 49.840000
3961   1  1 0.0000 39.160000 53.400000 -0.000000
3962   1  1 0.0000 39.160000 53.400000  7.120000
3963   1  1 0.0000 39.160000 53.400000 14.240000
3964   1  1 0.0000 39.160000 53.400000 21.360000
3965   1  1 0.0000 39.160000 53.400000 28.480000
3966   1  1 0.0000 39.160000 53.400000 35.600000
3967   1  1 0.0000 39.160000 53.400000 42.720000
3968   1  1 0.0000 39.160000 53.400000 49.840000
3969   1  1 0.0000 46.280000  3.560000 -0.000000
3970   1  1 0.0000 46.280000  3.560000  7.120000
3971   1  1 0.0000 46.280000  3.560000 14.240000
3972   1  1 0.0000 46.280000  3.560000 21.360000
3973   1  1 0.0000 46.280000  3.560000 28.480000
3974   1  1 0.0000 46.280000  3.560000 35.600000
3975   1  1 0.0000 46.280000  3.560000 42.720000
3976   1  1 0.0000 46.280000  3.560000 49.840000
3977   1  1 0.0000 46.280000 10.680000 -0.000000
3978   1  1 0.0000 46.280000 10.680000  7.120000
3979   1  1 0.0000 46.280000 10.680000 14.240000
3980   1  1 0.0000 46.280000 10.680000 21.360000
3981   1  1 0.0000 46.280000 10.680000 28.480000
3982   1  1 0.0000 46.280000 10.680000 35.600000
3983   1  1 0.0000 46.280000 10.680000 42.720000
3984   1  1 0.0000 46.280000 10.680000 49.840000
3985   1  1 0.0000 46.280000 17.800000 -0.000000
3986   1  1 0.0000 46.280000 17.800000  7.120000
3987   1  1 0.0000 46.280000 17.800000 14.240000
3988   1  1 0.0000 46.280000 17.800000 21.360000
3989   1  1 0.0000 46.280000 17.800000 28.480000
3990   1  1 0.0000 46.280000 17.800000 35.600000
3991   1  1 0.0000 46.280000 17.800000 42.720000
3992   1  1 0.0000 46.280000 17.800000 49.840000
3993   1  1 0.0000 46.280000 24.920000 -0.000000
3994   1  1 0.0000 46.280000 24.920000  7.120000
3995   1  1 0.0000 46.280000 24.920000 14.240000
3996   1  1 0.0000 46.280000 24.920000 21.360000
3997   1  1 0.0000 46.280000 24.920000 28.480000
3998   1  1 0.0000 46.280000 24.920000 35.600000
3999   1  1 0.0000 46.280000 24.920000 42.720000
4000   1  1 0.0000 46.280000 24.920000 49.840000
4001   1  1 0.0000 46.280000 32.040000 -0.000000
4002   1  1 0.0000 46.280000 32.040000  7.120000
4003   1  1 0.0000 46.280000 32.040000 14.240000
4004   1  1 0.0000 46.280000 32.040000 21.360000
4005   1  1 0.0000 46.280000 32.040000 28.480000
4006   1  1 0.0000 46.280000 32.040000 35.600000
4007   1  1 0.0000 46.280000 32.040000 42.720000
4008   1  1 0.0000 46.280000 32.040000 49.840000
4009   1  1 0.0000 46.280000 39.160000 -0.000000
4010   1  1 0.0000 46.280000 39.160000  7.120000
4011   1  1 0.0000 46.280000 39.160000 14.240000
4012   1  1 0.0000 46.280000 39.160000 21.360000
4013   1  1 0.0000 46.280000 39.160000 28.480000
4014   1  1 0.0000 46.280000 39.160000 35.600000
4015   1  1 0.0000 46.280000 39.160000 42.720000
4016   1  1 0.0000 46.280000 39.160000 49.840000
4017   1  1 0.0000 46.280000 46.280000 -0.000000
4018   1  1 0.0000 46.280000 46.280000  7.120000
4019   1  1 0.0000 46.280000 46.280000 14.240000
4020   1  1 0.0000 46.280000 46.280000 21.360000
4021   1  1 0.0000 46.280000 46.280000 28.480000
4022   1  1 0.0000 46.280000 46.280000 35.600000
4023   1  1 0.0000 46.280000 46.280000 42.720000
4024   1  1 0.0000 46.280000 46.280000 49.840000
4025   1  1 0.0000 46.280000 53.400000 -0.000000
4026   1  1 0.0000 46.280000 53.400000  7.120000
4027   1  1 0.0000 46.280000 53.400000 14.240000
4028   1  1 0.0000 46.280000 53.400000 21.360000
4029   1  1 0.0000 46.280000 53.400000 28.480000
4030   1  1 0.0000 46.280000 53.400000 35.600000
4031   1  1 0.0000 46.280000 53.400000 42.720000
4032   1  1 0.0000 46.280000 53.400000 49.840000
4033   1  1 0.0000 53.400000  3.560000 -0.000000
4034   1  1 0.0000 53.400000  3.560000  7.120000
4035   1  1 0.0000 53.400000  3.560000 14.240000
4036   1  1 0.0000 53.400000  3.560000 21.360000
4037   1  1 0.0000 53.400000  3.560000 28.480000
4038   1  1 0.0000 53.400000  3.560000 35.600000
4039   1  1 0.0000 53.400000  3.560000 42.720000
4040   1  1 0.0000 53.400000  3.560000 49.840000
4041   1  1 0.0000 53.400000 10.680000  0.000000
4042   1  1 0.0000 53.400000 10.680000  7.120000
4043   1  1 0.0000 53.400000 10.680000 14.240000
4044   1  1 0.0000 53.400000 10.680000 21.360000
4045   1  1 0.0000 53.400000 10.680000 28.480000
4046   1  1 0.0000 53.400000 10.680000 35.600000
4047   1  1 0.0000 53.400000 10.680000 42.720000
4048   1  1 0.0000 53.400000 10.680000 49.840000
4049   1  1 0.0000 53.400000 17.800000 -0.000000
4050   1  1 0.0000 53.400000 17.800000  7.120000
4051   1  1 0.0000 53.400000 17.800000 14.240000
4052   1  1 0.0000 53.400000 17.800000 21.360000
4053   1  1 0.0000 53.400000 17.800000 28.480000
4054   1  1 0.0000 53.400000 17.800000 35.600000
4055   1  1 0.0000 53.400000 17.800000 42.720000
4056   1  1 0.0000 53.400000 17.800000 49.840000
4057   1  1 0.0000 53.400000 24.920000 -0.000000
4058   1  1 0.0000 53.400000 24.920000  7.120000
4059   1  1 0.0000 53.400000 24.920000 14.240000
4060   1  1 0.0000 53.400000 24.920000 21.360000
4061   1  1 0.0000 53.400000 24.920000 28.480000
4062   1  1 0.0000 53.400000 24.920000 35.600000
4063   1  1 0.0000 53.400000 24.920000 42.720000
4064   1  1 0.0000 53.400000 24.920000 49.840000
4065   1  1 0.0000 53.400000 32.040000 -0.000000
4066   1  1 0.0000 53.400000 32.040000  7.120000
4067   1  1 0.0000 53.400000 32.040000 14.240000
4068   1  1 0.0000 53.400000 32.040000 21.360000
4069   1  1 0.0000 53.400000 32.040000 28.480000
4070   1  1 0.0000 53.400000 32.040000 35.600000
4071   1  1 0.0000 53.400000 32.040000 42.720000
4072   1  1 0.0000 53.400000 32.040000 49.840000
4073   1  1 0.0000 53.400000 39.160000 -0.000000
4074   1  1 0.0000 53.400000 39.160000  7.120000
4075   1  1 0.0000 53.400000 39.160000 14.240000
4076   1  1 0.0000 53.400000 39.160000 21.360000
4077   1  1 0.0000 53.400000 39.160000 28.480000
4078   1  1 0.0000 53.400000 39.160000 35.600000
4079   1  1 0.0000 53.400000 39.160000 42.720000
4080   1  1 0.0000 53.400000 39.160000 49.840000
4081   1  1 0.0000 53.400000 46.280000 -0.000000
4082   1  1 0.0000 53.400000 46.280000  7.120000
4083   1  1 0.0000 53.400000 46.280000 14.240000
4084   1  1 0.0000 53.400000 46.280000 21.360000
4085   1  1 0.0000 53.400000 46.280000 28.480000
4086   1  1 0.0000 53.400000 46.280000 35.600000
4087   1  1 0.0000 53.400000 46.280000 42.720000
4088   1  1 0.0000 53.400000 46.280000 49.840000
4089   1  1 0.0000 53.400000 53.400000 -0.000000
4090   1  1 0.0000 53.400000 53.400000  7.120000
4091   1  1 0.0000 53.400000 53.400000 14.240000
4092   1  1 0.0000 53.400000 53.400000 21.360000
4093   1  1 0.0000 53.400000 53.400000 28.480000
4094   1  1 0.0000 53.400000 53.400000 35.600000
4095   1  1 0.0000 53.400000 53.400000 42.720000
4096   1  1 0.0000 53.400000 53.400000 49.840000
4097   1  2 0.0000  0.890000  0.890000  0.890000
4098   1  2 0.0000  0.890000  0.890000  8.010000
4099   1  2 0.0000  0.890000  0.890000 15.130000
4100   1  2 0.0000  0.890000  0.890000 22.250000
4101   1  2 0.0000  0.890000  0.890000 29.370000
4102   1  2 0.0000  0.890000  0.890000 36.490000
4103   1  2 0.0000  0.890000  0.890000 43.610000
4104   1  2 0.0000  0.890000  0.890000 50.730000
4105   1  2 0.0000  0.890000  8.010000  0.890000
4106   1  2 0.0000  0.890000  8.010000  8.010000
4107   1  2 0.0000  0.890000  8.010000 15.130000
4108   1  2 0.0000  0.890000  8.010000 22.250000
4109   1  2 0.0000  0.890000  8.010000 29.370000
4110   1  2 0.0000  0.890000  8.010000 36.490000
4111   1  2 0.0000  0.890000  8.010000 43.610000
4112   1  2 0.0000  0.890000  8.010000 50.730000
4113   1  2 0.0000  0.890000 15.130000  0.890000
4114   1  2 0.0000  0.890000 15.130000  8.010000
4115   1  2 0.0000  0.890000 15.130000 15.130000
4116   1  2 0.0000  0.890000 15.130000 22.250000
4117   1  2 0.0000  0.890000 15.130000 29.370000
4118   1  2 0.0000  0.890000 15.130000 36.490000
4119   1  2 0.0000  0.890000 15.130000 43.610000
4120   1  2 0.0000  0.890000 15.130000 50.730000
4121   1  2 0.0000  0.890000 22.250000  0.890000
4122   1  2 0.0000  0.890000 22.250000  8.010000
4123   1  2 0.0000  0.890000 22.250000 15.130000
4124   1  2 0.0000  0.890000 22.250000 22.250000
4125   1  2 0.0000  0.890000 22.250000 29.370000
4126   1  2 0.0000  0.890000 22.250000 36.490000
4127   1  2 0.0000  0.890000 22.250000 43.610000
4128   1  2 0.0000  0.890000 22.250000 50.730000
4129   1  2 0.0000  0.890000 29.370000  0.890000
4130   1  2 0.0000  0.890000 29.370000  8.010000
4131   1  2 0.0000  0.890000 29.370000 15.130000
4132   1  2 0.0000  0.890000 29.370000 22.250000
4133   1  2 0.0000  0.890000 29.370000 29.370000
4134   1  2 0.0000  0.890000 29.370000 36.490000
4135   1  2 0.0000  0.890000 29.370000 43.610000
4136   1  2 0.0000  0.890000 29.370000 50.730000
4137   1  2 0.0000  0.890000 36.490000  0.890000
4138   1  2 0.0000  0.890000 36.490000  8.010000
4139   1  2 0.0000  0.890000 36.490000 15.130000
4140   1  2 0.0000  0.890000 36.490000 22.250000
4141   1  2 0.0000  0.890000 36.490000 29.370000
4142   1  2 0.0000  0.890000 36.490000 36.490000
4143   1  2 0.0000  0.890000 36.490000 43.610000
4144   1  2 0.0000  0.890000 36.490000 50.730000
4145   1  2 0.0000  0.890000 43.610000  0.890000
4146   1  2 0.0000  0.890000 43.610000  8.010000
4147   1  2 0.0000  0.890000 43.610000 15.130000
4148   1  2 0.0000  0.890000 43.610000 22.250000
4149   1  2 0.0000  0.890000 43.610000 29.370000
4150   1  2 0.0000  0.890000 43.610000 36.490000
4151   1  2 0.0000  0.890000 43.610000 43.610000
4152   1  2 0.0000  0.890000 43.610000 50.730000
4153   1  2 0.0000  0.890000 50.730000  0.890000
4154   1  2 0.0000  0.890000 50.730000  8.010000
4155   1  2 0.0000  0.890000 50.730000 15.130000
4156   1  2 0.0000  0.890000 50.730000 22.250000
4157   1  2 0.0000  0.890000 50.730000 29.370000
4158   1  2 0.0000  0.890000 50.730000 36.490000
4159   1  2 0.0000  0.890000 50.730000 43.610000
4160   1  2 0.0000  0.890000 50.730000 50.730000
4161   1  2 0.0000  8.010000  0.890000  0.890000
4162   1  2 0.0000  8.010000  0.890000  8.010000
4163   1  2 0.0000  8.010000  0.890000 15.130000
4164   1  2 0.0000  8.010000  0.890000 22.250000
4165   1  2 0.0000  8.010000  0.890000 29.370000
4166   1  2 0.0000  8.010000  0.890000 36.490000
4167   1  2 0.0000  8.010000  0.890000 43.610000
4168   1  2 0.0000  8.010000  0.890000 50.730000
4169   1  2 0.0000  8.010000  8.010000  0.890000
4170   1  2 0.0000  8.010000  8.010000  8.010000
4171   1  2 0.0000  8.010000  8.010000 15.130000
4172   1  2 0.0000  8.010000  8.010000 22.250000
4173   1  2 0.0000  8.010000  8.010000 29.370000
4174   1  2 0.0000  8.010000  8.010000 36.490000
4175   1  2 0.0000  8.010000  8.010000 43.610000
4176   1  2 0.0000  8.010000  8.010000 50.730000
4177   1  2 0.0000  8.010000 15.130000  0.890000
4178   1  2 0.0000  8.010000 15.130000  8.010000
4179   1  2 0.0000  8.010000 15.130000 15.130000
4180   1  2 0.0000  8.010000 15.130000 22.250000
4181   1  2 0.0000  8.010000 15.130000 29.370000
4182   1  2 0.0000  8.010000 15.130000 36.490000
4183   1  2 0.0000  8.010000 15.130000 43.610000
4184   1  2 0.0000  8.010000 15.130000 50.730000
4185   1  2 0.0000  8.010000 22.250000  0.890000
4186   1  2 0.0000  8.010000 22.250000  8.010000
4187   1  2 0.0000  8.010000 22.250000 15.130000
4188   1  2 0.0000  8.010000 22.250000 22.250000
4189   1  2 0.0000  8.010000 22.250000 29.370000
4190   1  2 0.0000  8.010000 22.250000 36.490000
4191   1  2 0.0000  8.010000 22.250000 43.610000
4192   1  2 0.0000  8.010000 22.250000 50.730000
4193   1  2 0.0000  8.010000 29.370000  0.890000
4194   1  2 0.0000  8.010000 29.370000  8.010000
4195   1  2 0.0000  8.010000 29.370000 15.130000
4196   1  2 0.0000  8.010000 29.370000 22.250000
4197   1  2 0.0000  8.010000 29.370000 29.370000
4198   1  2 0.0000  8.010000 29.370000 36.490000
4199   1  2 0.0000  8.010000 29.370000 43.610000
4200   1  2 0.0000  8.010000 29.370000 50.730000
4201   1  2 0.0000  8.010000 36.490000  0.890000
4202   1  2 0.0000  8.010000 36.490000  8.010000
4203   1  2 0.0000  8.010000 36.490000 15.130000
4204   1  2 0.0000  8.010000 36.490000 22.250000
4205   1  2 0.0000  8.010000 36.490000 29.370000
4206   1  2 0.0000  8.010000 36.490000 36.490000
4207   1  2 0.0000  8.010000 36.490000 43.610000
4208   1  2 0.0000  8.010000 36.490000 50.730000
4209   1  2 0.0000  8.010000 43.610000  0.890000
4210   1  2 0.0000  8.010000 43.610000  8.010000
4211   1  2 0.0000  8.010000 43.610000 15.130000
4212   1  2 0.0000  8.010000 43.610000 22.250000
4213   1  2 0.0000  8.010000 43.610000 29.370000
4214   1  2 0.0000  8.010000 43.610000 36.490000
4215   1  2 0.0000  8.010000 43.610000 43.610000
4216   1  2 0.0000  8.010000 43.610000 50.730000
4217   1  2 0.0000  8.010000 50.730000  0.890000
4218   1  2 0.0000  8.010000 50.730000  8.010000
4219   1  2 0.0000  8.010000 50.730000 15.130000
4220   1  2 0.0000  8.010000 50.730000 22.250000
4221   1  2 0.0000  8.010000 50.730000 29.370000
4222   1  2 0.0000  8.010000 50.730000 36.490000
4223   1  2 0.0000  8.010000 50.730000 43.610000
4224   1  2 0.0000  8.010000 50.730000 50.730000
4225   1  2 0.0000 15.130000  0.890000  0.890000
4226   1  2 0.0000 15.130000  0.890000  8.010000
4227   1  2 0.0000 15.130000  0.890000 15.130000
4228   1  2 0.0000 15.130000  0.890000 22.250000
4229   1  2 0.0000 15.130000  0.890000 29.370000
4230   1  2 0.0000 15.130000  0.890000 36.490000
4231   1  2 0.0000 15.130000  0.890000 43.610000
4232   1  2 0.0000 15.130000  0.890000 50.730000
4233   1  2 0.0000 15.130000  8.010000  0.890000
4234   1  2 0.0000 15.130000  8.010000  8.010000
4235   1  2 0.0000 15.130000  8.010000 15.130000
4236   1  2 0.0000 15.130000  8.010000 22.250000
4237   1  2 0.0000 15.130000  8.010000 29.370000
4238   1  2 0.0000 15.130000  8.010000 36.490000
4239   1  2 0.0000 15.130000  8.010000 43.610000
4240   1  2 0.0000 15.130000  8.010000 50.730000
4241   1  2 0.0000 15.130000 15.130000  0.890000
4242   1  2 0.0000 15.130000 15.130000  8.010000
4243   1  2 0.0000 15.130000 15.130000 15.130000
4244   1  2 0.0000 15.130000 15.130000 22.250000
4245   1  2 0.0000 15.130000 15.130000 29.370000
4246   1  2 0.0000 15.130000 15.130000 36.490000
4247   1  2 0.0000 15.130000 15.130000 43.610000
4248   1  2 0.0000 15.130000 15.130000 50.730000
4249   1  2 0.0000 15.130000 22.250000  0.890000
4250   1  2 0.0000 15.130000 22.250000  8.010000
4251   1  2 0.0000 15.130000 22.250000 15.130000
4252   1  2 0.0000 15.130000 22.250000 22.250000
4253   1  2 0.0000 15.130000 22.250000 29.370000
4254   1  2 0.0000 15.130000 22.250000 36.490000
4255   1  2 0.0000 15.130000 22.250000 43.610000
4256   1  2 0.0000 15.130000 22.250000 50.730000
4257   1  2 0.0000 15.130000 29.370000  0.890000
4258   1  2 0.0000 15.130000 29.370000  8.010000
4259   1  2 0.0000 15.130000 29.370000 15.130000
4260   1  2 0.0000 15.130000 29.370000 22.250000
4261   1  2 0.0000 15.130000 29.370000 29.370000
4262   1  2 0.0000 15.130000 29.370000 36.490000
4263   1  2 0.0000 15.130000 29.370000 43.610000
4264   1  2 0.0000 15.130000 29.370000 50.730000
4265   1  2 0.0000 15.130000 36.490000  0.890000
4266   1  2 0.0000 15.130000 36.490000  8.010000
4267   1  2 0.0000 15.130000 36.490000 15.130000
4268   1  2 0.0000 15.130000 36.490000 22.250000
4269   1  2 0.0000 15.130000 36.490000 29.370000
4270   1  2 0.0000 15.130000 36.490000 36.490000
4271   1  2 0.0000 15.130000 36.490000 43.610000
4272   1  2 0.0000 15.130000 36.490000 50.730000
4273   1  2 0.0000 15.130000 43.610000  0.890000
4274   1  2 0.0000 15.130000 43.610000  8.010000
4275   1  2 0.0000 15.130000 43.610000 15.130000
4276   1  2 0.0000 15.130000 43.610000 22.250000
4277   1  2 0.0000 15.130000 43.610000 29.370000
4278   1  2 0.0000 15.130000 43.610000 36.490000
4279   1  2 0.0000 15.130000 43.610000 43.610000
4280   1  2 0.0000 15.130000 43.610000 50.730000
4281   1  2 0.0000 15.130000 50.730000  0.890000
4282   1  2 0.0000 15.130000 50.730000  8.010000
4283   1  2 0.0000 15.130000 50.730000 15.130000
4284   1  2 0.0000 15.130000 50.730000 22.250000
4285   1  2 0.0000 15.130000 50.730000 29.370000
4286   1  2 0.0000 15.130000 50.730000 36.490000
4287   1  2 0.0000 15.130000 50.730000 43.610000
4288   1  2 0.0000 15.130000 50.730000 50.730000
4289   1  2 0.0000 22.250000  0.890000  0.890000
4290   1  2 0.0000 22.250000  0.890000  8.010000
4291   1  2 0.0000 22.250000  0.890000 15.130000
4292   1  2 0.0000 22.250000  0.890000 22.250000
4293   1  2 0.0000 22.250000  0.890000 29.370000
4294   1  2 0.0000 22.250000  0.890000 36.490000
4295   1  2 0.0000 22.250000  0.890000 43.610000
4296   1  2 0.0000 22.250000  0.890000 50.730000
4297   1  2 0.0000 22.250000  8.010000  0.890000
4298   1  2 0.0000 22.250000  8.010000  8.010000
4299   1  2 0.0000 22.250000  8.010000 15.130000
4300   1  2 0.0000 22.250000  8.010000 22.250000
4301   1  2 0.0000 22.250000  8.010000 29.370000
4302   1  2 0.0000 22.250000  8.010000 36.490000
4303   1  2 0.0000 22.250000  8.010000 43.610000
4304   1  2 0.0000 22.250000  8.010000 50.730000
4305   1  2 0.0000 22.250000 15.130000  0.890000
4306   1  2 0.0000 22.250000 15.130000  8.010000
4307   1  2 0.0000 22.250000 15.130000 15.130000
4308   1  2 0.0000 22.250000 15.130000 22.250000
4309   1  2 0.0000 22.250000 15.130000 29.370000
4310   1  2 0.0000 22.250000 15.130000 36.490000
4311   1  2 0.0000 22.250000 15.130000 43.610000
4312   1  2 0.0000 22.250000 15.130000 50.730000
4313   1  2 0.0000 22.250000 22.250000  0.890000
4314   1  2 0.0000 22.250000 22.250000  8.010000
4315   1  2 0.0000 22.250000 22.250000 15.130000
4316   1  2 0.0000 22.250000 22.250000 22.250000
4317   1  2 0.0000 22.250000 22.250000 29.370000
4318   1  2 0.0000 22.250000 22.250000 36.490000
4319   1  2 0.0000 22.250000 22.250000 43.610000
4320   1  2 0.0000 22.250000 22.250000 50.730000
4321   1  2 0.0000 22.250000 29.370000  0.890000
4322   1  2 0.0000 22.250000 29.370000  8.010000
4323   1  2 0.0000 22.250000 29.370000 15.130000
4324   1  2 0.0000 22.250000 29.370000 22.250000
4325   1  2 0.0000 22.250000 29.370000 29.370000
4326   1  2 0.0000 22.250000 29.370000 36.490000
4327   1  2 0.0000 22.250000 29.370000 43.610000
4328   1  2 0.0000 22.250000 29.370000 50.730000
4329   1  2 0.0000 22.250000 36.490000  0.890000
4330   1  2 0.0000 22.250000 36.490000  8.010000
4331   1  2 0.0000 22.250000 36.490000 15.130000
4332   1  2 0.0000 22.250000 36.490000 22.250000
4333   1  2 0.0000 22.250000 36.490000 29.370000
4334   1  2 0.0000 22.250000 36.490000 36.490000
4335   1  2 0.0000 22.250000 36.490000 43.610000
4336   1  2 0.0000 22.250000 36.490000 50.730000
4337   1  2 0.0000 22.250000 43.610000  0.890000
4338   1  2 0.0000 22.250000 43.610000  8.010000
4339   1  2 0.0000 22.250000 43.610000 15.130000
4340   1  2 0.0000 22.250000 43.610000 22.250000
4341   1  2 0.0000 22.250000 43.610000 29.370000
4342   1  2 0.0000 22.250000 43.610000 36.490000
4343   1  2 0.0000 22.250000 43.610000 43.610000
4344   1  2 0.0000 22.250000 43.610000 50.730000
4345   1  2 0.0000 22.250000 50.730000  0.890000
4346   1  2 0.0000 22.250000 50.730000  8.010000
4347   1  2 0.0000 22.250000 50.730000 15.130000
4348   1  2 0.0000 22.250000 50.730000 22.250000
4349   1  2 0.0000 22.250000 50.730000 29.370000
4350   1  2 0.0000 22.250000 50.730000 36.490000
4351   1  2 0.0000 22.250000 50.730000 43.610000
4352   1  2 0.0000 22.250000 50.730000 50.730000
4353   1  2 0.0000 29.370000  0.890000  0.890000
4354   1  2 0.0000 29.370000  0.890000  8.010000
4355   1  2 0.0000 29.370000  0.890000 15.130000
4356   1  2 0.0000 29.370000  0.890000 22.250000
4357   1  2 0.0000 29.370000  0.890000 29.370000
4358   1  2 0.0000 29.370000  0.890000 36.490000
4359   1  2 0.0000 29.370000  0.890000 43.610000
4360   1  2 0.0000 29.370000  0.890000 50.730000
4361   1  2 0.0000 29.370000  8.010000  0.890000
4362   1  2 0.0000 29.370000  8.010000  8.010000
4363   1  2 0.0000 29.370000  8.010000 15.130000
4364   1  2 0.0000 29.370000  8.010000 22.250000
4365   1  2 0.0000 29.370000  8.010000 29.370000
4366   1  2 0.0000 29.370000  8.010000 36.490000
4367   1  2 0.0000 29.370000  8.010000 43.610000
4368   1  2 0.0000 29.370000  8.010000 50.730000
4369   1  2 0.0000 29.370000 15.130000  0.890000
4370   1  2 0.0000 29.370000 15.130000  8.010000
4371   1  2 0.0000 29.370000 15.130000 15.130000
4372   1  2 0.0000 29.370000 15.130000 22.250000
4373   1  2 0.0000 29.370000 15.130000 29.370000
4374   1  2 0.0000 29.370000 15.130000 36.490000
4375   1  2 0.0000 29.370000 15.130000 43.610000
4376   1  2 0.0000 29.370000 15.130000 50.730000
4377   1  2 0.0000 29.370000 22.250000  0.890000
4378   1  2 0.0000 29.370000 22.250000  8.010000
4379   1  2 0.0000 29.370000 22.250000 15.130000
4380   1  2 0.0000 29.370000 22.250000 22.250000
4381   1  2 0.0000 29.370000 22.250000 29.370000
4382   1  2 0.0000 29.370000 22.250000 36.490000
4383   1  2 0.0000 29.370000 22.250000 43.610000
4384   1  2 0.0000 29.370000 22.250000 50.730000
4385   1  2 0.0000 29.370000 29.370000  0.890000
4386   1  2 0.0000 29.370000 29.370000  8.010000
4387   1  2 0.0000 29.370000 29.370000 15.130000
4388   1  2 0.0000 29.370000 29.370000 22.250000
4389   1  2 0.0000 29.370000 29.370000 29.370000
4390   1  2 0.0000 29.370000 29.370000 36.490000
4391   1  2 0.0000 29.370000 29.370000 43.610000
4392   1  2 0.0000 29.370000 29.370000 50.730000
4393   1  2 0.0000 29.370000 36.490000  0.890000
4394   1  2 0.0000 29.370000 36.490000  8.010000
4395   1  2 0.0000 29.370000 36.490000 15.130000
4396   1  2 0.0000 29.370000 36.490000 22.250000
4397   1  2 0.0000 29.370000 36.490000 29.370000
4398   1  2 0.0000 29.370000 36.490000 36.490000
4399   1  2 0.0000 29.370000 36.490000 43.610000
4400   1  2 0.0000 29.370000 36.490000 50.730000
4401   1  2 0.0000 29.370000 43.610000  0.890000
4402   1  2 0.0000 29.370000 43.610000  8.010000
4403   1  2 0.0000 29.370000 43.610000 15.130000
4404   1  2 0.0000 29.370000 43.610000 22.250000
4405   1  2 0.0000 29.370000 43.610000 29.370000
4406   1  2 0.0000 29.370000 43.610000 36.490000
4407   1  2 0.0000 29.370000 43.610000 43.610000
4408   1  2 0.0000 29.370000 43.610000 50.730000
4409   1  2 0.0000 29.370000 50.730000  0.890000
4410   1  2 0.0000 29.370000 50.730000  8.010000
4411   1  2 0.0000 29.370000 50.730000 15.130000
4412   1  2 0.0000 29.370000 50.730000 22.250000
4413   1  2 0.0000 29.370000 50.730000 29.370000
4414   1  2 0.0000 29.370000 50.730000 36.490000
4415   1  2 0.0000 29.370000 50.730000 43.610000
4416   1  2 0.0000 29.370000 50.730000 50.730000
4417   1  2 0.0000 36.490000  0.890000  0.890000
4418   1  2 0.0000 36.490000  0.890000  8.010000
4419   1  2 0.0000 36.490000  0.890000 15.130000
4420   1  2 0.0000 36.490000  0.890000 22.250000
4421   1  2 0.0000 36.490000  0.890000 29.370000
4422   1  2 0.0000 36.490000  0.890000 36.490000
4423   1  2 0.0000 36.490000  0.890000 43.610000
4424   1  2 0.0000 36.490000  0.890000 50.730000
4425   1  2 0.0000 36.490000  8.010000  0.890000
4426   1  2 0.0000 36.490000  8.010000  8.010000
4427   1  2 0.0000 36.490000  8.010000 15.130000
4428   1  2 0.0000 36.490000  8.010000 22.250000
4429   1  2 0.0000 36.490000  8.010000 29.370000
4430   1  2 0.0000 36.490000  8.010000 36.490000
4431   1  2 0.0000 36.490000  8.010000 43.610000
4432   1  2 0.0000 36.490000  8.010000 50.730000
4433   1  2 0.0000 36.490000 15.130000  0.890000
4434   1  2 0.0000 36.490000 15.130000  8.010000
4435   1  2 0.0000 36.490000 15.130000 15.130000
4436   1  2 0.0000 36.490000 15.130000 22.250000
4437   1  2 0.0000 36.490000 15.130000 29.370000
4438   1  2 0.0000 36.490000 15.130000 36.490000
4439   1  2 0.0000 36.490000 15.130000 43.610000
4440   1  2 0.0000 36.490000 15.130000 50.730000
4441   1  2 0.0000 36.490000 22.250000  0.890000
4442   1  2 0.0000 36.490000 22.250000  8.010000
4443   1  2 0.0000 36.490000 22.250000 15.130000
4444   1  2 0.0000 36.490000 22.250000 22.250000
4445   1  2 0.0000 36.490000 22.250000 29.370000
4446   1  2 0.0000 36.490000 22.250000 36.490000
4447   1  2 0.0000 36.490000 22.250000 43.610000
4448   1  2 0.0000 36.490000 22.250000 50.730000
4449   1  2 0.0000 36.490000 29.370000  0.890000
4450   1  2 0.0000 36.490000 29.370000  8.010000
4451   1  2 0.0000 36.490000 29.370000 15.130000
4452   1  2 0.0000 36.490000 29.370000 22.250000
4453   1  2 0.0000 36.490000 29.370000 29.370000
4454   1  2 0.0000 36.490000 29.370000 36.490000
4455   1  2 0.0000 36.490000 29.370000 43.610000
4456   1  2 0.0000 36.490000 29.370000 50.730000
4457   1  2 0.0000 36.490000 36.490000  0.890000
4458   1  2 0.0000 36.490000 36.490000  8.010000
4459   1  2 0.0000 36.490000 36.490000 15.130000
4460   1  2 0.0000 36.490000 36.490000 22.250000
4461   1  2 0.0000 36.490000 36.490000 29.370000
4462   1  2 0.0000 36.490000 36.490000 36.490000
4463   1  2 0.0000 36.490000 36.490000 43.610000
4464   1  2 0.0000 36.490000 36.490000 50.730000
4465   1  2 0.0000 36.490000 43.610000  0.890000
4466   1  2 0.0000 36.490000 43.610000  8.010000
4467   1  2 0.0000 36.490000 43.610000 15.130000
4468   1  2 0.0000 36.490000 43.610000 22.250000
4469   1  2 0.0000 36.490000 43.610000 29.370000
4470   1  2 0.0000 36.490000 43.610000 36.490000
4471   1  2 0.0000 36.490000 43.610000 43.610000
4472   1  2 0.0000 36.490000 43.610000 50.730000
4473   1  2 0.0000 36.490000 50.730000  0.890000
4474   1  2 0.0000 36.490000 50.730000  8.010000
4475   1  2 0.0000 36.490000 50.730000 15.130000
4476   1  2 0.0000 36.490000 50.730000 22.250000
4477   1  2 0.0000 36.490000 50.730000 29.370000
4478   1  2 0.0000 36.490000 50.730000 36.490000
4479   1  2 0.0000 36.490000 50.730000 43.610000
4480   1  2 0.0000 36.490000 50.730000 50.730000
4481   1  2 0.0000 43.610000  0.890000  0.890000
4482   1  2 0.0000 43.610000  0.890000  8.010000
4483   1  2 0.0000 43.610000  0.890000 15.130000
4484   1  2 0.0000 43.610000  0.890000 22.250000
4485   1  2 0.0000 43.610000  0.890000 29.370000
4486   1  2 0.0000 43.610000  0.890000 36.490000
4487   1  2 0.0000 43.610000  0.890000 43.610000
4488   1  2 0.0000 43.610000  0.890000 50.730000
4489   1  2 0.0000 43.610000  8.010000  0.890000
4490   1  2 0.0000 43.610000  8.010000  8.010000
4491   1  2 0.0000 43.610000  8.010000 15.130000
4492   1  2 0.0000 43.610000  8.010000 22.250000
4493   1  2 0.0000 43.610000  8.010000 29.370000
4494   1  2 0.0000 43.610000  8.010000 36.490000
4495   1  2 0.0000 43.610000  8.010000 43.610000
4496   1  2 0.0000 43.610000  8.010000 50.730000
4497   1  2 0.0000 43.610000 15.130000  0.890000
4498   1  2 0.0000 43.610000 15.130000  8.010000
4499   1  2 0.0000 43.610000 15.130000 15.130000
4500   1  2 0.0000 43.610000 15.130000 22.250000
4501   1  2 0.0000 43.610000 15.130000 29.370000
4502   1  2 0.0000 43.610000 15.130000 36.490000
4503   1  2 0.0000 43.610000 15.130000 43.610000
4504   1  2 0.0000 43.610000 15.130000 50.730000
4505   1  2 0.0000 43.610000 22.250000  0.890000
4506   1  2 0.0000 43.610000 22.250000  8.010000
4507   1  2 0.0000 43.610000 22.250000 15.130000
4508   1  2 0.0000 43.610000 22.250000 22.250000
4509   1  2 0.0000 43.610000 22.250000 29.370000
4510   1  2 0.0000 43.610000 22.250000 36.490000
4511   1  2 0.0000 43.610000 22.250000 43.610000
4512   1  2 0.0000 43.610000 22.250000 50.730000
4513   1  2 0.0000 43.610000 29.370000  0.890000
4514   1  2 0.0000 43.610000 29.370000  8.010000
4515   1  2 0.0000 43.610000 29.370000 15.130000
4516   1  2 0.0000 43.610000 29.370000 22.250000
4517   1  2 0.0000 43.610000 29.370000 29.370000
4518   1  2 0.0000 43.610000 29.370000 36.490000
4519   1  2 0.0000 43.610000 29.370000 43.610000
4520   1  2 0.0000 43.610000 29.370000 50.730000
4521   1  2 0.0000 43.610000 36.490000  0.890000
4522   1  2 0.0000 43.610000 36.490000  8.010000
4523   1  2 0.0000 43.610000 36.490000 15.130000
4524   1  2 0.0000 43.610000 36.490000 22.250000
4525   1  2 0.0000 43.610000 36.490000 29.370000
4526   1  2 0.0000 43.610000 36.490000 36.490000
4527   1  2 0.0000 43.610000 36.490000 43.610000
4528   1  2 0.0000 43.610000 36.490000 50.730000
4529   1  2 0.0000 43.610000 43.610000  0.890000
4530   1  2 0.0000 43.610000 43.610000  8.010000
4531   1  2 0.0000 43.610000 43.610000 15.130000
4532   1  2 0.0000 43.610000 43.610000 22.250000
4533   1  2 0.0000 43.610000 43.610000 29.370000
4534   1  2 0.0000 43.610000 43.610000 36.490000
4535   1  2 0.0000 43.610000 43.610000 43.610000
4536   1  2 0.0000 43.610000 43.610000 50.730000
4537   1  2 0.0000 43.610000 50.730000  0.890000
4538   1  2 0.0000 43.610000 50.730000  8.010000
4539   1  2 0.0000 43.610000 50.730000 15.130000
4540   1  2 0.0000 43.610000 50.730000 22.250000
4541   1  2 0.0000 43.610000 50.730000 29.370000
4542   1  2 0.0000 43.610000 50.730000 36.490000
4543   1  2 0.0000 43.610000 50.730000 43.610000
4544   1  2 0.0000 43.610000 50.730000 50.730000
4545   1  2 0.0000 50.730000  0.890000  0.890000
4546   1  2 0.0000 50.730000  0.890000  8.010000
4547   1  2 0.0000 50.730000  0.890000 15.130000
4548   1  2 0.0000 50.730000  0.890000 22.250000
4549   1  2 0.0000 50.730000  0.890000 29.370000
4550   1  2 0.0000 50.730000  0.890000 36.490000
4551   1  2 0.0000 50.730000  0.890000 43.610000
4552   1  2 0.0000 50.730000  0.890000 50.730000
4553   1  2 0.0000 50.730000  8.010000  0.890000
4554   1  2 0.0000 50.730000  8.010000  8.010000
4555   1  2 0.0000 50.730000  8.010000 15.130000
4556   1  2 0.0000 50.730000  8.010000 22.250000
4557   1  2 0.0000 50.730000  8.010000 29.370000
4558   1  2 0.0000 50.730000  8.010000 36.490000
4559   1  2 0.0000 50.730000  8.010000 43.610000
4560   1  2 0.0000 50.730000  8.010000 50.730000
4561   1  2 0.0000 50.730000 15.130000  0.890000
4562   1  2 0.0000 50.730000 15.130000  8.010000
4563   1  2 0.0000 50.730000 15.130000 15.130000
4564   1  2 0.0000 50.730000 15.130000 22.250000
4565   1  2 0.0000 50.730000 15.130000 29.370000
4566   1  2 0.0000 50.730000 15.130000 36.490000
4567   1  2 0.0000 50.730000 15.130000 43.610000
4568   1  2 0.0000 50.730000 15.130000 50.730000
4569   1  2 0.0000 50.730000 22.250000  0.890000
4570   1  2 0.0000 50.730000 22.250000  8.010000
4571   1  2 0.0000 50.730000 22.250000 15.130000
4572   1  2 0.0000 50.730000 22.250000 22.250000
4573   1  2 0.0000 50.730000 22.250000 29.370000
4574   1  2 0.0000 50.730000 22.250000 36.490000
4575   1  2 0.0000 50.730000 22.250000 43.610000
4576   1  2 0.0000 50.730000 22.250000 50.730000
4577   1  2 0.0000 50.730000 29.370000  0.890000
4578   1  2 0.0000 50.730000 29.370000  8.010000
4579   1  2 0.0000 50.730000 29.370000 15.130000
4580   1  2 0.0000 50.730000 29.370000 22.250000
4581   1  2 0.0000 50.730000 29.370000 29.370000
4582   1  2 0.0000 50.730000 29.370000 36.490000
4583   1  2 0.0000 50.730000 29.370000 43.610000
4584   1  2 0.0000 50.730000 29.370000 50.730000
4585   1  2 0.0000 50.730000 36.490000  0.890000
4586   1  2 0.0000 50.730000 36.490000  8.010000
4587   1  2 0.0000 50.730000 36.490000 15.130000
4588   1  2 0.0000 50.730000 36.490000 22.250000
4589   1  2 0.0000 50.730000 36.490000 29.370000
4590   1  2 0.0000 50.730000 36.490000 36.490000
4591   1  2 0.0000 50.730000 36.490000 43.610000
4592   1  2 0.0000 50.730000 36.490000 50.730000
4593   1  2 0.0000 50.730000 43.610000  0.890000
4594   1  2 0.0000 50.730000 43.610000  8.010000
4595   1  2 0.0000 50.730000 43.610000 15.130000
4596   1  2 0.0000 50.730000 43.610000 22.250000
4597   1  2 0.0000 50.730000 43.610000 29.370000
4598   1  2 0.0000 50.730000 43.610000 36.490000
4599   1  2 0.0000 50.730000 43.610000 43.610000
4600   1  2 0.0000 50.730000 43.610000 50.730000
4601   1  2 0.0000 50.730000 50.730000  0.890000
4602   1  2 0.0000 50.730000 50.730000  8.010000
4603   1  2 0.0000 50.730000 50.730000 15.130000
4604   1  2 0.0000 50.730000 50.730000 22.250000
4605   1  2 0.0000 50.730000 50.730000 29.370000
4606   1  2 0.0000 50.730000 50.730000 36.490000
4607   1  2 0.0000 50.730000 50.730000 43.610000
4608   1  2 0.0000 50.730000 50.730000 50.730000
4609   1  2 0.0000  6.230000  0.890000  6.230000
4610   1  2 0.0000  6.230000  0.890000 13.350000
4611   1  2 0.0000  6.230000  0.890000 20.470000
4612   1  2 0.0000  6.230000  0.890000 27.590000
4613   1  2 0.0000  6.230000  0.890000 34.710000
4614   1  2 0.0000  6.230000  0.890000 41.830000
4615   1  2 0.0000  6.230000  0.890000 48.950000
4616   1  2 0.0000  6.230000  0.890000 56.070000
4617   1  2 0.0000  6.230000  8.010000  6.230000
4618   1  2 0.0000  6.230000  8.010000 13.350000
4619   1  2 0.0000  6.230000  8.010000 20.470000
4620   1  2 0.0000  6.230000  8.010000 27.590000
4621   1  2 0.0000  6.230000  8.010000 34.710000
4622   1  2 0.0000  6.230000  8.010000 41.830000
4623   1  2 0.0000  6.230000  8.010000 48.950000
4624   1  2 0.0000  6.230000  8.010000 56.070000
4625   1  2 0.0000  6.230000 15.130000  6.230000
4626   1  2 0.0000  6.230000 15.130000 13.350000
4627   1  2 0.0000  6.230000 15.130000 20.470000
4628   1  2 0.0000  6.230000 15.130000 27.590000
4629   1  2 0.0000  6.230000 15.130000 34.710000
4630   1  2 0.0000  6.230000 15.130000 41.830000
4631   1  2 0.0000  6.230000 15.130000 48.950000
4632   1  2 0.0000  6.230000 15.130000 56.070000
4633   1  2 0.0000  6.230000 22.250000  6.230000
4634   1  2 0.0000  6.230000 22.250000 13.350000
4635   1  2 0.0000  6.230000 22.250000 20.470000
4636   1  2 0.0000  6.230000 22.250000 27.590000
4637   1  2 0.0000  6.230000 22.250000 34.710000
4638   1  2 0.0000  6.230000 22.250000 41.830000
4639   1  2 0.0000  6.230000 22.250000 48.950000
4640   1  2 0.0000  6.230000 22.250000 56.070000
4641   1  2 0.0000  6.230000 29.370000  6.230000
4642   1  2 0.0000  6.230000 29.370000 13.350000
4643   1  2 0.0000  6.230000 29.370000 20.470000
4644   1  2 0.0000  6.230000 29.370000 27.590000
4645   1  2 0.0000  6.230000 29.370000 34.710000
4646   1  2 0.0000  6.230000 29.370000 41.830000
4647   1  2 0.0000  6.230000 29.370000 48.950000
4648   1  2 0.0000  6.230000 29.370000 56.070000
4649   1  2 0.0000  6.230000 36.490000  6.230000
4650   1  2 0.0000  6.230000 36.490000 13.350000
4651   1  2 0.0000  6.230000 36.490000 20.470000
4652   1  2 0.0000  6.230000 36.490000 27.590000
4653   1  2 0.0000  6.230000 36.490000 34.710000
4654   1  2 0.0000  6.230000 36.490000 41.830000
4655   1  2 0.0000  6.230000 36.490000 48.950000
4656   1  2 0.0000  6.230000 36.490000 56.070000
4657   1  2 0.0000  6.230000 43.610000  6.230000
4658   1  2 0.0000  6.230000 43.610000 13.350000
4659   1  2 0.0000  6.230000 43.610000 20.470000
4660   1  2 0.0000  6.230000 43.610000 27.590000
4661   1  2 0.0000  6.230000 43.610000 34.710000
4662   1  2 0.0000  6.230000 43.610000 41.830000
4663   1  2 0.0000  6.230000 43.610000 48.950000
4664   1  2 0.0000  6.230000 43.610000 56.070000
4665   1  2 0.0000  6.230000 50.730000  6.230000
4666   1  2 0.0000  6.230000 50.730000 13.350000
4667   1  2 0.0000  6.230000 50.730000 20.470000
4668   1  2 0.0000  6.230000 50.730000 27.590000
4669   1  2 0.0000  6.230000 50.730000 34.710000
4670   1  2 0.0000  6.230000 50.730000 41.830000
4671   1  2 0.0000  6.230000 50.730000 48.950000
4672   1  2 0.0000  6.230000 50.730000 56.070000
4673   1  2 0.0000 13.350000  0.890000  6.230000
4674   1  2 0.0000 13.350000  0.890000 13.350000
4675   1  2 0.0000 13.350000  0.890000 20.470000
4676   1  2 0.0000 13.350000  0.890000 27.590000
4677   1  2 0.0000 13.350000  0.890000 34.710000
4678   1  2 0.0000 13.350000  0.890000 41.830000
4679   1  2 0.0000 13.350000  0.890000 48.950000
4680   1  2 0.0000 13.350000  0.890000 56.070000
4681   1  2 0.0000 13.350000  8.010000  6.230000
4682   1  2 0.0000 13.350000  8.010000 13.350000
4683   1  2 0.0000 13.350000  8.010000 20.470000
4684   1  2 0.0000 13.350000  8.010000 27.590000
4685   1  2 0.0000 13.350000  8.010000 34.710000
4686   1  2 0.0000 13.350000  8.010000 41.830000
4687   1  2 0.0000 13.350000  8.010000 48.950000
4688   1  2 0.0000 13.350000  8.010000 56.070000
4689   1  2 0.0000 13.350000 15.130000  6.230000
4690   1  2 0.0000 13.350000 15.130000 13.350000
4691   1  2 0.0000 13.350000 15.130000 20.470000
4692   1  2 0.0000 13.350000 15.130000 27.590000
4693   1  2 0.0000 13.350000 15.130000 34.710000
4694   1  2 0.0000 13.350000 15.130000 41.830000
4695   1  2 0.0000 13.350000 15.130000 48.950000
4696   1  2 0.0000 13.350000 15.130000 56.070000
4697   1  2 0.0000 13.350000 22.250000  6.230000
4698   1  2 0.0000 13.350000 22.250000 13.350000
4699   1  2 0.0000 13.350000 22.250000 20.470000
4700   1  2 0.0000 13.350000 22.250000 27.590000
4701   1  2 0.0000 13.350000 22.250000 34.710000
4702   1  2 0.0000 13.350000 22.250000 41.830000
4703   1  2 0.0000 13.350000 22.250000 48.950000
4704   1  2 0.0000 13.350000 22.250000 56.070000
4705   1  2 0.0000 13.350000 29.370000  6.230000
4706   1  2 0.0000 13.350000 29.370000 13.350000
4707   1  2 0.0000 13.350000 29.370000 20.470000
4708   1  2 0.0000 13.350000 29.370000 27.590000
4709   1  2 0.0000 13.350000 29.370000 34.710000
4710   1  2 0.0000 13.350000 29.370000 41.830000
4711   1  2 0.0000 13.350000 29.370000 48.950000
4712   1  2 0.0000 13.350000 29.370000 56.070000
4713   1  2 0.0000 13.350000 36.490000  6.230000
4714   1  2 0.0000 13.350000 36.490000 13.350000
4715   1  2 0.0000 13.350000 36.490000 20.470000
4716   1  2 0.0000 13.350000 36.490000 27.590000
4717   1  2 0.0000 13.350000 36.490000 34.710000
4718   1  2 0.0000 13.350000 36.490000 41.830000
4719   1  2 0.0000 13.350000 36.490000 48.950000
4720   1  2 0.0000 13.350000 36.490000 56.070000
4721   1  2 0.0000 13.350000 43.610000  6.230000
4722   1  2 0.0000 13.350000 43.610000 13.350000
4723   1  2 0.0000 13.350000 43.610000 20.470000
4724   1  2 0.0000 13.350000 43.610000 27.590000
4725   1  2 0.0000 13.350000 43.610000 34.710000
4726   1  2 0.0000 13.350000 43.610000 41.830000
4727   1  2 0.0000 13.350000 43.610000 48.950000
4728   1  2 0.0000 13.350000 43.610000 56.070000
4729   1  2 0.0000 13.350000 50.730000  6.230000
4730   1  2 0.0000 13.350000 50.730000 13.350000
4731   1  2 0.0000 13.350000 50.730000 20.470000
4732   1  2 0.0000 13.350000 50.730000 27.590000
4733   1  2 0.0000 13.350000 50.730000 34.710000
4734   1  2 0.0000 13.350000 50.730000 41.830000
4735   1  2 0.0000 13.350000 50.730000 48.950000
4736   1  2 0.0000 13.350000 50.730000 56.070000
4737   1  2 0.0000 20.470000  0.890000  6.230000
4738   1  2 0.0000 20.470000  0.890000 13.350000
4739   1  2 0.0000 20.470000  0.890000 20.470000
4740   1  2 0.0000 20.470000  0.890000 27.590000
4741   1  2 0.0000 20.470000  0.890000 34.710000
4742   1  2 0.0000 20.470000  0.890000 41.830000
4743   1  2 0.0000 20.470000  0.890000 48.950000
4744   1  2 0.0000 20.470000  0.890000 56.070000
4745   1  2 0.0000 20.470000  8.010000  6.230000
4746   1  2 0.0000 20.470000  8.010000 13.350000
4747   1  2 0.0000 20.470000  8.010000 20.470000
4748   1  2 0.0000 20.470000  8.010000 27.590000
4749   1  2 0.0000 20.470000  8.010000 34.710000
4750   1  2 0.0000 20.470000  8.010000 41.830000
4751   1  2 0.0000 20.470000  8.010000 48.950000
4752   1  2 0.0000 20.470000  8.010000 56.070000
4753   1  2 0.0000 20.470000 15.130000  6.230000
4754   1  2 0.0000 20.470000 15.130000 13.350000
4755   1  2 0.0000 20.470000 15.130000 20.470000
4756   1  2 0.0000 20.470000 15.130000 27.590000
4757   1  2 0.0000 20.470000 15.130000 34.710000
4758   1  2 0.0000 20.470000 15.130000 41.830000
4759   1  2 0.0000 20.470000 15.130000 48.950000
4760   1  2 0.0000 20.470000 15.130000 56.070000
4761   1  2 0.0000 20.470000 22.250000  6.230000
4762   1  2 0.0000 20.470000 22.250000 13.350000
4763   1  2 0.0000 20.470000 22.250000 20.470000
4764   1  2 0.0000 20.470000 22.250000 27.590000
4765   1  2 0.0000 20.470000 22.250000 34.710000
4766   1  2 0.0000 20.470000 22.250000 41.830000
4767   1  2 0.0000 20.470000 22.250000 48.950000
4768   1  2 0.0000 20.470000 22.250000 56.070000
4769   1  2 0.0000 20.470000 29.370000  6.230000
4770   1  2 0.0000 20.470000 29.370000 13.350000
4771   1  2 0.0000 20.470000 29.370000 20.470000
4772   1  2 0.0000 20.470000 29.370000 27.590000
4773   1  2 0.0000 20.470000 29.370000 34.710000
4774   1  2 0.0000 20.470000 29.370000 41.830000
4775   1  2 0.0000 20.470000 29.370000 48.950000
4776   1  2 0.0000 20.470000 29.370000 56.070000
4777   1  2 0.0000 20.470000 36.490000  6.230000
4778   1  2 0.0000 20.470000 36.490000 13.350000
4779   1  2 0.0000 20.470000 36.490000 20.470000
4780   1  2 0.0000 20.470000 36.490000 27.590000
4781   1  2 0.0000 20.470000 36.490000 34.710000
4782   1  2 0.0000 20.470000 36.490000 41.830000
4783   1  2 0.0000 20.470000 36.490000 48.950000
4784   1  2 0.0000 20.470000 36.490000 56.070000
4785   1  2 0.0000 20.470000 43.610000  6.230000
4786   1  2 0.0000 20.470000 43.610000 13.350000
4787   1  2 0.0000 20.470000 43.610000 20.470000
4788   1  2 0.0000 20.470000 43.610000 27.590000
4789   1  2 0.0000 20.470000 43.610000 34.710000
4790   1  2 0.0000 20.470000 43.610000 41.830000
4791   1  2 0.0000 20.470000 43.610000 48.950000
4792   1  2 0.0000 20.470000 43.610000 56.070000
4793   1  2 0.0000 20.470000 50.730000  6.230000
4794   1  2 0.0000 20.470000 50.730000 13.350000
4795   1  2 0.0000 20.470000 50.730000 20.470000
4796   1  2 0.0000 20.470000 50.730000 27.590000
4797   1  2 0.0000 20.470000 50.730000 34.710000
4798   1  2 0.0000 20.470000 50.730000 41.830000
4799   1  2 0.0000 20.470000 50.730000 48.950000
4800   1  2 0.0000 20.470000 50.730000 56.070000
4801   1  2 0.0000 27.590000  0.890000  6.230000
4802   1  2 0.0000 27.590000  0.890000 13.350000
4803   1  2 0.0000 27.590000  0.890000 20.470000
4804   1  2 0.0000 27.590000  0.890000 27.590000
4805   1  2 0.0000 27.590000  0.890000 34.710000
4806   1  2 0.0000 27.590000  0.890000 41.830000
4807   1  2 0.0000 27.590000  0.890000 48.950000
4808   1  2 0.0000 27.590000  0.890000 56.070000
4809   1  2 0.0000 27.590000  8.010000  6.230000
4810   1  2 0.0000 27.590000  8.010000 13.350000
4811   1  2 0.0000 27.590000  8.010000 20.470000
4812   1  2 0.0000 27.590000  8.010000 27.590000
4813   1  2 0.0000 27.590000  8.010000 34.710000
4814   1  2 0.0000 27.590000  8.010000 41.830000
4815   1  2 0.0000 27.590000  8.010000 48.950000
4816   1  2 0.0000 27.590000  8.010000 56.070000
4817   1  2 0.0000 27.590000 15.130000  6.230000
4818   1  2 0.0000 27.590000 15.130000 13.350000
4819   1  2 0.0000 27.590000 15.130000 20.470000
4820   1  2 0.0000 27.590000 15.130000 27.590000
4821   1  2 0.0000 27.590000 15.130000 34.710000
4822   1  2 0.0000 27.590000 15.130000 41.830000
4823   1  2 0.0000 27.590000 15.130000 48.950000
4824   1  2 0.0000 27.590000 15.130000 56.070000
4825   1  2 0.0000 27.590000 22.250000  6.230000
4826   1  2 0.0000 27.590000 22.250000 13.350000
4827   1  2 0.0000 27.590000 22.250000 20.470000
4828   1  2 0.0000 27.590000 22.250000 27.590000
4829   1  2 0.0000 27.590000 22.250000 34.710000
4830   1  2 0.0000 27.590000 22.250000 41.830000
4831   1  2 0.0000 27.590000 22.250000 48.950000
4832   1  2 0.0000 27.590000 22.250000 56.070000
4833   1  2 0.0000 27.590000 29.370000  6.230000
4834   1  2 0.0000 27.590000 29.370000 13.350000
4835   1  2 0.0000 27.590000 29.370000 20.470000
4836   1  2 0.0000 27.590000 29.370000 27.590000
4837   1  2 0.0000 27.590000 29.370000 34.710000
4838   1  2 0.0000 27.590000 29.370000 41.830000
4839   1  2 0.0000 27.590000 29.370000 48.950000
4840   1  2 0.0000 27.590000 29.370000 56.070000
4841   1  2 0.0000 27.590000 36.490000  6.230000
4842   1  2 0.0000 27.590000 36.490000 13.350000
4843   1  2 0.0000 27.590000 36.490000 20.470000
4844   1  2 0.0000 27.590000 36.490000 27.590000
4845   1  2 0.0000 27.590000 36.490000 34.710000
4846   1  2 0.0000 27.590000 36.490000 41.830000
4847   1  2 0.0000 27.590000 36.490000 48.950000
4848   1  2 0.0000 27.590000 36.490000 56.070000
4849   1  2 0.0000 27.590000 43.610000  6.230000
4850   1  2 0.0000 27.590000 43.610000 13.350000
4851   1  2 0.0000 27.590000 43.610000 20.470000
4852   1  2 0.0000 27.590000 43.610000 27.590000
4853   1  2 0.0000 27.590000 43.610000 34.710000
4854   1  2 0.0000 27.590000 43.610000 41.830000
4855   1  2 0.0000 27.590000 43.610000 48.950000
4856   1  2 0.0000 27.590000 43.610000 56.070000
4857   1  2 0.0000 27.590000 50.730000  6.230000
4858   1  2 0.0000 27.590000 50.730000 13.350000
4859   1  2 0.0000 27.590000 50.730000 20.470000
4860   1  2 0.0000 27.590000 50.730000 27.590000
4861   1  2 0.0000 27.590000 50.730000 34.710000
4862   1  2 0.0000 27.590000 50.730000 41.830000
4863   1  2 0.0000 27.590000 50.730000 48.950000
4864   1  2 0.0000 27.590000 50.730000 56.070000
4865   1  2 0.0000 34.710000  0.890000  6.230000
4866   1  2 0.0000 34.710000  0.890000 13.350000
4867   1  2 0.0000 34.710000  0.890000 20.470000
4868   1  2 0.0000 34.710000  0.890000 27.590000
4869   1  2 0.0000 34.710000  0.890000 34.710000
4870   1  2 0.0000 34.710000  0.890000 41.830000
4871   1  2 0.0000 34.710000  0.890000 48.950000
4872   1  2 0.0000 34.710000  0.890000 56.070000
4873   1  2 0.0000 34.710000  8.010000  6.230000
4874   1  2 0.0000 34.710000  8.010000 13.350000
4875   1  2 0.0000 34.710000  8.010000 20.470000
4876   1  2 0.0000 34.710000  8.010000 27.590000
4877   1  2 0.0000 34.710000  8.010000 34.710000
4878   1  2 0.0000 34.710000  8.010000 41.830000
4879   1  2 0.0000 34.710000  8.010000 48.950000
4880   1  2 0.0000 34.710000  8.010000 56.070000
4881   1  2 0.0000 34.710000 15.130000  6.230000
4882   1  2 0.0000 34.710000 15.130000 13.350000
4883   1  2 0.0000 34.710000 15.130000 20.470000
4884   1  2 0.0000 34.710000 15.130000 27.590000
4885   1  2 0.0000 34.710000 15.130000 34.710000
4886   1  2 0.0000 34.710000 15.130000 41.830000
4887   1  2 0.0000 34.710000 15.130000 48.950000
4888   1  2 0.0000 34.710000 15.130000 56.070000
4889   1  2 0.0000 34.710000 22.250000  6.230000
4890   1  2 0.0000 34.710000 22.250000 13.350000
4891   1  2 0.0000 34.710000 22.250000 20.470000
4892   1  2 0.0000 34.710000 22.250000 27.590000
4893   1  2 0.0000 34.710000 22.250000 34.710000
4894   1  2 0.0000 34.710000 22.250000 41.830000
4895   1  2 0.0000 34.710000 22.250000 48.950000
4896   1  2 0.0000 34.710000 22.250000 56.070000
4897   1  2 0.0000 34.710000 29.370000  6.230000
4898   1  2 0.0000 34.710000 29.370000 13.350000
4899   1  2 0.0000 34.710000 29.370000 20.470000
4900   1  2 0.0000 34.710000 29.370000 27.590000
4901   1  2 0.0000 34.710000 29.370000 34.710000
4902   1  2 0.0000 34.710000 29.370000 41.830000
4903   1  2 0.0000 34.710000 29.370000 48.950000
4904   1  2 0.0000 34.710000 29.370000 56.070000
4905   1  2 0.0000 34.710000 36.490000  6.230000
4906   1  2 0.0000 34.710000 36.490000 13.350000
4907   1  2 0.0000 34.710000 36.490000 20.470000
4908   1  2 0.0000 34.710000 36.490000 27.590000
4909   1  2 0.0000 34.710000 36.490000 34.710000
4910   1  2 0.0000 34.710000 36.490000 41.830000
4911   1  2 0.0000 34.710000 36.490000 48.950000
4912   1  2 0.0000 34.710000 36.490000 56.070000
4913   1  2 0.0000 34.710000 43.610000  6.230000
4914   1  2 0.0000 34.710000 43.610000 13.350000
4915   1  2 0.0000 34.710000 43.610000 20.470000
4916   1  2 0.0000 34.710000 43.610000 27.590000
4917   1  2 0.0000 34.710000 43.610000 34.710000
4918   1  2 0.0000 34.710000 43.610000 41.830000
4919   1  2 0.0000 34.710000 43.610000 48.950000
4920   1  2 0.0000 34.710000 43.610000 56.070000
4921   1  2 0.0000 34.710000 50.730000  6.230000
4922   1  2 0.0000 34.710000 50.730000 13.350000
4923   1  2 0.0000 34.710000 50.730000 20.470000
4924   1  2 0.0000 34.710000 50.730000 27.590000
4925   1  2 0.0000 34.710000 50.730000 34.710000
4926   1  2 0.0000 34.710000 50.730000 41.830000
4927   1  2 0.0000 34.710000 50.730000 48.950000
4928   1  2 0.0000 34.710000 50.730000 56.070000
4929   1  2 0.0000 41.830000  0.890000  6.230000
4930   1  2 0.0000 41.830000  0.890000 13.350000
4931   1  2 0.0000 41.830000  0.890000 20.470000
4932   1  2 0.0000 41.830000  0.890000 27.590000
4933   1  2 0.0000 41.830000  0.890000 34.710000
4934   1  2 0.0000 41.830000  0.890000 41.830000
4935   1  2 0.0000 41.830000  0.890000 48.950000
4936   1  2 0.0000 41.830000  0.890000 56.070000
4937   1  2 0.0000 41.830000  8.010000  6.230000
4938   1  2 0.0000 41.830000  8.010000 13.350000
4939   1  2 0.0000 41.830000  8.010000 20.470000
4940   1  2 0.0000 41.830000  8.010000 27.590000
4941   1  2 0.0000 41.830000  8.010000 34.710000
4942   1  2 0.0000 41.830000  8.010000 41.830000
4943   1  2 0.0000 41.830000  8.010000 48.950000
4944   1  2 0.0000 41.830000  8.010000 56.070000
4945   1  2 0.0000 41.830000 15.130000  6.230000
4946   1  2 0.0000 41.830000 15.130000 13.350000
4947   1  2 0.0000 41.830000 15.130000 20.470000
4948   1  2 0.0000 41.830000 15.130000 27.590000
4949   1  2 0.0000 41.830000 15.130000 34.710000
4950   1  2 0.0000 41.830000 15.130000 41.830000
4951   1  2 0.0000 41.830000 15.130000 48.950000
4952   1  2 0.0000 41.830000 15.130000 56.070000
4953   1  2 0.0000 41.830000 22.250000  6.230000
4954   1  2 0.0000 41.830000 22.250000 13.350000
4955   1  2 0.0000 41.830000 22.250000 20.470000
4956   1  2 0.0000 41.830000 22.250000 27.590000
4957   1  2 0.0000 41.830000 22.250000 34.710000
4958   1  2 0.0000 41.830000 22.250000 41.830000
4959   1  2 0.0000 41.830000 22.250000 48.950000
4960   1  2 0.0000 41.830000 22.250000 56.070000
4961   1  2 0.0000 41.830000 29.370000  6.230000
4962   1  2 0.0000 41.830000 29.370000 13.350000
4963   1  2 0.0000 41.830000 29.370000 20.470000
4964   1  2 0.0000 41.830000 29.370000 27.590000
4965   1  2 0.0000 41.830000 29.370000 34.710000
4966   1  2 0.0000 41.830000 29.370000 41.830000
4967   1  2 0.0000 41.830000 29.370000 48.950000
4968   1  2 0.0000 41.830000 29.370000 56.070000
4969   1  2 0.0000 41.830000 36.490000  6.230000
4970   1  2 0.0000 41.830000 36.490000 13.350000
4971   1  2 0.0000 41.830000 36.490000 20.470000
4972   1  2 0.0000 41.830000 36.490000 27.590000
4973   1  2 0.0000 41.830000 36.490000 34.710000
4974   1  2 0.0000 41.830000 36.490000 41.830000
4975   1  2 0.0000 41.830000 36.490000 48.950000
4976   1  2 0.0000 41.830000 36.490000 56.070000
4977   1  2 0.0000 41.830000 43.610000  6.230000
4978   1  2 0.0000 41.830000 43.610000 13.350000
4979   1  2 0.0000 41.830000 43.610000 20.470000
4980   1  2 0.0000 41.830000 43.610000 27.590000
4981   1  2 0.0000 41.830000 43.610000 34.710000
4982   1  2 0.0000 41.830000 43.610000 41.830000
4983   1  2 0.0000 41.830000 43.610000 48.950000
4984   1  2 0.0000 41.830000 43.610000 56.070000
4985   1  2 0.0000 41.830000 50.730000  6.230000
4986   1  2 0.0000 41.830000 50.730000 13.350000
4987   1  2 0.0000 41.830000 50.730000 20.470000
4988   1  2 0.0000 41.830000 50.730000 27.590000
4989   1  2 0.0000 41.830000 50.730000 34.710000
4990   1  2 0.0000 41.830000 50.730000 41.830000
4991   1  2 0.0000 41.830000 50.730000 48.950000
4992   1  2 0.0000 41.830000 50.730000 56.070000
4993   1  2 0.0000 48.950000  0.890000  6.230000
4994   1  2 0.0000 48.950000  0.890000 13.350000
4995   1  2 0.0000 48.950000  0.890000 20.470000
4996   1  2 0.0000 48.950000  0.890000 27.590000
4997   1  2 0.0000 48.950000  0.890000 34.710000
4998   1  2 0.0000 48.950000  0.890000 41.830000
4999   1  2 0.0000 48.950000  0.890000 48.950000
5000   1  2 0.0000 48.950000  0.890000 56.070000
5001   1  2 0.0000 48.950000  8.010000  6.230000
5002   1  2 0.0000 48.950000  8.010000 13.350000
5003   1  2 0.0000 48.950000  8.010000 20.470000
5004   1  2 0.0000 48.950000  8.010000 27.590000
5005   1  2 0.0000 48.950000  8.010000 34.710000
5006   1  2 0.0000 48.950000  8.010000 41.830000
5007   1  2 0.0000 48.950000  8.010000 48.950000
5008   1  2 0.0000 48.950000  8.010000 56.070000
5009   1  2 0.0000 48.950000 15.130000  6.230000
5010   1  2 0.0000 48.950000 15.130000 13.350000
5011   1  2 0.0000 48.950000 15.130000 20.470000
5012   1  2 0.0000 48.950000 15.130000 27.590000
5013   1  2 0.0000 48.950000 15.130000 34.710000
5014   1  2 0.0000 48.950000 15.130000 41.830000
5015   1  2 0.0000 48.950000 15.130000 48.950000
5016   1  2 0.0000 48.950000 15.130000 56.070000
5017   1  2 0.0000 48.950000 22.250000  6.230000
5018   1  2 0.0000 48.950000 22.250000 13.350000
5019   1  2 0.0000 48.950000 22.250000 20.470000
5020   1  2 0.0000 48.950000 22.250000 27.590000
5021   1  2 0.0000 48.950000 22.250000 34.710000
5022   1  2 0.0000 48.950000 22.250000 41.830000
5023   1  2 0.0000 48.950000 22.250000 48.950000
5024   1  2 0.0000 48.950000 22.250000 56.070000
5025   1  2 0.0000 48.950000 29.370000  6.230000
5026   1  2 0.0000 48.950000 29.370000 13.350000
5027   1  2 0.0000 48.950000 29.370000 20.470000
5028   1  2 0.0000 48.950000 29.370000 27.590000
5029   1  2 0.0000 48.950000 29.370000 34.710000
5030   1  2 0.0000 48.950000 29.370000 41.830000
5031   1  2 0.0000 48.950000 29.370000 48.950000
5032   1  2 0.0000 48.950000 29.370000 56.070000
5033   1  2 0.0000 48.950000 36.490000  6.230000
5034   1  2 0.0000 48.950000 36.490000 13.350000
5035   1  2 0.0000 48.950000 36.490000 20.470000
5036   1  2 0.0000 48.950000 36.490000 27.590000
5037   1  2 0.0000 48.950000 36.490000 34.710000
5038   1  2 0.0000 48.950000 36.490000 41.830000
5039   1  2 0.0000 48.950000 36.490000 48.950000
5040   1  2 0.0000 48.950000 36.490000 56.070000
5041   1  2 0.0000 48.950000 43.610000  6.230000
5042   1  2 0.0000 48.950000 43.610000 13.350000
5043   1  2 0.0000 48.950000 43.610000 20.470000
5044   1  2 0.0000 48.950000 43.610000 27.590000
5045   1  2 0.0000 48.950000 43.610000 34.710000
5046   1  2 0.0000 48.950000 43.610000 41.830000
5047   1  2 0.0000 48.950000 43.610000 48.950000
5048   1  2 0.0000 48.950000 43.610000 56.070000
5049   1  2 0.0000 48.950000 50.730000  6.230000
5050   1  2 0.0000 48.950000 50.730000 13.350000
5051   1  2 0.0000 48.950000 50.730000 20.470000
5052   1  2 0.0000 48.950000 50.730000 27.590000
5053   1  2 0.0000 48.950000 50.730000 34.710000
5054   1  2 0.0000 48.950000 50.730000 41.830000
5055   1  2 0.0000 48.950000 50.730000 48.950000
5056   1  2 0.0000 48.950000 50.730000 56.070000
5057   1  2 0.0000 56.070000  0.890000  6.230000
5058   1  2 0.0000 56.070000  0.890000 13.350000
5059   1  2 0.0000 56.070000  0.890000 20.470000
5060   1  2 0.0000 56.070000  0.890000 27.590000
5061   1  2 0.0000 56.070000  0.890000 34.710000
5062   1  2 0.0000 56.070000  0.890000 41.830000
5063   1  2 0.0000 56.070000  0.890000 48.950000
5064   1  2 0.0000 56.070000  0.890000 56.070000
5065   1  2 0.0000 56.070000  8.010000  6.230000
5066   1  2 0.0000 56.070000  8.010000 13.350000
5067   1  2 0.0000 56.070000  8.010000 20.470000
5068   1  2 0.0000 56.070000  8.010000 27.590000
5069   1  2 0.0000 56.070000  8.010000 34.710000
5070   1  2 0.0000 56.070000  8.010000 41.830000
5071   1  2 0.0000 56.070000  8.010000 48.950000
5072   1  2 0.0000 56.070000  8.010000 56.070000
5073   1  2 0.0000 56.070000 15.130000  6.230000
5074   1  2 0.0000 56.070000 15.130000 13.350000
5075   1  2 0.0000 56.070000 15.130000 20.470000
5076   1  2 0.0000 56.070000 15.130000 27.590000
5077   1  2 0.0000 56.070000 15.130000 34.710000
5078   1  2 0.0000 56.070000 15.130000 41.830000
5079   1  2 0.0000 56.070000 15.130000 48.950000
5080   1  2 0.0000 56.070000 15.130000 56.070000
5081   1  2 0.0000 56.070000 22.250000  6.230000
5082   1  2 0.0000 56.070000 22.250000 13.350000
5083   1  2 0.0000 56.070000 22.250000 20.470000
5084   1  2 0.0000 56.070000 22.250000 27.590000
5085   1  2 0.0000 56.070000 22.250000 34.710000
5086   1  2 0.0000 56.070000 22.250000 41.830000
5087   1  2 0.0000 56.070000 22.250000 48.950000
5088   1  2 0.0000 56.070000 22.250000 56.070000
5089   1  2 0.0000 56.070000 29.370000  6.230000
5090   1  2 0.0000 56.070000 29.370000 13.350000
5091   1  2 0.0000 56.070000 29.370000 20.470000
5092   1  2 0.0000 56.070000 29.370000 27.590000
5093   1  2 0.0000 56.070000 29.370000 34.710000
5094   1  2 0.0000 56.070000 29.370000 41.830000
5095   1  2 0.0000 56.070000 29.370000 48.950000
5096   1  2 0.0000 56.070000 29.370000 56.070000
5097   1  2 0.0000 56.070000 36.490000  6.230000
5098   1  2 0.0000 56.070000 36.490000 13.350000
5099   1  2 0.0000 56.070000 36.490000 20.470000
5100   1  2 0.0000 56.070000 36.490000 27.590000
5101   1  2 0.0000 56.070000 36.490000 34.710000
5102   1  2 0.0000 56.070000 36.490000 41.830000
5103   1  2 0.0000 56.070000 36.490000 48.950000
5104   1  2 0.0000 56.070000 36.490000 56.070000
5105   1  2 0.0000 56.070000 43.610000  6.230000
5106   1  2 0.0000 56.070000 43.610000 13.350000
5107   1  2 0.0000 56.070000 43.610000 20.470000
5108   1  2 0.0000 56.070000 43.610000 27.590000
5109   1  2 0.0000 56.070000 43.610000 34.710000
5110   1  2 0.0000 56.070000 43.610000 41.830000
5111   1  2 0.0000 56.070000 43.610000 48.950000
5112   1  2 0.0000 56.070000 43.610000 56.070000
5113   1  2 0.0000 56.070000 50.730000  6.230000
5114   1  2 0.0000 56.070000 50.730000 13.350000
5115   1  2 0.0000 56.070000 50.730000 20.470000
5116   1  2 0.0000 56.070000 50.730000 27.590000
5117   1  2 0.0000 56.070000 50.730000 34.710000
5118   1  2 0.0000 56.070000 50.730000 41.830000
5119   1  2 0.0000 56.070000 50.730000 48.950000
5120   1  2 0.0000 56.070000 50.730000 56.070000
5121   1  2 0.0000  0.890000  6.230000  6.230000
5122   1  2 0.0000  0.890000  6.230000 13.350000
5123   1  2 0.0000  0.890000  6.230000 20.470000
5124   1  2 0.0000  0.890000  6.230000 27.590000
5125   1  2 0.0000  0.890000  6.230000 34.710000
5126   1  2 0.0000  0.890000  6.230000 41.830000
5127   1  2 0.0000  0.890000  6.230000 48.950000
5128   1  2 0.0000  0.890000  6.230000 56.070000
5129   1  2 0.0000  0.890000 13.350000  6.230000
5130   1  2 0.0000  0.890000 13.350000 13.350000
5131   1  2 0.0000  0.890000 13.350000 20.470000
5132   1  2 0.0000  0.890000 13.350000 27.590000
5133   1  2 0.0000  0.890000 13.350000 34.710000
5134   1  2 0.0000  0.890000 13.350000 41.830000
5135   1  2 0.0000  0.890000 13.350000 48.950000
5136   1  2 0.0000  0.890000 13.350000 56.070000
5137   1  2 0.0000  0.890000 20.470000  6.230000
5138   1  2 0.0000  0.890000 20.470000 13.350000
5139   1  2 0.0000  0.890000 20.470000 20.470000
5140   1  2 0.0000  0.890000 20.470000 27.590000
5141   1  2 0.0000  0.890000 20.470000 34.710000
5142   1  2 0.0000  0.890000 20.470000 41.830000
5143   1  2 0.0000  0.890000 20.470000 48.950000
5144   1  2 0.0000  0.890000 20.470000 56.070000
5145   1  2 0.0000  0.890000 27.590000  6.230000
5146   1  2 0.0000  0.890000 27.590000 13.350000
5147   1  2 0.0000  0.890000 27.590000 20.470000
5148   1  2 0.0000  0.890000 27.590000 27.590000
5149   1  2 0.0000  0.890000 27.590000 34.710000
5150   1  2 0.0000  0.890000 27.590000 41.830000
5151   1  2 0.0000  0.890000 27.590000 48.950000
5152   1  2 0.0000  0.890000 27.590000 56.070000
5153   1  2 0.0000  0.890000 34.710000  6.230000
5154   1  2 0.0000  0.890000 34.710000 13.350000
5155   1  2 0.0000  0.890000 34.710000 20.470000
5156   1  2 0.0000  0.890000 34.710000 27.590000
5157   1  2 0.0000  0.890000 34.710000 34.710000
5158   1  2 0.0000  0.890000 34.710000 41.830000
5159   1  2 0.0000  0.890000 34.710000 48.950000
5160   1  2 0.0000  0.890000 34.710000 56.070000
5161   1  2 0.0000  0.890000 41.830000  6.230000
5162   1  2 0.0000  0.890000 41.830000 13.350000
5163   1  2 0.0000  0.890000 41.830000 20.470000
5164   1  2 0.0000  0.890000 41.830000 27.590000
5165   1  2 0.0000  0.890000 41.830000 34.710000
5166   1  2 0.0000  0.890000 41.830000 41.830000
5167   1  2 0.0000  0.890000 41.830000 48.950000
5168   1  2 0.0000  0.890000 41.830000 56.070000
5169   1  2 0.0000  0.890000 48.950000  6.230000
5170   1  2 0.0000  0.890000 48.950000 13.350000
5171   1  2 0.0000  0.890000 48.950000 20.470000
5172   1  2 0.0000  0.890000 48.950000 27.590000
5173   1  2 0.0000  0.890000 48.950000 34.710000
5174   1  2 0.0000  0.890000 48.950000 41.830000
5175   1  2 0.0000  0.890000 48.950000 48.950000
5176   1  2 0.0000  0.890000 48.950000 56.070000
5177   1  2 0.0000  0.890000 56.070000  6.230000
5178   1  2 0.0000  0.890000 56.070000 13.350000
5179   1  2 0.0000  0.890000 56.070000 20.470000
5180   1  2 0.0000  0.890000 56.070000 27.590000
5181   1  2 0.0000  0.890000 56.070000 34.710000
5182   1  2 0.0000  0.890000 56.070000 41.830000
5183   1  2 0.0000  0.890000 56.070000 48.950000
5184   1  2 0.0000  0.890000 56.070000 56.070000
5185   1  2 0.0000  8.010000  6.230000  6.230000
5186   1  2 0.0000  8.010000  6.230000 13.350000
5187   1  2 0.0000  8.010000  6.230000 20.470000
5188   1  2 0.0000  8.010000  6.230000 27.590000
5189   1  2 0.0000  8.010000  6.230000 34.710000
5190   1  2 0.0000  8.010000  6.230000 41.830000
5191   1  2 0.0000  8.010000  6.230000 48.950000
5192   1  2 0.0000  8.010000  6.230000 56.070000
5193   1  2 0.0000  8.010000 13.350000  6.230000
5194   1  2 0.0000  8.010000 13.350000 13.350000
5195   1  2 0.0000  8.010000 13.350000 20.470000
5196   1  2 0.0000  8.010000 13.350000 27.590000
5197   1  2 0.0000  8.010000 13.350000 34.710000
5198   1  2 0.0000  8.010000 13.350000 41.830000
5199   1  2 0.0000  8.010000 13.350000 48.950000
5200   1  2 0.0000  8.010000 13.350000 56.070000
5201   1  2 0.0000  8.010000 20.470000  6.230000
5202   1  2 0.0000  8.010000 20.470000 13.350000
5203   1  2 0.0000  8.010000 20.470000 20.470000
5204   1  2 0.0000  8.010000 20.470000 27.590000
5205   1  2 0.0000  8.010000 20.470000 34.710000
5206   1  2 0.0000  8.010000 20.470000 41.830000
5207   1  2 0.0000  8.010000 20.470000 48.950000
5208   1  2 0.0000  8.010000 20.470000 56.070000
5209   1  2 0.0000  8.010000 27.590000  6.230000
5210   1  2 0.0000  8.010000 27.590000 13.350000
5211   1  2 0.0000  8.010000 27.590000 20.470000
5212   1  2 0.0000  8.010000 27.590000 27.590000
5213   1  2 0.0000  8.010000 27.590000 34.710000
5214   1  2 0.0000  8.010000 27.590000 41.830000
5215   1  2 0.0000  8.010000 27.590000 48.950000
5216   1  2 0.0000  8.010000 27.590000 56.070000
5217   1  2 0.0000  8.010000 34.710000  6.230000
5218   1  2 0.0000  8.010000 34.710000 13.350000
5219   1  2 0.0000  8.010000 34.710000 20.470000
5220   1  2 0.0000  8.010000 34.710000 27.590000
5221   1  2 0.0000  8.010000 34.710000 34.710000
5222   1  2 0.0000  8.010000 34.710000 41.830000
5223   1  2 0.0000  8.010000 34.710000 48.950000
5224   1  2 0.0000  8.010000 34.710000 56.070000
5225   1  2 0.0000  8.010000 41.830000  6.230000
5226   1  2 0.0000  8.010000 41.830000 13.350000
5227   1  2 0.0000  8.010000 41.830000 20.470000
5228   1  2 0.0000  8.010000 41.830000 27.590000
5229   1  2 0.0000  8.010000 41.830000 34.710000
5230   1  2 0.0000  8.010000 41.830000 41.830000
5231   1  2 0.0000  8.010000 41.830000 48.950000
5232   1  2 0.0000  8.010000 41.830000 56.070000
5233   1  2 0.0000  8.010000 48.950000  6.230000
5234   1  2 0.0000  8.010000 48.950000 13.350000
5235   1  2 0.0000  8.010000 48.950000 20.470000
5236   1  2 0.0000  8.010000 48.950000 27.590000
5237   1  2 0.0000  8.010000 48.950000 34.710000
5238   1  2 0.0000  8.010000 48.950000 41.830000
5239   1  2 0.0000  8.010000 48.950000 48.950000
5240   1  2 0.0000  8.010000 48.950000 56.070000
5241   1  2 0.0000  8.010000 56.070000  6.230000
5242   1  2 0.0000  8.010000 56.070000 13.350000
5243   1  2 0.0000  8.010000 56.070000 20.470000
5244   1  2 0.0000  8.010000 56.070000 27.590000
5245   1  2 0.0000  8.010000 56.070000 34.710000
5246   1  2 0.0000  8.010000 56.070000 41.830000
5247   1  2 0.0000  8.010000 56.070000 48.950000
5248   1  2 0.0000  8.010000 56.070000 56.070000
5249   1  2 0.0000 15.130000  6.230000  6.230000
5250   1  2 0.0000 15.130000  6.230000 13.350000
5251   1  2 0.0000 15.130000  6.230000 20.470000
5252   1  2 0.0000 15.130000  6.230000 27.590000
5253   1  2 0.0000 15.130000  6.230000 34.710000
5254   1  2 0.0000 15.130000  6.230000 41.830000
5255   1  2 0.0000 15.130000  6.230000 48.950000
5256   1  2 0.0000 15.130000  6.230000 56.070000
5257   1  2 0.0000 15.130000 13.350000  6.230000
5258   1  2 0.0000 15.130000 13.350000 13.350000
5259   1  2 0.0000 15.130000 13.350000 20.470000
5260   1  2 0.0000 15.130000 13.350000 27.590000
5261   1  2 0.0000 15.130000 13.350000 34.710000
5262   1  2 0.0000 15.130000 13.350000 41.830000
5263   1  2 0.0000 15.130000 13.350000 48.950000
5264   1  2 0.0000 15.130000 13.350000 56.070000
5265   1  2 0.0000 15.130000 20.470000  6.230000
5266   1  2 0.0000 15.130000 20.470000 13.350000
5267   1  2 0.0000 15.130000 20.470000 20.470000
5268   1  2 0.0000 15.130000 20.470000 27.590000
5269   1  2 0.0000 15.130000 20.470000 34.710000
5270   1  2 0.0000 15.130000 20.470000 41.830000
5271   1  2 0.0000 15.130000 20.470000 48.950000
5272   1  2 0.0000 15.130000 20.470000 56.070000
5273   1  2 0.0000 15.130000 27.590000  6.230000
5274   1  2 0.0000 15.130000 27.590000 13.350000
5275   1  2 0.0000 15.130000 27.590000 20.470000
5276   1  2 0.0000 15.130000 27.590000 27.590000
5277   1  2 0.0000 15.130000 27.590000 34.710000
5278   1  2 0.0000 15.130000 27.590000 41.830000
5279   1  2 0.0000 15.130000 27.590000 48.950000
5280   1  2 0.0000 15.130000 27.590000 56.070000
5281   1  2 0.0000 15.130000 34.710000  6.230000
5282   1  2 0.0000 15.130000 34.710000 13.350000
5283   1  2 0.0000 15.130000 34.710000 20.470000
5284   1  2 0.0000 15.130000 34.710000 27.590000
5285   1  2 0.0000 15.130000 34.710000 34.710000
5286   1  2 0.0000 15.130000 34.710000 41.830000
5287   1  2 0.0000 15.130000 34.710000 48.950000
5288   1  2 0.0000 15.130000 34.710000 56.070000
5289   1  2 0.0000 15.130000 41.830000  6.230000
5290   1  2 0.0000 15.130000 41.830000 13.350000
5291   1  2 0.0000 15.130000 41.830000 20.470000
5292   1  2 0.0000 15.130000 41.830000 27.590000
5293   1  2 0.0000 15.130000 41.830000 34.710000
5294   1  2 0.0000 15.130000 41.830000 41.830000
5295   1  2 0.0000 15.130000 41.830000 48.950000
5296   1  2 0.0000 15.130000 41.830000 56.070000
5297   1  2 0.0000 15.130000 48.950000  6.230000
5298   1  2 0.0000 15.130000 48.950000 13.350000
5299   1  2 0.0000 15.130000 48.950000 20.470000
5300   1  2 0.0000 15.130000 48.950000 27.590000
5301   1  2 0.0000 15.130000 48.950000 34.710000
5302   1  2 0.0000 15.130000 48.950000 41.830000
5303   1  2 0.0000 15.130000 48.950000 48.950000
5304   1  2 0.0000 15.130000 48.950000 56.070000
5305   1  2 0.0000 15.130000 56.070000  6.230000
5306   1  2 0.0000 15.130000 56.070000 13.350000
5307   1  2 0.0000 15.130000 56.070000 20.470000
5308   1  2 0.0000 15.130000 56.070000 27.590000
5309   1  2 0.0000 15.130000 56.070000 34.710000
5310   1  2 0.0000 15.130000 56.070000 41.830000
5311   1  2 0.0000 15.130000 56.070000 48.950000
5312   1  2 0.0000 15.130000 56.070000 56.070000
5313   1  2 0.0000 22.250000  6.230000  6.230000
5314   1  2 0.0000 22.250000  6.230000 13.350000
5315   1  2 0.0000 22.250000  6.230000 20.470000
5316   1  2 0.0000 22.250000  6.230000 27.590000
5317   1  2 0.0000 22.250000  6.230000 34.710000
5318   1  2 0.0000 22.250000  6.230000 41.830000
5319   1  2 0.0000 22.250000  6.230000 48.950000
5320   1  2 0.0000 22.250000  6.230000 56.070000
5321   1  2 0.0000 22.250000 13.350000  6.230000
5322   1  2 0.0000 22.250000 13.350000 13.350000
5323   1  2 0.0000 22.250000 13.350000 20.470000
5324   1  2 0.0000 22.250000 13.350000 27.590000
5325   1  2 0.0000 22.250000 13.350000 34.710000
5326   1  2 0.0000 22.250000 13.350000 41.830000
5327   1  2 0.0000 22.250000 13.350000 48.950000
5328   1  2 0.0000 22.250000 13.350000 56.070000
5329   1  2 0.0000 22.250000 20.470000  6.230000
5330   1  2 0.0000 22.250000 20.470000 13.350000
5331   1  2 0.0000 22.250000 20.470000 20.470000
5332   1  2 0.0000 22.250000 20.470000 27.590000
5333   1  2 0.0000 22.250000 20.470000 34.710000
5334   1  2 0.0000 22.250000 20.470000 41.830000
5335   1  2 0.0000 22.250000 20.470000 48.950000
5336   1  2 0.0000 22.250000 20.470000 56.070000
5337   1  2 0.0000 22.250000 27.590000  6.230000
5338   1  2 0.0000 22.250000 27.590000 13.350000
5339   1  2 0.0000 22.250000 27.590000 20.470000
5340   1  2 0.0000 22.250000 27.590000 27.590000
5341   1  2 0.0000 22.250000 27.590000 34.710000
5342   1  2 0.0000 22.250000 27.590000 41.830000
5343   1  2 0.0000 22.250000 27.590000 48.950000
5344   1  2 0.0000 22.250000 27.590000 56.070000
5345   1  2 0.0000 22.250000 34.710000  6.230000
5346   1  2 0.0000 22.250000 34.710000 13.350000
5347   1  2 0.0000 22.250000 34.710000 20.470000
5348   1  2 0.0000 22.250000 34.710000 27.590000
5349   1  2 0.0000 22.250000 34.710000 34.710000
5350   1  2 0.0000 22.250000 34.710000 41.830000
5351   1  2 0.0000 22.250000 34.710000 48.950000
5352   1  2 0.0000 22.250000 34.710000 56.070000
5353   1  2 0.0000 22.250000 41.830000  6.230000
5354   1  2 0.0000 22.250000 41.830000 13.350000
5355   1  2 0.0000 22.250000 41.830000 20.470000
5356   1  2 0.0000 22.250000 41.830000 27.590000
5357   1  2 0.0000 22.250000 41.830000 34.710000
5358   1  2 0.0000 22.250000 41.830000 41.830000
5359   1  2 0.0000 22.250000 41.830000 48.950000
5360   1  2 0.0000 22.250000 41.830000 56.070000
5361   1  2 0.0000 22.250000 48.950000  6.230000
5362   1  2 0.0000 22.250000 48.950000 13.350000
5363   1  2 0.0000 22.250000 48.950000 20.470000
5364   1  2 0.0000 22.250000 48.950000 27.590000
5365   1  2 0.0000 22.250000 48.950000 34.710000
5366   1  2 0.0000 22.250000 48.950000 41.830000
5367   1  2 0.0000 22.250000 48.950000 48.950000
5368   1  2 0.0000 22.250000 48.950000 56.070000
5369   1  2 0.0000 22.250000 56.070000  6.230000
5370   1  2 0.0000 22.250000 56.070000 13.350000
5371   1  2 0.0000 22.250000 56.070000 20.470000
5372   1  2 0.0000 22.250000 56.070000 27.590000
5373   1  2 0.0000 22.250000 56.070000 34.710000
5374   1  2 0.0000 22.250000 56.070000 41.830000
5375   1  2 0.0000 22.250000 56.070000 48.950000
5376   1  2 0.0000 22.250000 56.070000 56.070000
5377   1  2 0.0000 29.370000  6.230000  6.230000
5378   1  2 0.0000 29.370000  6.230000 13.350000
5379   1  2 0.0000 29.370000  6.230000 20.470000
5380   1  2 0.0000 29.370000  6.230000 27.590000
5381   1  2 0.0000 29.370000  6.230000 34.710000
5382   1  2 0.0000 29.370000  6.230000 41.830000
5383   1  2 0.0000 29.370000  6.230000 48.950000
5384   1  2 0.0000 29.370000  6.230000 56.070000
5385   1  2 0.0000 29.370000 13.350000  6.230000
5386   1  2 0.0000 29.370000 13.350000 13.350000
5387   1  2 0.0000 29.370000 13.350000 20.470000
5388   1  2 0.0000 29.370000 13.350000 27.590000
5389   1  2 0.0000 29.370000 13.350000 34.710000
5390   1  2 0.0000 29.370000 13.350000 41.830000
5391   1  2 0.0000 29.370000 13.350000 48.950000
5392   1  2 0.0000 29.370000 13.350000 56.070000
5393   1  2 0.0000 29.370000 20.470000  6.230000
5394   1  2 0.0000 29.370000 20.470000 13.350000
5395   1  2 0.0000 29.370000 20.470000 20.470000
5396   1  2 0.0000 29.370000 20.470000 27.590000
5397   1  2 0.0000 29.370000 20.470000 34.710000
5398   1  2 0.0000 29.370000 20.470000 41.830000
5399   1  2 0.0000 29.370000 20.470000 48.950000
5400   1  2 0.0000 29.370000 20.470000 56.070000
5401   1  2 0.0000 29.370000 27.590000  6.230000
5402   1  2 0.0000 29.370000 27.590000 13.350000
5403   1  2 0.0000 29.370000 27.590000 20.470000
5404   1  2 0.0000 29.370000 27.590000 27.590000
5405   1  2 0.0000 29.370000 27.590000 34.710000
5406   1  2 0.0000 29.370000 27.590000 41.830000
5407   1  2 0.0000 29.370000 27.590000 48.950000
5408   1  2 0.0000 29.370000 27.590000 56.070000
5409   1  2 0.0000 29.370000 34.710000  6.230000
5410   1  2 0.0000 29.370000 34.710000 13.350000
5411   1  2 0.0000 29.370000 34.710000 20.470000
5412   1  2 0.0000 29.370000 34.710000 27.590000
5413   1  2 0.0000 29.370000 34.710000 34.710000
5414   1  2 0.0000 29.370000 34.710000 41.830000
5415   1  2 0.0000 29.370000 34.710000 48.950000
5416   1  2 0.0000 29.370000 34.710000 56.070000
5417   1  2 0.0000 29.370000 41.830000  6.230000
5418   1  2 0.0000 29.370000 41.830000 13.350000
5419   1  2 0.0000 29.370000 41.830000 20.470000
5420   1  2 0.0000 29.370000 41.830000 27.590000
5421   1  2 0.0000 29.370000 41.830000 34.710000
5422   1  2 0.0000 29.370000 41.830000 41.830000
5423   1  2 0.0000 29.370000 41.830000 48.950000
5424   1  2 0.0000 29.370000 41.830000 56.070000
5425   1  2 0.0000 29.370000 48.950000  6.230000
5426   1  2 0.0000 29.370000 48.950000 13.350000
5427   1  2 0.0000 29.370000 48.950000 20.470000
5428   1  2 0.0000 29.370000 48.950000 27.590000
5429   1  2 0.0000 29.370000 48.950000 34.710000
5430   1  2 0.0000 29.370000 48.950000 41.830000
5431   1  2 0.0000 29.370000 48.950000 48.950000
5432   1  2 0.0000 29.370000 48.950000 56.070000
5433   1  2 0.0000 29.370000 56.070000  6.230000
5434   1  2 0.0000 29.370000 56.070000 13.350000
5435   1  2 0.0000 29.370000 56.070000 20.470000
5436   1  2 0.0000 29.370000 56.070000 27.590000
5437   1  2 0.0000 29.370000 56.070000 34.710000
5438   1  2 0.0000 29.370000 56.070000 41.830000
5439   1  2 0.0000 29.370000 56.070000 48.950000
5440   1  2 0.0000 29.370000 56.070000 56.070000
5441   1  2 0.0000 36.490000  6.230000  6.230000
5442   1  2 0.0000 36.490000  6.230000 13.350000
5443   1  2 0.0000 36.490000  6.230000 20.470000
5444   1  2 0.0000 36.490000  6.230000 27.590000
5445   1  2 0.0000 36.490000  6.230000 34.710000
5446   1  2 0.0000 36.490000  6.230000 41.830000
5447   1  2 0.0000 36.490000  6.230000 48.950000
5448   1  2 0.0000 36.490000  6.230000 56.070000
5449   1  2 0.0000 36.490000 13.350000  6.230000
5450   1  2 0.0000 36.490000 13.350000 13.350000
5451   1  2 0.0000 36.490000 13.350000 20.470000
5452   1  2 0.0000 36.490000 13.350000 27.590000
5453   1  2 0.0000 36.490000 13.350000 34.710000
5454   1  2 0.0000 36.490000 13.350000 41.830000
5455   1  2 0.0000 36.490000 13.350000 48.950000
5456   1  2 0.0000 36.490000 13.350000 56.070000
5457   1  2 0.0000 36.490000 20.470000  6.230000
5458   1  2 0.0000 36.490000 20.470000 13.350000
5459   1  2 0.0000 36.490000 20.470000 20.470000
5460   1  2 0.0000 36.490000 20.470000 27.590000
5461   1  2 0.0000 36.490000 20.470000 34.710000
5462   1  2 0.0000 36.490000 20.470000 41.830000
5463   1  2 0.0000 36.490000 20.470000 48.950000
5464   1  2 0.0000 36.490000 20.470000 56.070000
5465   1  2 0.0000 36.490000 27.590000  6.230000
5466   1  2 0.0000 36.490000 27.590000 13.350000
5467   1  2 0.0000 36.490000 27.590000 20.470000
5468   1  2 0.0000 36.490000 27.590000 27.590000
5469   1  2 0.0000 36.490000 27.590000 34.710000
5470   1  2 0.0000 36.490000 27.590000 41.830000
5471   1  2 0.0000 36.490000 27.590000 48.950000
5472   1  2 0.0000 36.490000 27.590000 56.070000
5473   1  2 0.0000 36.490000 34.710000  6.230000
5474   1  2 0.0000 36.490000 34.710000 13.350000
5475   1  2 0.0000 36.490000 34.710000 20.470000
5476   1  2 0.0000 36.490000 34.710000 27.590000
5477   1  2 0.0000 36.490000 34.710000 34.710000
5478   1  2 0.0000 36.490000 34.710000 41.830000
5479   1  2 0.0000 36.490000 34.710000 48.950000
5480   1  2 0.0000 36.490000 34.710000 56.070000
5481   1  2 0.0000 36.490000 41.830000  6.230000
5482   1  2 0.0000 36.490000 41.830000 13.350000
5483   1  2 0.0000 36.490000 41.830000 20.470000
5484   1  2 0.0000 36.490000 41.830000 27.590000
5485   1  2 0.0000 36.490000 41.830000 34.710000
5486   1  2 0.0000 36.490000 41.830000 41.830000
5487   1  2 0.0000 36.490000 41.830000 48.950000
5488   1  2 0.0000 36.490000 41.830000 56.070000
5489   1  2 0.0000 36.490000 48.950000  6.230000
5490   1  2 0.0000 36.490000 48.950000 13.350000
5491   1  2 0.0000 36.490000 48.950000 20.470000
5492   1  2 0.0000 36.490000 48.950000 27.590000
5493   1  2 0.0000 36.490000 48.950000 34.710000
5494   1  2 0.0000 36.490000 48.950000 41.830000
5495   1  2 0.0000 36.490000 48.950000 48.950000
5496   1  2 0.0000 36.490000 48.950000 56.070000
5497   1  2 0.0000 36.490000 56.070000  6.230000
5498   1  2 0.0000 36.490000 56.070000 13.350000
5499   1  2 0.0000 36.490000 56.070000 20.470000
5500   1  2 0.0000 36.490000 56.070000 27.590000
5501   1  2 0.0000 36.490000 56.070000 34.710000
5502   1  2 0.0000 36.490000 56.070000 41.830000
5503   1  2 0.0000 36.490000 56.070000 48.950000
5504   1  2 0.0000 36.490000 56.070000 56.070000
5505   1  2 0.0000 43.610000  6.230000  6.230000
5506   1  2 0.0000 43.610000  6.230000 13.350000
5507   1  2 0.0000 43.610000  6.230000 20.470000
5508   1  2 0.0000 43.610000  6.230000 27.590000
5509   1  2 0.0000 43.610000  6.230000 34.710000
5510   1  2 0.0000 43.610000  6.230000 41.830000
5511   1  2 0.0000 43.610000  6.230000 48.950000
5512   1  2 0.0000 43.610000  6.230000 56.070000
5513   1  2 0.0000 43.610000 13.350000  6.230000
5514   1  2 0.0000 43.610000 13.350000 13.350000
5515   1  2 0.0000 43.610000 13.350000 20.470000
5516   1  2 0.0000 43.610000 13.350000 27.590000
5517   1  2 0.0000 43.610000 13.350000 34.710000
5518   1  2 0.0000 43.610000 13.350000 41.830000
5519   1  2 0.0000 43.610000 13.350000 48.950000
5520   1  2 0.0000 43.610000 13.350000 56.070000
5521   1  2 0.0000 43.610000 20.470000  6.230000
5522   1  2 0.0000 43.610000 20.470000 13.350000
5523   1  2 0.0000 43.610000 20.470000 20.470000
5524   1  2 0.0000 43.610000 20.470000 27.590000
5525   1  2 0.0000 43.610000 20.470000 34.710000
5526   1  2 0.0000 43.610000 20.470000 41.830000
5527   1  2 0.0000 43.610000 20.470000 48.950000
5528   1  2 0.0000 43.610000 20.470000 56.070000
5529   1  2 0.0000 43.610000 27.590000  6.230000
5530   1  2 0.0000 43.610000 27.590000 13.350000
5531   1  2 0.0000 43.610000 27.590000 20.470000
5532   1  2 0.0000 43.610000 27.590000 27.590000
5533   1  2 0.0000 43.610000 27.590000 34.710000
5534   1  2 0.0000 43.610000 27.590000 41.830000
5535   1  2 0.0000 43.610000 27.590000 48.950000
5536   1  2 0.0000 43.610000 27.590000 56.070000
5537   1  2 0.0000 43.610000 34.710000  6.230000
5538   1  2 0.0000 43.610000 34.710000 13.350000
5539   1  2 0.0000 43.610000 34.710000 20.470000
5540   1  2 0.0000 43.610000 34.710000 27.590000
5541   1  2 0.0000 43.610000 34.710000 34.710000
5542   1  2 0.0000 43.610000 34.710000 41.830000
5543   1  2 0.0000 43.610000 34.710000 48.950000
5544   1  2 0.0000 43.610000 34.710000 56.070000
5545   1  2 0.0000 43.610000 41.830000  6.230000
5546   1  2 0.0000 43.610000 41.830000 13.350000
5547   1  2 0.0000 43.610000 41.830000 20.470000
5548   1  2 0.0000 43.610000 41.830000 27.590000
5549   1  2 0.0000 43.610000 41.830000 34.710000
5550   1  2 0.0000 43.610000 41.830000 41.830000
5551   1  2 0.0000 43.610000 41.830000 48.950000
5552   1  2 0.0000 43.610000 41.830000 56.070000
5553   1  2 0.0000 43.610000 48.950000  6.230000
5554   1  2 0.0000 43.610000 48.950000 13.350000
5555   1  2 0.0000 43.610000 48.950000 20.470000
5556   1  2 0.0000 43.610000 48.950000 27.590000
5557   1  2 0.0000 43.610000 48.950000 34.710000
5558   1  2 0.0000 43.610000 48.950000 41.830000
5559   1  2 0.0000 43.610000 48.950000 48.950000
5560   1  2 0.0000 43.610000 48.950000 56.070000
5561   1  2 0.0000 43.610000 56.070000  6.230000
5562   1  2 0.0000 43.610000 56.070000 13.350000
5563   1  2 0.0000 43.610000 56.070000 20.470000
5564   1  2 0.0000 43.610000 56.070000 27.590000
5565   1  2 0.0000 43.610000 56.070000 34.710000
5566   1  2 0.0000 43.610000 56.070000 41.830000
5567   1  2 0.0000 43.610000 56.070000 48.950000
5568   1  2 0.0000 43.610000 56.070000 56.070000
5569   1  2 0.0000 50.730000  6.230000  6.230000
5570   1  2 0.0000 50.730000  6.230000 13.350000
5571   1  2 0.0000 50.730000  6.230000 20.470000
5572   1  2 0.0000 50.730000  6.230000 27.590000
5573   1  2 0.0000 50.730000  6.230000 34.710000
5574   1  2 0.0000 50.730000  6.230000 41.830000
5575   1  2 0.0000 50.730000  6.230000 48.950000
5576   1  2 0.0000 50.730000  6.230000 56.070000
5577   1  2 0.0000 50.730000 13.350000  6.230000
5578   1  2 0.0000 50.730000 13.350000 13.350000
5579   1  2 0.0000 50.730000 13.350000 20.470000
5580   1  2 0.0000 50.730000 13.350000 27.590000
5581   1  2 0.0000 50.730000 13.350000 34.710000
5582   1  2 0.0000 50.730000 13.350000 41.830000
5583   1  2 0.0000 50.730000 13.350000 48.950000
5584   1  2 0.0000 50.730000 13.350000 56.070000
5585   1  2 0.0000 50.730000 20.470000  6.230000
5586   1  2 0.0000 50.730000 20.470000 13.350000
5587   1  2 0.0000 50.730000 20.470000 20.470000
5588   1  2 0.0000 50.730000 20.470000 27.590000
5589   1  2 0.0000 50.730000 20.470000 34.710000
5590   1  2 0.0000 50.730000 20.470000 41.830000
5591   1  2 0.0000 50.730000 20.470000 48.950000
5592   1  2 0.0000 50.730000 20.470000 56.070000
5593   1  2 0.0000 50.730000 27.590000  6.230000
5594   1  2 0.0000 50.730000 27.590000 13.350000
5595   1  2 0.0000 50.730000 27.590000 20.470000
5596   1  2 0.0000 50.730000 27.590000 27.590000
5597   1  2 0.0000 50.730000 27.590000 34.710000
5598   1  2 0.0000 50.730000 27.590000 41.830000
5599   1  2 0.0000 50.730000 27.590000 48.950000
5600   1  2 0.0000 50.730000 27.590000 56.070000
5601   1  2 0.0000 50.730000 34.710000  6.230000
5602   1  2 0.0000 50.730000 34.710000 13.350000
5603   1  2 0.0000 50.730000 34.710000 20.470000
5604   1  2 0.0000 50.730000 34.710000 27.590000
5605   1  2 0.0000 50.730000 34.710000 34.710000
5606   1  2 0.0000 50.730000 34.710000 41.830000
5607   1  2 0.0000 50.730000 34.710000 48.950000
5608   1  2 0.0000 50.730000 34.710000 56.070000
5609   1  2 0.0000 50.730000 41.830000  6.230000
5610   1  2 0.0000 50.730000 41.830000 13.350000
5611   1  2 0.0000 50.730000 41.830000 20.470000
5612   1  2 0.0000 50.730000 41.830000 27.590000
5613   1  2 0.0000 50.730000 41.830000 34.710000
5614   1  2 0.0000 50.730000 41.830000 41.830000
5615   1  2 0.0000 50.730000 41.830000 48.950000
5616   1  2 0.0000 50.730000 41.830000 56.070000
5617   1  2 0.0000 50.730000 48.950000  6.230000
5618   1  2 0.0000 50.730000 48.950000 13.350000
5619   1  2 0.0000 50.730000 48.950000 20.470000
5620   1  2 0.0000 50.730000 48.950000 27.590000
5621   1  2 0.0000 50.730000 48.950000 34.710000
5622   1  2 0.0000 50.730000 48.950000 41.830000
5623   1  2 0.0000 50.730000 48.950000 48.950000
5624   1  2 0.0000 50.730000 48.950000 56.070000
5625   1  2 0.0000 50.730000 56.070000  6.230000
5626   1  2 0.0000 50.730000 56.070000 13.350000
5627   1  2 0.0000 50.730000 56.070000 20.470000
5628   1  2 0.0000 50.730000 56.070000 27.590000
5629   1  2 0.0000 50.730000 56.070000 34.710000
5630   1  2 0.0000 50.730000 56.070000 41.830000
5631   1  2 0.0000 50.730000 56.070000 48.950000
5632   1  2 0.0000 50.730000 56.070000 56.070000
5633   1  2 0.0000  6.230000  6.230000  0.890000
5634   1  2 0.0000  6.230000  6.230000  8.010000
5635   1  2 0.0000  6.230000  6.230000 15.130000
5636   1  2 0.0000  6.230000  6.230000 22.250000
5637   1  2 0.0000  6.230000  6.230000 29.370000
5638   1  2 0.0000  6.230000  6.230000 36.490000
5639   1  2 0.0000  6.230000  6.230000 43.610000
5640   1  2 0.0000  6.230000  6.230000 50.730000
5641   1  2 0.0000  6.230000 13.350000  0.890000
5642   1  2 0.0000  6.230000 13.350000  8.010000
5643   1  2 0.0000  6.230000 13.350000 15.130000
5644   1  2 0.0000  6.230000 13.350000 22.250000
5645   1  2 0.0000  6.230000 13.350000 29.370000
5646   1  2 0.0000  6.230000 13.350000 36.490000
5647   1  2 0.0000  6.230000 13.350000 43.610000
5648   1  2 0.0000  6.230000 13.350000 50.730000
5649   1  2 0.0000  6.230000 20.470000  0.890000
5650   1  2 0.0000  6.230000 20.470000  8.010000
5651   1  2 0.0000  6.230000 20.470000 15.130000
5652   1  2 0.0000  6.230000 20.470000 22.250000
5653   1  2 0.0000  6.230000 20.470000 29.370000
5654   1  2 0.0000  6.230000 20.470000 36.490000
5655   1  2 0.0000  6.230000 20.470000 43.610000
5656   1  2 0.0000  6.230000 20.470000 50.730000
5657   1  2 0.0000  6.230000 27.590000  0.890000
5658   1  2 0.0000  6.230000 27.590000  8.010000
5659   1  2 0.0000  6.230000 27.590000 15.130000
5660   1  2 0.0000  6.230000 27.590000 22.250000
5661   1  2 0.0000  6.230000 27.590000 29.370000
5662   1  2 0.0000  6.230000 27.590000 36.490000
5663   1  2 0.0000  6.230000 27.590000 43.610000
5664   1  2 0.0000  6.230000 27.590000 50.730000
5665   1  2 0.0000  6.230000 34.710000  0.890000
5666   1  2 0.0000  6.230000 34.710000  8.010000
5667   1  2 0.0000  6.230000 34.710000 15.130000
5668   1  2 0.0000  6.230000 34.710000 22.250000
5669   1  2 0.0000  6.230000 34.710000 29.370000
5670   1  2 0.0000  6.230000 34.710000 36.490000
5671   1  2 0.0000  6.230000 34.710000 43.610000
5672   1  2 0.0000  6.230000 34.710000 50.730000
5673   1  2 0.0000  6.230000 41.830000  0.890000
5674   1  2 0.0000  6.230000 41.830000  8.010000
5675   1  2 0.0000  6.230000 41.830000 15.130000
5676   1  2 0.0000  6.230000 41.830000 22.250000
5677   1  2 0.0000  6.230000 41.830000 29.370000
5678   1  2 0.0000  6.230000 41.830000 36.490000
5679   1  2 0.0000  6.230000 41.830000 43.610000
5680   1  2 0.0000  6.230000 41.830000 50.730000
5681   1  2 0.0000  6.230000 48.950000  0.890000
5682   1  2 0.0000  6.230000 48.950000  8.010000
5683   1  2 0.0000  6.230000 48.950000 15.130000
5684   1  2 0.0000  6.230000 48.950000 22.250000
5685   1  2 0.0000  6.230000 48.950000 29.370000
5686   1  2 0.0000  6.230000 48.950000 36.490000
5687   1  2 0.0000  6.230000 48.950000 43.610000
5688   1  2 0.0000  6.230000 48.950000 50.730000
5689   1  2 0.0000  6.230000 56.070000  0.890000
5690   1  2 0.0000  6.230000 56.070000  8.010000
5691   1  2 0.0000  6.230000 56.070000 15.130000
5692   1  2 0.0000  6.230000 56.070000 22.250000
5693   1  2 0.0000  6.230000 56.070000 29.370000
5694   1  2 0.0000  6.230000 56.070000 36.490000
5695   1  2 0.0000  6.230000 56.070000 43.610000
5696   1  2 0.0000  6.230000 56.070000 50.730000
5697   1  2 0.0000 13.350000  6.230000  0.890000
5698   1  2 0.0000 13.350000  6.230000  8.010000
5699   1  2 0.0000 13.350000  6.230000 15.130000
5700   1  2 0.0000 13.350000  6.230000 22.250000
5701   1  2 0.0000 13.350000  6.230000 29.370000
5702   1  2 0.0000 13.350000  6.230000 36.490000
5703   1  2 0.0000 13.350000  6.230000 43.610000
5704   1  2 0.0000 13.350000  6.230000 50.730000
5705   1  2 0.0000 13.350000 13.350000  0.890000
5706   1  2 0.0000 13.350000 13.350000  8.010000
5707   1  2 0.0000 13.350000 13.350000 15.130000
5708   1  2 0.0000 13.350000 13.350000 22.250000
5709   1  2 0.0000 13.350000 13.350000 29.370000
5710   1  2 0.0000 13.350000 13.350000 36.490000
5711   1  2 0.0000 13.350000 13.350000 43.610000
5712   1  2 0.0000 13.350000 13.350000 50.730000
5713   1  2 0.0000 13.350000 20.470000  0.890000
5714   1  2 0.0000 13.350000 20.470000  8.010000
5715   1  2 0.0000 13.350000 20.470000 15.130000
5716   1  2 0.0000 13.350000 20.470000 22.250000
5717   1  2 0.0000 13.350000 20.470000 29.370000
5718   1  2 0.0000 13.350000 20.470000 36.490000
5719   1  2 0.0000 13.350000 20.470000 43.610000
5720   1  2 0.0000 13.350000 20.470000 50.730000
5721   1  2 0.0000 13.350000 27.590000  0.890000
5722   1  2 0.0000 13.350000 27.590000  8.010000
5723   1  2 0.0000 13.350000 27.590000 15.130000
5724   1  2 0.0000 13.350000 27.590000 22.250000
5725   1  2 0.0000 13.350000 27.590000 29.370000
5726   1  2 0.0000 13.350000 27.590000 36.490000
5727   1  2 0.0000 13.350000 27.590000 43.610000
5728   1  2 0.0000 13.350000 27.590000 50.730000
5729   1  2 0.0000 13.350000 34.710000  0.890000
5730   1  2 0.0000 13.350000 34.710000  8.010000
5731   1  2 0.0000 13.350000 34.710000 15.130000
5732   1  2 0.0000 13.350000 34.710000 22.250000
5733   1  2 0.0000 13.350000 34.710000 29.370000
5734   1  2 0.0000 13.350000 34.710000 36.490000
5735   1  2 0.0000 13.350000 34.710000 43.610000
5736   1  2 0.0000 13.350000 34.710000 50.730000
5737   1  2 0.0000 13.350000 41.830000  0.890000
5738   1  2 0.0000 13.350000 41.830000  8.010000
5739   1  2 0.0000 13.350000 41.830000 15.130000
5740   1  2 0.0000 13.350000 41.830000 22.250000
5741   1  2 0.0000 13.350000 41.830000 29.370000
5742   1  2 0.0000 13.350000 41.830000 36.490000
5743   1  2 0.0000 13.350000 41.830000 43.610000
5744   1  2 0.0000 13.350000 41.830000 50.730000
5745   1  2 0.0000 13.350000 48.950000  0.890000
5746   1  2 0.0000 13.350000 48.950000  8.010000
5747   1  2 0.0000 13.350000 48.950000 15.130000
5748   1  2 0.0000 13.350000 48.950000 22.250000
5749   1  2 0.0000 13.350000 48.950000 29.370000
5750   1  2 0.0000 13.350000 48.950000 36.490000
5751   1  2 0.0000 13.350000 48.950000 43.610000
5752   1  2 0.0000 13.350000 48.950000 50.730000
5753   1  2 0.0000 13.350000 56.070000  0.890000
5754   1  2 0.0000 13.350000 56.070000  8.010000
5755   1  2 0.0000 13.350000 56.070000 15.130000
5756   1  2 0.0000 13.350000 56.070000 22.250000
5757   1  2 0.0000 13.350000 56.070000 29.370000
5758   1  2 0.0000 13.350000 56.070000 36.490000
5759   1  2 0.0000 13.350000 56.070000 43.610000
5760   1  2 0.0000 13.350000 56.070000 50.730000
5761   1  2 0.0000 20.470000  6.230000  0.890000
5762   1  2 0.0000 20.470000  6.230000  8.010000
5763   1  2 0.0000 20.470000  6.230000 15.130000
5764   1  2 0.0000 20.470000  6.230000 22.250000
5765   1  2 0.0000 20.470000  6.230000 29.370000
5766   1  2 0.0000 20.470000  6.230000 36.490000
5767   1  2 0.0000 20.470000  6.230000 43.610000
5768   1  2 0.0000 20.470000  6.230000 50.730000
5769   1  2 0.0000 20.470000 13.350000  0.890000
5770   1  2 0.0000 20.470000 13.350000  8.010000
5771   1  2 0.0000 20.470000 13.350000 15.130000
5772   1  2 0.0000 20.470000 13.350000 22.250000
5773   1  2 0.0000 20.470000 13.350000 29.370000
5774   1  2 0.0000 20.470000 13.350000 36.490000
5775   1  2 0.0000 20.470000 13.350000 43.610000
5776   1  2 0.0000 20.470000 13.350000 50.730000
5777   1  2 0.0000 20.470000 20.470000  0.890000
5778   1  2 0.0000 20.470000 20.470000  8.010000
5779   1  2 0.0000 20.470000 20.470000 15.130000
5780   1  2 0.0000 20.470000 20.470000 22.250000
5781   1  2 0.0000 20.470000 20.470000 29.370000
5782   1  2 0.0000 20.470000 20.470000 36.490000
5783   1  2 0.0000 20.470000 20.470000 43.610000
5784   1  2 0.0000 20.470000 20.470000 50.730000
5785   1  2 0.0000 20.470000 27.590000  0.890000
5786   1  2 0.0000 20.470000 27.590000  8.010000
5787   1  2 0.0000 20.470000 27.590000 15.130000
5788   1  2 0.0000 20.470000 27.590000 22.250000
5789   1  2 0.0000 20.470000 27.590000 29.370000
5790   1  2 0.0000 20.470000 27.590000 36.490000
5791   1  2 0.0000 20.470000 27.590000 43.610000
5792   1  2 0.0000 20.470000 27.590000 50.730000
5793   1  2 0.0000 20.470000 34.710000  0.890000
5794   1  2 0.0000 20.470000 34.710000  8.010000
5795   1  2 0.0000 20.470000 34.710000 15.130000
5796   1  2 0.0000 20.470000 34.710000 22.250000
5797   1  2 0.0000 20.470000 34.710000 29.370000
5798   1  2 0.0000 20.470000 34.710000 36.490000
5799   1  2 0.0000 20.470000 34.710000 43.610000
5800   1  2 0.0000 20.470000 34.710000 50.730000
5801   1  2 0.0000 20.470000 41.830000  0.890000
5802   1  2 0.0000 20.470000 41.830000  8.010000
5803   1  2 0.0000 20.470000 41.830000 15.130000
5804   1  2 0.0000 20.470000 41.830000 22.250000
5805   1  2 0.0000 20.470000 41.830000 29.370000
5806   1  2 0.0000 20.470000 41.830000 36.490000
5807   1  2 0.0000 20.470000 41.830000 43.610000
5808   1  2 0.0000 20.470000 41.830000 50.730000
5809   1  2 0.0000 20.470000 48.950000  0.890000
5810   1  2 0.0000 20.470000 48.950000  8.010000
5811   1  2 0.0000 20.470000 48.950000 15.130000
5812   1  2 0.0000 20.470000 48.950000 22.250000
5813   1  2 0.0000 20.470000 48.950000 29.370000
5814   1  2 0.0000 20.470000 48.950000 36.490000
5815   1  2 0.0000 20.470000 48.950000 43.610000
5816   1  2 0.0000 20.470000 48.950000 50.730000
5817   1  2 0.0000 20.470000 56.070000  0.890000
5818   1  2 0.0000 20.470000 56.070000  8.010000
5819   1  2 0.0000 20.470000 56.070000 15.130000
5820   1  2 0.0000 20.470000 56.070000 22.250000
5821   1  2 0.0000 20.470000 56.070000 29.370000
5822   1  2 0.0000 20.470000 56.070000 36.490000
5823   1  2 0.0000 20.470000 56.070000 43.610000
5824   1  2 0.0000 20.470000 56.070000 50.730000
5825   1  2 0.0000 27.590000  6.230000  0.890000
5826   1  2 0.0000 27.590000  6.230000  8.010000
5827   1  2 0.0000 27.590000  6.230000 15.130000
5828   1  2 0.0000 27.590000  6.230000 22.250000
5829   1  2 0.0000 27.590000  6.230000 29.370000
5830   1  2 0.0000 27.590000  6.230000 36.490000
5831   1  2 0.0000 27.590000  6.230000 43.610000
5832   1  2 0.0000 27.590000  6.230000 50.730000
5833   1  2 0.0000 27.590000 13.350000  0.890000
5834   1  2 0.0000 27.590000 13.350000  8.010000
5835   1  2 0.0000 27.590000 13.350000 15.130000
5836   1  2 0.0000 27.590000 13.350000 22.250000
5837   1  2 0.0000 27.590000 13.350000 29.370000
5838   1  2 0.0000 27.590000 13.350000 36.490000
5839   1  2 0.0000 27.590000 13.350000 43.610000
5840   1  2 0.0000 27.590000 13.350000 50.730000
5841   1  2 0.0000 27.590000 20.470000  0.890000
5842   1  2 0.0000 27.590000 20.470000  8.010000
5843   1  2 0.0000 27.590000 20.470000 15.130000
5844   1  2 0.0000 27.590000 20.470000 22.250000
5845   1  2 0.0000 27.590000 20.470000 29.370000
5846   1  2 0.0000 27.590000 20.470000 36.490000
5847   1  2 0.0000 27.590000 20.470000 43.610000
5848   1  2 0.0000 27.590000 20.470000 50.730000
5849   1  2 0.0000 27.590000 27.590000  0.890000
5850   1  2 0.0000 27.590000 27.590000  8.010000
5851   1  2 0.0000 27.590000 27.590000 15.130000
5852   1  2 0.0000 27.590000 27.590000 22.250000
5853   1  2 0.0000 27.590000 27.590000 29.370000
5854   1  2 0.0000 27.590000 27.590000 36.490000
5855   1  2 0.0000 27.590000 27.590000 43.610000
5856   1  2 0.0000 27.590000 27.590000 50.730000
5857   1  2 0.0000 27.590000 34.710000  0.890000
5858   1  2 0.0000 27.590000 34.710000  8.010000
5859   1  2 0.0000 27.590000 34.710000 15.130000
5860   1  2 0.0000 27.590000 34.710000 22.250000
5861   1  2 0.0000 27.590000 34.710000 29.370000
5862   1  2 0.0000 27.590000 34.710000 36.490000
5863   1  2 0.0000 27.590000 34.710000 43.610000
5864   1  2 0.0000 27.590000 34.710000 50.730000
5865   1  2 0.0000 27.590000 41.830000  0.890000
5866   1  2 0.0000 27.590000 41.830000  8.010000
5867   1  2 0.0000 27.590000 41.830000 15.130000
5868   1  2 0.0000 27.590000 41.830000 22.250000
5869   1  2 0.0000 27.590000 41.830000 29.370000
5870   1  2 0.0000 27.590000 41.830000 36.490000
5871   1  2 0.0000 27.590000 41.830000 43.610000
5872   1  2 0.0000 27.590000 41.830000 50.730000
5873   1  2 0.0000 27.590000 48.950000  0.890000
5874   1  2 0.0000 27.590000 48.950000  8.010000
5875   1  2 0.0000 27.590000 48.950000 15.130000
5876   1  2 0.0000 27.590000 48.950000 22.250000
5877   1  2 0.0000 27.590000 48.950000 29.370000
5878   1  2 0.0000 27.590000 48.950000 36.490000
5879   1  2 0.0000 27.590000 48.950000 43.610000
5880   1  2 0.0000 27.590000 48.950000 50.730000
5881   1  2 0.0000 27.590000 56.070000  0.890000
5882   1  2 0.0000 27.590000 56.070000  8.010000
5883   1  2 0.0000 27.590000 56.070000 15.130000
5884   1  2 0.0000 27.590000 56.070000 22.250000
5885   1  2 0.0000 27.590000 56.070000 29.370000
5886   1  2 0.0000 27.590000 56.070000 36.490000
5887   1  2 0.0000 27.590000 56.070000 43.610000
5888   1  2 0.0000 27.590000 56.070000 50.730000
5889   1  2 0.0000 34.710000  6.230000  0.890000
5890   1  2 0.0000 34.710000  6.230000  8.010000
5891   1  2 0.0000 34.710000  6.230000 15.130000
5892   1  2 0.0000 34.710000  6.230000 22.250000
5893   1  2 0.0000 34.710000  6.230000 29.370000
5894   1  2 0.0000 34.710000  6.230000 36.490000
5895   1  2 0.0000 34.710000  6.230000 43.610000
5896   1  2 0.0000 34.710000  6.230000 50.730000
5897   1  2 0.0000 34.710000 13.350000  0.890000
5898   1  2 0.0000 34.710000 13.350000  8.010000
5899   1  2 0.0000 34.710000 13.350000 15.130000
5900   1  2 0.0000 34.710000 13.350000 22.250000
5901   1  2 0.0000 34.710000 13.350000 29.370000
5902   1  2 0.0000 34.710000 13.350000 36.490000
5903   1  2 0.0000 34.710000 13.350000 43.610000
5904   1  2 0.0000 34.710000 13.350000 50.730000
5905   1  2 0.0000 34.710000 20.470000  0.890000
5906   1  2 0.0000 34.710000 20.470000  8.010000
5907   1  2 0.0000 34.710000 20.470000 15.130000
5908   1  2 0.0000 34.710000 20.470000 22.250000
5909   1  2 0.0000 34.710000 20.470000 29.370000
5910   1  2 0.0000 34.710000 20.470000 36.490000
5911   1  2 0.0000 34.710000 20.470000 43.610000
5912   1  2 0.0000 34.710000 20.470000 50.730000
5913   1  2 0.0000 34.710000 27.590000  0.890000
5914   1  2 0.0000 34.710000 27.590000  8.010000
5915   1  2 0.0000 34.710000 27.590000 15.130000
5916   1  2 0.0000 34.710000 27.590000 22.250000
5917   1  2 0.0000 34.710000 27.590000 29.370000
5918   1  2 0.0000 34.710000 27.590000 36.490000
5919   1  2 0.0000 34.710000 27.590000 43.610000
5920   1  2 0.0000 34.710000 27.590000 50.730000
5921   1  2 0.0000 34.710000 34.710000  0.890000
5922   1  2 0.0000 34.710000 34.710000  8.010000
5923   1  2 0.0000 34.710000 34.710000 15.130000
5924   1  2 0.0000 34.710000 34.710000 22.250000
5925   1  2 0.0000 34.710000 34.710000 29.370000
5926   1  2 0.0000 34.710000 34.710000 36.490000
5927   1  2 0.0000 34.710000 34.710000 43.610000
5928   1  2 0.0000 34.710000 34.710000 50.730000
5929   1  2 0.0000 34.710000 41.830000  0.890000
5930   1  2 0.0000 34.710000 41.830000  8.010000
5931   1  2 0.0000 34.710000 41.830000 15.130000
5932   1  2 0.0000 34.710000 41.830000 22.250000
5933   1  2 0.0000 34.710000 41.830000 29.370000
5934   1  2 0.0000 34.710000 41.830000 36.490000
5935   1  2 0.0000 34.710000 41.830000 43.610000
5936   1  2 0.0000 34.710000 41.830000 50.730000
5937   1  2 0.0000 34.710000 48.950000  0.890000
5938   1  2 0.0000 34.710000 48.950000  8.010000
5939   1  2 0.0000 34.710000 48.950000 15.130000
5940   1  2 0.0000 34.710000 48.950000 22.250000
5941   1  2 0.0000 34.710000 48.950000 29.370000
5942   1  2 0.0000 34.710000 48.950000 36.490000
5943   1  2 0.0000 34.710000 48.950000 43.610000
5944   1  2 0.0000 34.710000 48.950000 50.730000
5945   1  2 0.0000 34.710000 56.070000  0.890000
5946   1  2 0.0000 34.710000 56.070000  8.010000
5947   1  2 0.0000 34.710000 56.070000 15.130000
5948   1  2 0.0000 34.710000 56.070000 22.250000
5949   1  2 0.0000 34.710000 56.070000 29.370000
5950   1  2 0.0000 34.710000 56.070000 36.490000
5951   1  2 0.0000 34.710000 56.070000 43.610000
5952   1  2 0.0000 34.710000 56.070000 50.730000
5953   1  2 0.0000 41.830000  6.230000  0.890000
5954   1  2 0.0000 41.830000  6.230000  8.010000
5955   1  2 0.0000 41.830000  6.230000 15.130000
5956   1  2 0.0000 41.830000  6.230000 22.250000
5957   1  2 0.0000 41.830000  6.230000 29.370000
5958   1  2 0.0000 41.830000  6.230000 36.490000
5959   1  2 0.0000 41.830000  6.230000 43.610000
5960   1  2 0.0000 41.830000  6.230000 50.730000
5961   1  2 0.0000 41.830000 13.350000  0.890000
5962   1  2 0.0000 41.830000 13.350000  8.010000
5963   1  2 0.0000 41.830000 13.350000 15.130000
5964   1  2 0.0000 41.830000 13.350000 22.250000
5965   1  2 0.0000 41.830000 13.350000 29.370000
5966   1  2 0.0000 41.830000 13.350000 36.490000
5967   1  2 0.0000 41.830000 13.350000 43.610000
5968   1  2 0.0000 41.830000 13.350000 50.730000
5969   1  2 0.0000 41.830000 20.470000  0.890000
5970   1  2 0.0000 41.830000 20.470000  8.010000
5971   1  2 0.0000 41.830000 20.470000 15.130000
5972   1  2 0.0000 41.830000 20.470000 22.250000
5973   1  2 0.0000 41.830000 20.470000 29.370000
5974   1  2 0.0000 41.830000 20.470000 36.490000
5975   1  2 0.0000 41.830000 20.470000 43.610000
5976   1  2 0.0000 41.830000 20.470000 50.730000
5977   1  2 0.0000 41.830000 27.590000  0.890000
5978   1  2 0.0000 41.830000 27.590000  8.010000
5979   1  2 0.0000 41.830000 27.590000 15.130000
5980   1  2 0.0000 41.830000 27.590000 22.250000
5981   1  2 0.0000 41.830000 27.590000 29.370000
5982   1  2 0.0000 41.830000 27.590000 36.490000
5983   1  2 0.0000 41.830000 27.590000 43.610000
5984   1  2 0.0000 41.830000 27.590000 50.730000
5985   1  2 0.0000 41.830000 34.710000  0.890000
5986   1  2 0.0000 41.830000 34.710000  8.010000
5987   1  2 0.0000 41.830000 34.710000 15.130000
5988   1  2 0.0000 41.830000 34.710000 22.250000
5989   1  2 0.0000 41.830000 34.710000 29.370000
5990   1  2 0.0000 41.830000 34.710000 36.490000
5991   1  2 0.0000 41.830000 34.710000 43.610000
5992   1  2 0.0000 41.830000 34.710000 50.730000
5993   1  2 0.0000 41.830000 41.830000  0.890000
5994   1  2 0.0000 41.830000 41.830000  8.010000
5995   1  2 0.0000 41.830000 41.830000 15.130000
5996   1  2 0.0000 41.830000 41.830000 22.250000
5997   1  2 0.0000 41.830000 41.830000 29.370000
5998   1  2 0.0000 41.830000 41.830000 36.490000
5999   1  2 0.0000 41.830000 41.830000 43.610000
6000   1  2 0.0000 41.830000 41.830000 50.730000
6001   1  2 0.0000 41.830000 48.950000  0.890000
6002   1  2 0.0000 41.830000 48.950000  8.010000
6003   1  2 0.0000 41.830000 48.950000 15.130000
6004   1  2 0.0000 41.830000 48.950000 22.250000
6005   1  2 0.0000 41.830000 48.950000 29.370000
6006   1  2 0.0000 41.830000 48.950000 36.490000
6007   1  2 0.0000 41.830000 48.950000 43.610000
6008   1  2 0.0000 41.830000 48.950000 50.730000
6009   1  2 0.0000 41.830000 56.070000  0.890000
6010   1  2 0.0000 41.830000 56.070000  8.010000
6011   1  2 0.0000 41.830000 56.070000 15.130000
6012   1  2 0.0000 41.830000 56.070000 22.250000
6013   1  2 0.0000 41.830000 56.070000 29.370000
6014   1  2 0.0000 41.830000 56.070000 36.490000
6015   1  2 0.0000 41.830000 56.070000 43.610000
6016   1  2 0.0000 41.830000 56.070000 50.730000
6017   1  2 0.0000 48.950000  6.230000  0.890000
6018   1  2 0.0000 48.950000  6.230000  8.010000
6019   1  2 0.0000 48.950000  6.230000 15.130000
6020   1  2 0.0000 48.950000  6.230000 22.250000
6021   1  2 0.0000 48.950000  6.230000 29.370000
6022   1  2 0.0000 48.950000  6.230000 36.490000
6023   1  2 0.0000 48.950000  6.230000 43.610000
6024   1  2 0.0000 48.950000  6.230000 50.730000
6025   1  2 0.0000 48.950000 13.350000  0.890000
6026   1  2 0.0000 48.950000 13.350000  8.010000
6027   1  2 0.0000 48.950000 13.350000 15.130000
6028   1  2 0.0000 48.950000 13.350000 22.250000
6029   1  2 0.0000 48.950000 13.350000 29.370000
6030   1  2 0.0000 48.950000 13.350000 36.490000
6031   1  2 0.0000 48.950000 13.350000 43.610000
6032   1  2 0.0000 48.950000 13.350000 50.730000
6033   1  2 0.0000 48.950000 20.470000  0.890000
6034   1  2 0.0000 48.950000 20.470000  8.010000
6035   1  2 0.0000 48.950000 20.470000 15.130000
6036   1  2 0.0000 48.950000 20.470000 22.250000
6037   1  2 0.0000 48.950000 20.470000 29.370000
6038   1  2 0.0000 48.950000 20.470000 36.490000
6039   1  2 0.0000 48.950000 20.470000 43.610000
6040   1  2 0.0000 48.950000 20.470000 50.730000
6041   1  2 0.0000 48.950000 27.590000  0.890000
6042   1  2 0.0000 48.950000 27.590000  8.010000
6043   1  2 0.0000 48.950000 27.590000 15.130000
6044   1  2 0.0000 48.950000 27.590000 22.250000
6045   1  2 0.0000 48.950000 27.590000 29.370000
6046   1  2 0.0000 48.950000 27.590000 36.490000
6047   1  2 0.0000 48.950000 27.590000 43.610000
6048   1  2 0.0000 48.950000 27.590000 50.730000
6049   1  2 0.0000 48.950000 34.710000  0.890000
6050   1  2 0.0000 48.950000 34.710000  8.010000
6051   1  2 0.0000 48.950000 34.710000 15.130000
6052   1  2 0.0000 48.950000 34.710000 22.250000
6053   1  2 0.0000 48.950000 34.710000 29.370000
6054   1  2 0.0000 48.950000 34.710000 36.490000
6055   1  2 0.0000 48.950000 34.710000 43.610000
6056   1  2 0.0000 48.950000 34.710000 50.730000
6057   1  2 0.0000 48.950000 41.830000  0.890000
6058   1  2 0.0000 48.950000 41.830000  8.010000
6059   1  2 0.0000 48.950000 41.830000 15.130000
6060   1  2 0.0000 48.950000 41.830000 22.250000
6061   1  2 0.0000 48.950000 41.830000 29.370000
6062   1  2 0.0000 48.950000 41.830000 36.490000
6063   1  2 0.0000 48.950000 41.830000 43.610000
6064   1  2 0.0000 48.950000 41.830000 50.730000
6065   1  2 0.0000 48.950000 48.950000  0.890000
6066   1  2 0.0000 48.950000 48.950000  8.010000
6067   1  2 0.0000 48.950000 48.950000 15.130000
6068   1  2 0.0000 48.950000 48.950000 22.250000
6069   1  2 0.0000 48.950000 48.950000 29.370000
6070   1  2 0.0000 48.950000 48.950000 36.490000
6071   1  2 0.0000 48.950000 48.950000 43.610000
6072   1  2 0.0000 48.950000 48.950000 50.730000
6073   1  2 0.0000 48.950000 56.070000  0.890000
6074   1  2 0.0000 48.950000 56.070000  8.010000
6075   1  2 0.0000 48.950000 56.070000 15.130000
6076   1  2 0.0000 48.950000 56.070000 22.250000
6077   1  2 0.0000 48.950000 56.070000 29.370000
6078   1  2 0.0000 48.950000 56.070000 36.490000
6079   1  2 0.0000 48.950000 56.070000 43.610000
6080   1  2 0.0000 48.950000 56.070000 50.730000
6081   1  2 0.0000 56.070000  6.230000  0.890000
6082   1  2 0.0000 56.070000  6.230000  8.010000
6083   1  2 0.0000 56.070000  6.230000 15.130000
6084   1  2 0.0000 56.070000  6.230000 22.250000
6085   1  2 0.0000 56.070000  6.230000 29.370000
6086   1  2 0.0000 56.070000  6.230000 36.490000
6087   1  2 0.0000 56.070000  6.230000 43.610000
6088   1  2 0.0000 56.070000  6.230000 50.730000
6089   1  2 0.0000 56.070000 13.350000  0.890000
6090   1  2 0.0000 56.070000 13.350000  8.010000
6091   1  2 0.0000 56.070000 13.350000 15.130000
6092   1  2 0.0000 56.070000 13.350000 22.250000
6093   1  2 0.0000 56.070000 13.350000 29.370000
6094   1  2 0.0000 56.070000 13.350000 36.490000
6095   1  2 0.0000 56.070000 13.350000 43.610000
6096   1  2 0.0000 56.070000 13.350000 50.730000
6097   1  2 0.0000 56.070000 20.470000  0.890000
6098   1  2 0.0000 56.070000 20.470000  8.010000
6099   1  2 0.0000 56.070000 20.470000 15.130000
6100   1  2 0.0000 56.070000 20.470000 22.250000
6101   1  2 0.0000 56.070000 20.470000 29.370000
6102   1  2 0.0000 56.070000 20.470000 36.490000
6103   1  2 0.0000 56.070000 20.470000 43.610000
6104   1  2 0.0000 56.070000 20.470000 50.730000
6105   1  2 0.0000 56.070000 27.590000  0.890000
6106   1  2 0.0000 56.070000 27.590000  8.010000
6107   1  2 0.0000 56.070000 27.590000 15.130000
6108   1  2 0.0000 56.070000 27.590000 22.250000
6109   1  2 0.0000 56.070000 27.590000 29.370000
6110   1  2 0.0000 56.070000 27.590000 36.490000
6111   1  2 0.0000 56.070000 27.590000 43.610000
6112   1  2 0.0000 56.070000 27.590000 50.730000
6113   1  2 0.0000 56.070000 34.710000  0.890000
6114   1  2 0.0000 56.070000 34.710000  8.010000
6115   1  2 0.0000 56.070000 34.710000 15.130000
6116   1  2 0.0000 56.070000 34.710000 22.250000
6117   1  2 0.0000 56.070000 34.710000 29.370000
6118   1  2 0.0000 56.070000 34.710000 36.490000
6119   1  2 0.0000 56.070000 34.710000 43.610000
6120   1  2 0.0000 56.070000 34.710000 50.730000
6121   1  2 0.0000 56.070000 41.830000  0.890000
6122   1  2 0.0000 56.070000 41.830000  8.010000
6123   1  2 0.0000 56.070000 41.830000 15.130000
6124   1  2 0.0000 56.070000 41.830000 22.250000
6125   1  2 0.0000 56.070000 41.830000 29.370000
6126   1  2 0.0000 56.070000 41.830000 36.490000
6127   1  2 0.0000 56.070000 41.830000 43.610000
6128   1  2 0.0000 56.070000 41.830000 50.730000
6129   1  2 0.0000 56.070000 48.950000  0.890000
6130   1  2 0.0000 56.070000 48.950000  8.010000
6131   1  2 0.0000 56.070000 48.950000 15.130000
6132   1  2 0.0000 56.070000 48.950000 22.250000
6133   1  2 0.0000 56.070000 48.950000 29.370000
6134   1  2 0.0000 56.070000 48.950000 36.490000
6135   1  2 0.0000 56.070000 48.950000 43.610000
6136   1  2 0.0000 56.070000 48.950000 50.730000
6137   1  2 0.0000 56.070000 56.070000  0.890000
6138   1  2 0.0000 56.070000 56.070000  8.010000
6139   1  2 0.0000 56.070000 56.070000 15.130000
6140   1  2 0.0000 56.070000 56.070000 22.250000
6141   1  2 0.0000 56.070000 56.070000 29.370000
6142   1  2 0.0000 56.070000 56.070000 36.490000
6143   1  2 0.0000 56.070000 56.070000 43.610000
6144   1  2 0.0000 56.070000 56.070000 50.730000
6145   1  2 0.0000  0.890000  4.450000  4.450000
6146   1  2 0.0000  0.890000  4.450000 11.570000
6147   1  2 0.0000  0.890000  4.450000 18.690000
6148   1  2 0.0000  0.890000  4.450000 25.810000
6149   1  2 0.0000  0.890000  4.450000 32.930000
6150   1  2 0.0000  0.890000  4.450000 40.050000
6151   1  2 0.0000  0.890000  4.450000 47.170000
6152   1  2 0.0000  0.890000  4.450000 54.290000
6153   1  2 0.0000  0.890000 11.570000  4.450000
6154   1  2 0.0000  0.890000 11.570000 11.570000
6155   1  2 0.0000  0.890000 11.570000 18.690000
6156   1  2 0.0000  0.890000 11.570000 25.810000
6157   1  2 0.0000  0.890000 11.570000 32.930000
6158   1  2 0.0000  0.890000 11.570000 40.050000
6159   1  2 0.0000  0.890000 11.570000 47.170000
6160   1  2 0.0000  0.890000 11.570000 54.290000
6161   1  2 0.0000  0.890000 18.690000  4.450000
6162   1  2 0.0000  0.890000 18.690000 11.570000
6163   1  2 0.0000  0.890000 18.690000 18.690000
6164   1  2 0.0000  0.890000 18.690000 25.810000
6165   1  2 0.0000  0.890000 18.690000 32.930000
6166   1  2 0.0000  0.890000 18.690000 40.050000
6167   1  2 0.0000  0.890000 18.690000 47.170000
6168   1  2 0.0000  0.890000 18.690000 54.290000
6169   1  2 0.0000  0.890000 25.810000  4.450000
6170   1  2 0.0000  0.890000 25.810000 11.570000
6171   1  2 0.0000  0.890000 25.810000 18.690000
6172   1  2 0.0000  0.890000 25.810000 25.810000
6173   1  2 0.0000  0.890000 25.810000 32.930000
6174   1  2 0.0000  0.890000 25.810000 40.050000
6175   1  2 0.0000  0.890000 25.810000 47.170000
6176   1  2 0.0000  0.890000 25.810000 54.290000
6177   1  2 0.0000  0.890000 32.930000  4.450000
6178   1  2 0.0000  0.890000 32.930000 11.570000
6179   1  2 0.0000  0.890000 32.930000 18.690000
6180   1  2 0.0000  0.890000 32.930000 25.810000
6181   1  2 0.0000  0.890000 32.930000 32.930000
6182   1  2 0.0000  0.890000 32.930000 40.050000
6183   1  2 0.0000  0.890000 32.930000 47.170000
6184   1  2 0.0000  0.890000 32.930000 54.290000
6185   1  2 0.0000  0.890000 40.050000  4.450000
6186   1  2 0.0000  0.890000 40.050000 11.570000
6187   1  2 0.0000  0.890000 40.050000 18.690000
6188   1  2 0.0000  0.890000 40.050000 25.810000
6189   1  2 0.0000  0.890000 40.050000 32.930000
6190   1  2 0.0000  0.890000 40.050000 40.050000
6191   1  2 0.0000  0.890000 40.050000 47.170000
6192   1  2 0.0000  0.890000 40.050000 54.290000
6193   1  2 0.0000  0.890000 47.170000  4.450000
6194   1  2 0.0000  0.890000 47.170000 11.570000
6195   1  2 0.0000  0.890000 47.170000 18.690000
6196   1  2 0.0000  0.890000 47.170000 25.810000
6197   1  2 0.0000  0.890000 47.170000 32.930000
6198   1  2 0.0000  0.890000 47.170000 40.050000
6199   1  2 0.0000  0.890000 47.170000 47.170000
6200   1  2 0.0000  0.890000 47.170000 54.290000
6201   1  2 0.0000  0.890000 54.290000  4.450000
6202   1  2 0.0000  0.890000 54.290000 11.570000
6203   1  2 0.0000  0.890000 54.290000 18.690000
6204   1  2 0.0000  0.890000 54.290000 25.810000
6205   1  2 0.0000  0.890000 54.290000 32.930000
6206   1  2 0.0000  0.890000 54.290000 40.050000
6207   1  2 0.0000  0.890000 54.290000 47.170000
6208   1  2 0.0000  0.890000 54.290000 54.290000
6209   1  2 0.0000  8.010000  4.450000  4.450000
6210   1  2 0.0000  8.010000  4.450000 11.570000
6211   1  2 0.0000  8.010000  4.450000 18.690000
6212   1  2 0.0000  8.010000  4.450000 25.810000
6213   1  2 0.0000  8.010000  4.450000 32.930000
6214   1  2 0.0000  8.010000  4.450000 40.050000
6215   1  2 0.0000  8.010000  4.450000 47.170000
6216   1  2 0.0000  8.010000  4.450000 54.290000
6217   1  2 0.0000  8.010000 11.570000  4.450000
6218   1  2 0.0000  8.010000 11.570000 11.570000
6219   1  2 0.0000  8.010000 11.570000 18.690000
6220   1  2 0.0000  8.010000 11.570000 25.810000
6221   1  2 0.0000  8.010000 11.570000 32.930000
6222   1  2 0.0000  8.010000 11.570000 40.050000
6223   1  2 0.0000  8.010000 11.570000 47.170000
6224   1  2 0.0000  8.010000 11.570000 54.290000
6225   1  2 0.0000  8.010000 18.690000  4.450000
6226   1  2 0.0000  8.010000 18.690000 11.570000
6227   1  2 0.0000  8.010000 18.690000 18.690000
6228   1  2 0.0000  8.010000 18.690000 25.810000
6229   1  2 0.0000  8.010000 18.690000 32.930000
6230   1  2 0.0000  8.010000 18.690000 40.050000
6231   1  2 0.0000  8.010000 18.690000 47.170000
6232   1  2 0.0000  8.010000 18.690000 54.290000
6233   1  2 0.0000  8.010000 25.810000  4.450000
6234   1  2 0.0000  8.010000 25.810000 11.570000
6235   1  2 0.0000  8.010000 25.810000 18.690000
6236   1  2 0.0000  8.010000 25.810000 25.810000
6237   1  2 0.0000  8.010000 25.810000 32.930000
6238   1  2 0.0000  8.010000 25.810000 40.050000
6239   1  2 0.0000  8.010000 25.810000 47.170000
6240   1  2 0.0000  8.010000 25.810000 54.290000
6241   1  2 0.0000  8.010000 32.930000  4.450000
6242   1  2 0.0000  8.010000 32.930000 11.570000
6243   1  2 0.0000  8.010000 32.930000 18.690000
6244   1  2 0.0000  8.010000 32.930000 25.810000
6245   1  2 0.0000  8.010000 32.930000 32.930000
6246   1  2 0.0000  8.010000 32.930000 40.050000
6247   1  2 0.0000  8.010000 32.930000 47.170000
6248   1  2 0.0000  8.010000 32.930000 54.290000
6249   1  2 0.0000  8.010000 40.050000  4.450000
6250   1  2 0.0000  8.010000 40.050000 11.570000
6251   1  2 0.0000  8.010000 40.050000 18.690000
6252   1  2 0.0000  8.010000 40.050000 25.810000
6253   1  2 0.0000  8.010000 40.050000 32.930000
6254   1  2 0.0000  8.010000 40.050000 40.050000
6255   1  2 0.0000  8.010000 40.050000 47.170000
6256   1  2 0.0000  8.010000 40.050000 54.290000
6257   1  2 0.0000  8.010000 47.170000  4.450000
6258   1  2 0.0000  8.010000 47.170000 11.570000
6259   1  2 0.0000  8.010000 47.170000 18.690000
6260   1  2 0.0000  8.010000 47.170000 25.810000
6261   1  2 0.0000  8.010000 47.170000 32.930000
6262   1  2 0.0000  8.010000 47.170000 40.050000
6263   1  2 0.0000  8.010000 47.170000 47.170000
6264   1  2 0.0000  8.010000 47.170000 54.290000
6265   1  2 0.0000  8.010000 54.290000  4.450000
6266   1  2 0.0000  8.010000 54.290000 11.570000
6267   1  2 0.0000  8.010000 54.290000 18.690000
6268   1  2 0.0000  8.010000 54.290000 25.810000
6269   1  2 0.0000  8.010000 54.290000 32.930000
6270   1  2 0.0000  8.010000 54.290000 40.050000
6271   1  2 0.0000  8.010000 54.290000 47.170000
6272   1  2 0.0000  8.010000 54.290000 54.290000
6273   1  2 0.0000 15.130000  4.450000  4.450000
6274   1  2 0.0000 15.130000  4.450000 11.570000
6275   1  2 0.0000 15.130000  4.450000 18.690000
6276   1  2 0.0000 15.130000  4.450000 25.810000
6277   1  2 0.0000 15.130000  4.450000 32.930000
6278   1  2 0.0000 15.130000  4.450000 40.050000
6279   1  2 0.0000 15.130000  4.450000 47.170000
6280   1  2 0.0000 15.130000  4.450000 54.290000
6281   1  2 0.0000 15.130000 11.570000  4.450000
6282   1  2 0.0000 15.130000 11.570000 11.570000
6283   1  2 0.0000 15.130000 11.570000 18.690000
6284   1  2 0.0000 15.130000 11.570000 25.810000
6285   1  2 0.0000 15.130000 11.570000 32.930000
6286   1  2 0.0000 15.130000 11.570000 40.050000
6287   1  2 0.0000 15.130000 11.570000 47.170000
6288   1  2 0.0000 15.130000 11.570000 54.290000
6289   1  2 0.0000 15.130000 18.690000  4.450000
6290   1  2 0.0000 15.130000 18.690000 11.570000
6291   1  2 0.0000 15.130000 18.690000 18.690000
6292   1  2 0.0000 15.130000 18.690000 25.810000
6293   1  2 0.0000 15.130000 18.690000 32.930000
6294   1  2 0.0000 15.130000 18.690000 40.050000
6295   1  2 0.0000 15.130000 18.690000 47.170000
6296   1  2 0.0000 15.130000 18.690000 54.290000
6297   1  2 0.0000 15.130000 25.810000  4.450000
6298   1  2 0.0000 15.130000 25.810000 11.570000
6299   1  2 0.0000 15.130000 25.810000 18.690000
6300   1  2 0.0000 15.130000 25.810000 25.810000
6301   1  2 0.0000 15.130000 25.810000 32.930000
6302   1  2 0.0000 15.130000 25.810000 40.050000
6303   1  2 0.0000 15.130000 25.810000 47.170000
6304   1  2 0.0000 15.130000 25.810000 54.290000
6305   1  2 0.0000 15.130000 32.930000  4.450000
6306   1  2 0.0000 15.130000 32.930000 11.570000
6307   1  2 0.0000 15.130000 32.930000 18.690000
6308   1  2 0.0000 15.130000 32.930000 25.810000
6309   1  2 0.0000 15.130000 32.930000 32.930000
6310   1  2 0.0000 15.130000 32.930000 40.050000
6311   1  2 0.0000 15.130000 32.930000 47.170000
6312   1  2 0.0000 15.130000 32.930000 54.290000
6313   1  2 0.0000 15.130000 40.050000  4.450000
6314   1  2 0.0000 15.130000 40.050000 11.570000
6315   1  2 0.0000 15.130000 40.050000 18.690000
6316   1  2 0.0000 15.130000 40.050000 25.810000
6317   1  2 0.0000 15.130000 40.050000 32.930000
6318   1  2 0.0000 15.130000 40.050000 40.050000
6319   1  2 0.0000 15.130000 40.050000 47.170000
6320   1  2 0.0000 15.130000 40.050000 54.290000
6321   1  2 0.0000 15.130000 47.170000  4.450000
6322   1  2 0.0000 15.130000 47.170000 11.570000
6323   1  2 0.0000 15.130000 47.170000 18.690000
6324   1  2 0.0000 15.130000 47.170000 25.810000
6325   1  2 0.0000 15.130000 47.170000 32.930000
6326   1  2 0.0000 15.130000 47.170000 40.050000
6327   1  2 0.0000 15.130000 47.170000 47.170000
6328   1  2 0.0000 15.130000 47.170000 54.290000
6329   1  2 0.0000 15.130000 54.290000  4.450000
6330   1  2 0.0000 15.130000 54.290000 11.570000
6331   1  2 0.0000 15.130000 54.290000 18.690000
6332   1  2 0.0000 15.130000 54.290000 25.810000
6333   1  2 0.0000 15.130000 54.290000 32.930000
6334   1  2 0.0000 15.130000 54.290000 40.050000
6335   1  2 0.0000 15.130000 54.290000 47.170000
6336   1  2 0.0000 15.130000 54.290000 54.290000
6337   1  2 0.0000 22.250000  4.450000  4.450000
6338   1  2 0.0000 22.250000  4.450000 11.570000
6339   1  2 0.0000 22.250000  4.450000 18.690000
6340   1  2 0.0000 22.250000  4.450000 25.810000
6341   1  2 0.0000 22.250000  4.450000 32.930000
6342   1  2 0.0000 22.250000  4.450000 40.050000
6343   1  2 0.0000 22.250000  4.450000 47.170000
6344   1  2 0.0000 22.250000  4.450000 54.290000
6345   1  2 0.0000 22.250000 11.570000  4.450000
6346   1  2 0.0000 22.250000 11.570000 11.570000
6347   1  2 0.0000 22.250000 11.570000 18.690000
6348   1  2 0.0000 22.250000 11.570000 25.810000
6349   1  2 0.0000 22.250000 11.570000 32.930000
6350   1  2 0.0000 22.250000 11.570000 40.050000
6351   1  2 0.0000 22.250000 11.570000 47.170000
6352   1  2 0.0000 22.250000 11.570000 54.290000
6353   1  2 0.0000 22.250000 18.690000  4.450000
6354   1  2 0.0000 22.250000 18.690000 11.570000
6355   1  2 0.0000 22.250000 18.690000 18.690000
6356   1  2 0.0000 22.250000 18.690000 25.810000
6357   1  2 0.0000 22.250000 18.690000 32.930000
6358   1  2 0.0000 22.250000 18.690000 40.050000
6359   1  2 0.0000 22.250000 18.690000 47.170000
6360   1  2 0.0000 22.250000 18.690000 54.290000
6361   1  2 0.0000 22.250000 25.810000  4.450000
6362   1  2 0.0000 22.250000 25.810000 11.570000
6363   1  2 0.0000 22.250000 25.810000 18.690000
6364   1  2 0.0000 22.250000 25.810000 25.810000
6365   1  2 0.0000 22.250000 25.810000 32.930000
6366   1  2 0.0000 22.250000 25.810000 40.050000
6367   1  2 0.0000 22.250000 25.810000 47.170000
6368   1  2 0.0000 22.250000 25.810000 54.290000
6369   1  2 0.0000 22.250000 32.930000  4.450000
6370   1  2 0.0000 22.250000 32.930000 11.570000
6371   1  2 0.0000 22.250000 32.930000 18.690000
6372   1  2 0.0000 22.250000 32.930000 25.810000
6373   1  2 0.0000 22.250000 32.930000 32.930000
6374   1  2 0.0000 22.250000 32.930000 40.050000
6375   1  2 0.0000 22.250000 32.930000 47.170000
6376   1  2 0.0000 22.250000 32.930000 54.290000
6377   1  2 0.0000 22.250000 40.050000  4.450000
6378   1  2 0.0000 22.250000 40.050000 11.570000
6379   1  2 0.0000 22.250000 40.050000 18.690000
6380   1  2 0.0000 22.250000 40.050000 25.810000
6381   1  2 0.0000 22.250000 40.050000 32.930000
6382   1  2 0.0000 22.250000 40.050000 40.050000
6383   1  2 0.0000 22.250000 40.050000 47.170000
6384   1  2 0.0000 22.250000 40.050000 54.290000
6385   1  2 0.0000 22.250000 47.170000  4.450000
6386   1  2 0.0000 22.250000 47.170000 11.570000
6387   1  2 0.0000 22.250000 47.170000 18.690000
6388   1  2 0.0000 22.250000 47.170000 25.810000
6389   1  2 0.0000 22.250000 47.170000 32.930000
6390   1  2 0.0000 22.250000 47.170000 40.050000
6391   1  2 0.0000 22.250000 47.170000 47.170000
6392   1  2 0.0000 22.250000 47.170000 54.290000
6393   1  2 0.0000 22.250000 54.290000  4.450000
6394   1  2 0.0000 22.250000 54.290000 11.570000
6395   1  2 0.0000 22.250000 54.290000 18.690000
6396   1  2 0.0000 22.250000 54.290000 25.810000
6397   1  2 0.0000 22.250000 54.290000 32.930000
6398   1  2 0.0000 22.250000 54.290000 40.050000
6399   1  2 0.0000 22.250000 54.290000 47.170000
6400   1  2 0.0000 22.250000 54.290000 54.290000
6401   1  2 0.0000 29.370000  4.450000  4.450000
6402   1  2 0.0000 29.370000  4.450000 11.570000
6403   1  2 0.0000 29.370000  4.450000 18.690000
6404   1  2 0.0000 29.370000  4.450000 25.810000
6405   1  2 0.0000 29.370000  4.450000 32.930000
6406   1  2 0.0000 29.370000  4.450000 40.050000
6407   1  2 0.0000 29.370000  4.450000 47.170000
6408   1  2 0.0000 29.370000  4.450000 54.290000
6409   1  2 0.0000 29.370000 11.570000  4.450000
6410   1  2 0.0000 29.370000 11.570000 11.570000
6411   1  2 0.0000 29.370000 11.570000 18.690000
6412   1  2 0.0000 29.370000 11.570000 25.810000
6413   1  2 0.0000 29.370000 11.570000 32.930000
6414   1  2 0.0000 29.370000 11.570000 40.050000
6415   1  2 0.0000 29.370000 11.570000 47.170000
6416   1  2 0.0000 29.370000 11.570000 54.290000
6417   1  2 0.0000 29.370000 18.690000  4.450000
6418   1  2 0.0000 29.370000 18.690000 11.570000
6419   1  2 0.0000 29.370000 18.690000 18.690000
6420   1  2 0.0000 29.370000 18.690000 25.810000
6421   1  2 0.0000 29.370000 18.690000 32.930000
6422   1  2 0.0000 29.370000 18.690000 40.050000
6423   1  2 0.0000 29.370000 18.690000 47.170000
6424   1  2 0.0000 29.370000 18.690000 54.290000
6425   1  2 0.0000 29.370000 25.810000  4.450000
6426   1  2 0.0000 29.370000 25.810000 11.570000
6427   1  2 0.0000 29.370000 25.810000 18.690000
6428   1  2 0.0000 29.370000 25.810000 25.810000
6429   1  2 0.0000 29.370000 25.810000 32.930000
6430   1  2 0.0000 29.370000 25.810000 40.050000
6431   1  2 0.0000 29.370000 25.810000 47.170000
6432   1  2 0.0000 29.370000 25.810000 54.290000
6433   1  2 0.0000 29.370000 32.930000  4.450000
6434   1  2 0.0000 29.370000 32.930000 11.570000
6435   1  2 0.0000 29.370000 32.930000 18.690000
6436   1  2 0.0000 29.370000 32.930000 25.810000
6437   1  2 0.0000 29.370000 32.930000 32.930000
6438   1  2 0.0000 29.370000 32.930000 40.050000
6439   1  2 0.0000 29.370000 32.930000 47.170000
6440   1  2 0.0000 29.370000 32.930000 54.290000
6441   1  2 0.0000 29.370000 40.050000  4.450000
6442   1  2 0.0000 29.370000 40.050000 11.570000
6443   1  2 0.0000 29.370000 40.050000 18.690000
6444   1  2 0.0000 29.370000 40.050000 25.810000
6445   1  2 0.0000 29.370000 40.050000 32.930000
6446   1  2 0.0000 29.370000 40.050000 40.050000
6447   1  2 0.0000 29.370000 40.050000 47.170000
6448   1  2 0.0000 29.370000 40.050000 54.290000
6449   1  2 0.0000 29.370000 47.170000  4.450000
6450   1  2 0.0000 29.370000 47.170000 11.570000
6451   1  2 0.0000 29.370000 47.170000 18.690000
6452   1  2 0.0000 29.370000 47.170000 25.810000
6453   1  2 0.0000 29.370000 47.170000 32.930000
6454   1  2 0.0000 29.370000 47.170000 40.050000
6455   1  2 0.0000 29.370000 47.170000 47.170000
6456   1  2 0.0000 29.370000 47.170000 54.290000
6457   1  2 0.0000 29.370000 54.290000  4.450000
6458   1  2 0.0000 29.370000 54.290000 11.570000
6459   1  2 0.0000 29.370000 54.290000 18.690000
6460   1  2 0.0000 29.370000 54.290000 25.810000
6461   1  2 0.0000 29.370000 54.290000 32.930000
6462   1  2 0.0000 29.370000 54.290000 40.050000
6463   1  2 0.0000 29.370000 54.290000 47.170000
6464   1  2 0.0000 29.370000 54.290000 54.290000
6465   1  2 0.0000 36.490000  4.450000  4.450000
6466   1  2 0.0000 36.490000  4.450000 11.570000
6467   1  2 0.0000 36.490000  4.450000 18.690000
6468   1  2 0.0000 36.490000  4.450000 25.810000
6469   1  2 0.0000 36.490000  4.450000 32.930000
6470   1  2 0.0000 36.490000  4.450000 40.050000
6471   1  2 0.0000 36.490000  4.450000 47.170000
6472   1  2 0.0000 36.490000  4.450000 54.290000
6473   1  2 0.0000 36.490000 11.570000  4.450000
6474   1  2 0.0000 36.490000 11.570000 11.570000
6475   1  2 0.0000 36.490000 11.570000 18.690000
6476   1  2 0.0000 36.490000 11.570000 25.810000
6477   1  2 0.0000 36.490000 11.570000 32.930000
6478   1  2 0.0000 36.490000 11.570000 40.050000
6479   1  2 0.0000 36.490000 11.570000 47.170000
6480   1  2 0.0000 36.490000 11.570000 54.290000
6481   1  2 0.0000 36.490000 18.690000  4.450000
6482   1  2 0.0000 36.490000 18.690000 11.570000
6483   1  2 0.0000 36.490000 18.690000 18.690000
6484   1  2 0.0000 36.490000 18.690000 25.810000
6485   1  2 0.0000 36.490000 18.690000 32.930000
6486   1  2 0.0000 36.490000 18.690000 40.050000
6487   1  2 0.0000 36.490000 18.690000 47.170000
6488   1  2 0.0000 36.490000 18.690000 54.290000
6489   1  2 0.0000 36.490000 25.810000  4.450000
6490   1  2 0.0000 36.490000 25.810000 11.570000
6491   1  2 0.0000 36.490000 25.810000 18.690000
6492   1  2 0.0000 36.490000 25.810000 25.810000
6493   1  2 0.0000 36.490000 25.810000 32.930000
6494   1  2 0.0000 36.490000 25.810000 40.050000
6495   1  2 0.0000 36.490000 25.810000 47.170000
6496   1  2 0.0000 36.490000 25.810000 54.290000
6497   1  2 0.0000 36.490000 32.930000  4.450000
6498   1  2 0.0000 36.490000 32.930000 11.570000
6499   1  2 0.0000 36.490000 32.930000 18.690000
6500   1  2 0.0000 36.490000 32.930000 25.810000
6501   1  2 0.0000 36.490000 32.930000 32.930000
6502   1  2 0.0000 36.490000 32.930000 40.050000
6503   1  2 0.0000 36.490000 32.930000 47.170000
6504   1  2 0.0000 36.490000 32.930000 54.290000
6505   1  2 0.0000 36.490000 40.050000  4.450000
6506   1  2 0.0000 36.490000 40.050000 11.570000
6507   1  2 0.0000 36.490000 40.050000 18.690000
6508   1  2 0.0000 36.490000 40.050000 25.810000
6509   1  2 0.0000 36.490000 40.050000 32.930000
6510   1  2 0.0000 36.490000 40.050000 40.050000
6511   1  2 0.0000 36.490000 40.050000 47.170000
6512   1  2 0.0000 36.490000 40.050000 54.290000
6513   1  2 0.0000 36.490000 47.170000  4.450000
6514   1  2 0.0000 36.490000 47.170000 11.570000
6515   1  2 0.0000 36.490000 47.170000 18.690000
6516   1  2 0.0000 36.490000 47.170000 25.810000
6517   1  2 0.0000 36.490000 47.170000 32.930000
6518   1  2 0.0000 36.490000 47.170000 40.050000
6519   1  2 0.0000 36.490000 47.170000 47.170000
6520   1  2 0.0000 36.490000 47.170000 54.290000
6521   1  2 0.0000 36.490000 54.290000  4.450000
6522   1  2 0.0000 36.490000 54.290000 11.570000
6523   1  2 0.0000 36.490000 54.290000 18.690000
6524   1  2 0.0000 36.490000 54.290000 25.810000
6525   1  2 0.0000 36.490000 54.290000 32.930000
6526   1  2 0.0000 36.490000 54.290000 40.050000
6527   1  2 0.0000 36.490000 54.290000 47.170000
6528   1  2 0.0000 36.490000 54.290000 54.290000
6529   1  2 0.0000 43.610000  4.450000  4.450000
6530   1  2 0.0000 43.610000  4.450000 11.570000
6531   1  2 0.0000 43.610000  4.450000 18.690000
6532   1  2 0.0000 43.610000  4.450000 25.810000
6533   1  2 0.0000 43.610000  4.450000 32.930000
6534   1  2 0.0000 43.610000  4.450000 40.050000
6535   1  2 0.0000 43.610000  4.450000 47.170000
6536   1  2 0.0000 43.610000  4.450000 54.290000
6537   1  2 0.0000 43.610000 11.570000  4.450000
6538   1  2 0.0000 43.610000 11.570000 11.570000
6539   1  2 0.0000 43.610000 11.570000 18.690000
6540   1  2 0.0000 43.610000 11.570000 25.810000
6541   1  2 0.0000 43.610000 11.570000 32.930000
6542   1  2 0.0000 43.610000 11.570000 40.050000
6543   1  2 0.0000 43.610000 11.570000 47.170000
6544   1  2 0.0000 43.610000 11.570000 54.290000
6545   1  2 0.0000 43.610000 18.690000  4.450000
6546   1  2 0.0000 43.610000 18.690000 11.570000
6547   1  2 0.0000 43.610000 18.690000 18.690000
6548   1  2 0.0000 43.610000 18.690000 25.810000
6549   1  2 0.0000 43.610000 18.690000 32.930000
6550   1  2 0.0000 43.610000 18.690000 40.050000
6551   1  2 0.0000 43.610000 18.690000 47.170000
6552   1  2 0.0000 43.610000 18.690000 54.290000
6553   1  2 0.0000 43.610000 25.810000  4.450000
6554   1  2 0.0000 43.610000 25.810000 11.570000
6555   1  2 0.0000 43.610000 25.810000 18.690000
6556   1  2 0.0000 43.610000 25.810000 25.810000
6557   1  2 0.0000 43.610000 25.810000 32.930000
6558   1  2 0.0000 43.610000 25.810000 40.050000
6559   1  2 0.0000 43.610000 25.810000 47.170000
6560   1  2 0.0000 43.610000 25.810000 54.290000
6561   1  2 0.0000 43.610000 32.930000  4.450000
6562   1  2 0.0000 43.610000 32.930000 11.570000
6563   1  2 0.0000 43.610000 32.930000 18.690000
6564   1  2 0.0000 43.610000 32.930000 25.810000
6565   1  2 0.0000 43.610000 32.930000 32.930000
6566   1  2 0.0000 43.610000 32.930000 40.050000
6567   1  2 0.0000 43.610000 32.930000 47.170000
6568   1  2 0.0000 43.610000 32.930000 54.290000
6569   1  2 0.0000 43.610000 40.050000  4.450000
6570   1  2 0.0000 43.610000 40.050000 11.570000
6571   1  2 0.0000 43.610000 40.050000 18.690000
6572   1  2 0.0000 43.610000 40.050000 25.810000
6573   1  2 0.0000 43.610000 40.050000 32.930000
6574   1  2 0.0000 43.610000 40.050000 40.050000
6575   1  2 0.0000 43.610000 40.050000 47.170000
6576   1  2 0.0000 43.610000 40.050000 54.290000
6577   1  2 0.0000 43.610000 47.170000  4.450000
6578   1  2 0.0000 43.610000 47.170000 11.570000
6579   1  2 0.0000 43.610000 47.170000 18.690000
6580   1  2 0.0000 43.610000 47.170000 25.810000
6581   1  2 0.0000 43.610000 47.170000 32.930000
6582   1  2 0.0000 43.610000 47.170000 40.050000
6583   1  2 0.0000 43.610000 47.170000 47.170000
6584   1  2 0.0000 43.610000 47.170000 54.290000
6585   1  2 0.0000 43.610000 54.290000  4.450000
6586   1  2 0.0000 43.610000 54.290000 11.570000
6587   1  2 0.0000 43.610000 54.290000 18.690000
6588   1  2 0.0000 43.610000 54.290000 25.810000
6589   1  2 0.0000 43.610000 54.290000 32.930000
6590   1  2 0.0000 43.610000 54.290000 40.050000
6591   1  2 0.0000 43.610000 54.290000 47.170000
6592   1  2 0.0000 43.610000 54.290000 54.290000
6593   1  2 0.0000 50.730000  4.450000  4.450000
6594   1  2 0.0000 50.730000  4.450000 11.570000
6595   1  2 0.0000 50.730000  4.450000 18.690000
6596   1  2 0.0000 50.730000  4.450000 25.810000
6597   1  2 0.0000 50.730000  4.450000 32.930000
6598   1  2 0.0000 50.730000  4.450000 40.050000
6599   1  2 0.0000 50.730000  4.450000 47.170000
6600   1  2 0.0000 50.730000  4.450000 54.290000
6601   1  2 0.0000 50.730000 11.570000  4.450000
6602   1  2 0.0000 50.730000 11.570000 11.570000
6603   1  2 0.0000 50.730000 11.570000 18.690000
6604   1  2 0.0000 50.730000 11.570000 25.810000
6605   1  2 0.0000 50.730000 11.570000 32.930000
6606   1  2 0.0000 50.730000 11.570000 40.050000
6607   1  2 0.0000 50.730000 11.570000 47.170000
6608   1  2 0.0000 50.730000 11.570000 54.290000
6609   1  2 0.0000 50.730000 18.690000  4.450000
6610   1  2 0.0000 50.730000 18.690000 11.570000
6611   1  2 0.0000 50.730000 18.690000 18.690000
6612   1  2 0.0000 50.730000 18.690000 25.810000
6613   1  2 0.0000 50.730000 18.690000 32.930000
6614   1  2 0.0000 50.730000 18.690000 40.050000
6615   1  2 0.0000 50.730000 18.690000 47.170000
6616   1  2 0.0000 50.730000 18.690000 54.290000
6617   1  2 0.0000 50.730000 25.810000  4.450000
6618   1  2 0.0000 50.730000 25.810000 11.570000
6619   1  2 0.0000 50.730000 25.810000 18.690000
6620   1  2 0.0000 50.730000 25.810000 25.810000
6621   1  2 0.0000 50.730000 25.810000 32.930000
6622   1  2 0.0000 50.730000 25.810000 40.050000
6623   1  2 0.0000 50.730000 25.810000 47.170000
6624   1  2 0.0000 50.730000 25.810000 54.290000
6625   1  2 0.0000 50.730000 32.930000  4.450000
6626   1  2 0.0000 50.730000 32.930000 11.570000
6627   1  2 0.0000 50.730000 32.930000 18.690000
6628   1  2 0.0000 50.730000 32.930000 25.810000
6629   1  2 0.0000 50.730000 32.930000 32.930000
6630   1  2 0.0000 50.730000 32.930000 40.050000
6631   1  2 0.0000 50.730000 32.930000 47.170000
6632   1  2 0.0000 50.730000 32.930000 54.290000
6633   1  2 0.0000 50.730000 40.050000  4.450000
6634   1  2 0.0000 50.730000 40.050000 11.570000
6635   1  2 0.0000 50.730000 40.050000 18.690000
6636   1  2 0.0000 50.730000 40.050000 25.810000
6637   1  2 0.0000 50.730000 40.050000 32.930000
6638   1  2 0.0000 50.730000 40.050000 40.050000
6639   1  2 0.0000 50.730000 40.050000 47.170000
6640   1  2 0.0000 50.730000 40.050000 54.290000
6641   1  2 0.0000 50.730000 47.170000  4.450000
6642   1  2 0.0000 50.730000 47.170000 11.570000
6643   1  2 0.0000 50.730000 47.170000 18.690000
6644   1  2 0.0000 50.730000 47.170000 25.810000
6645   1  2 0.0000 50.730000 47.170000 32.930000
6646   1  2 0.0000 50.730000 47.170000 40.050000
6647   1  2 0.0000 50.730000 47.170000 47.170000
6648   1  2 0.0000 50.730000 47.170000 54.290000
6649   1  2 0.0000 50.730000 54.290000  4.450000
6650   1  2 0.0000 50.730000 54.290000 11.570000
6651   1  2 0.0000 50.730000 54.290000 18.690000
6652   1  2 0.0000 50.730000 54.290000 25.810000
6653   1  2 0.0000 50.730000 54.290000 32.930000
6654   1  2 0.0000 50.730000 54.290000 40.050000
6655   1  2 0.0000 50.730000 54.290000 47.170000
6656   1  2 0.0000 50.730000 54.290000 54.290000
6657   1  2 0.0000  4.450000  0.890000  4.450000
6658   1  2 0.0000  4.450000  0.890000 11.570000
6659   1  2 0.0000  4.450000  0.890000 18.690000
6660   1  2 0.0000  4.450000  0.890000 25.810000
6661   1  2 0.0000  4.450000  0.890000 32.930000
6662   1  2 0.0000  4.450000  0.890000 40.050000
6663   1  2 0.0000  4.450000  0.890000 47.170000
6664   1  2 0.0000  4.450000  0.890000 54.290000
6665   1  2 0.0000  4.450000  8.010000  4.450000
6666   1  2 0.0000  4.450000  8.010000 11.570000
6667   1  2 0.0000  4.450000  8.010000 18.690000
6668   1  2 0.0000  4.450000  8.010000 25.810000
6669   1  2 0.0000  4.450000  8.010000 32.930000
6670   1  2 0.0000  4.450000  8.010000 40.050000
6671   1  2 0.0000  4.450000  8.010000 47.170000
6672   1  2 0.0000  4.450000  8.010000 54.290000
6673   1  2 0.0000  4.450000 15.130000  4.450000
6674   1  2 0.0000  4.450000 15.130000 11.570000
6675   1  2 0.0000  4.450000 15.130000 18.690000
6676   1  2 0.0000  4.450000 15.130000 25.810000
6677   1  2 0.0000  4.450000 15.130000 32.930000
6678   1  2 0.0000  4.450000 15.130000 40.050000
6679   1  2 0.0000  4.450000 15.130000 47.170000
6680   1  2 0.0000  4.450000 15.130000 54.290000
6681   1  2 0.0000  4.450000 22.250000  4.450000
6682   1  2 0.0000  4.450000 22.250000 11.570000
6683   1  2 0.0000  4.450000 22.250000 18.690000
6684   1  2 0.0000  4.450000 22.250000 25.810000
6685   1  2 0.0000  4.450000 22.250000 32.930000
6686   1  2 0.0000  4.450000 22.250000 40.050000
6687   1  2 0.0000  4.450000 22.250000 47.170000
6688   1  2 0.0000  4.450000 22.250000 54.290000
6689   1  2 0.0000  4.450000 29.370000  4.450000
6690   1  2 0.0000  4.450000 29.370000 11.570000
6691   1  2 0.0000  4.450000 29.370000 18.690000
6692   1  2 0.0000  4.450000 29.370000 25.810000
6693   1  2 0.0000  4.450000 29.370000 32.930000
6694   1  2 0.0000  4.450000 29.370000 40.050000
6695   1  2 0.0000  4.450000 29.370000 47.170000
6696   1  2 0.0000  4.450000 29.370000 54.290000
6697   1  2 0.0000  4.450000 36.490000  4.450000
6698   1  2 0.0000  4.450000 36.490000 11.570000
6699   1  2 0.0000  4.450000 36.490000 18.690000
6700   1  2 0.0000  4.450000 36.490000 25.810000
6701   1  2 0.0000  4.450000 36.490000 32.930000
6702   1  2 0.0000  4.450000 36.490000 40.050000
6703   1  2 0.0000  4.450000 36.490000 47.170000
6704   1  2 0.0000  4.450000 36.490000 54.290000
6705   1  2 0.0000  4.450000 43.610000  4.450000
6706   1  2 0.0000  4.450000 43.610000 11.570000
6707   1  2 0.0000  4.450000 43.610000 18.690000
6708   1  2 0.0000  4.450000 43.610000 25.810000
6709   1  2 0.0000  4.450000 43.610000 32.930000
6710   1  2 0.0000  4.450000 43.610000 40.050000
6711   1  2 0.0000  4.450000 43.610000 47.170000
6712   1  2 0.0000  4.450000 43.610000 54.290000
6713   1  2 0.0000  4.450000 50.730000  4.450000
6714   1  2 0.0000  4.450000 50.730000 11.570000
6715   1  2 0.0000  4.450000 50.730000 18.690000
6716   1  2 0.0000  4.450000 50.730000 25.810000
6717   1  2 0.0000  4.450000 50.730000 32.930000
6718   1  2 0.0000  4.450000 50.730000 40.050000
6719   1  2 0.0000  4.450000 50.730000 47.170000
6720   1  2 0.0000  4.450000 50.730000 54.290000
6721   1  2 0.0000 11.570000  0.890000  4.450000
6722   1  2 0.0000 11.570000  0.890000 11.570000
6723   1  2 0.0000 11.570000  0.890000 18.690000
6724   1  2 0.0000 11.570000  0.890000 25.810000
6725   1  2 0.0000 11.570000  0.890000 32.930000
6726   1  2 0.0000 11.570000  0.890000 40.050000
6727   1  2 0.0000 11.570000  0.890000 47.170000
6728   1  2 0.0000 11.570000  0.890000 54.290000
6729   1  2 0.0000 11.570000  8.010000  4.450000
6730   1  2 0.0000 11.570000  8.010000 11.570000
6731   1  2 0.0000 11.570000  8.010000 18.690000
6732   1  2 0.0000 11.570000  8.010000 25.810000
6733   1  2 0.0000 11.570000  8.010000 32.930000
6734   1  2 0.0000 11.570000  8.010000 40.050000
6735   1  2 0.0000 11.570000  8.010000 47.170000
6736   1  2 0.0000 11.570000  8.010000 54.290000
6737   1  2 0.0000 11.570000 15.130000  4.450000
6738   1  2 0.0000 11.570000 15.130000 11.570000
6739   1  2 0.0000 11.570000 15.130000 18.690000
6740   1  2 0.0000 11.570000 15.130000 25.810000
6741   1  2 0.0000 11.570000 15.130000 32.930000
6742   1  2 0.0000 11.570000 15.130000 40.050000
6743   1  2 0.0000 11.570000 15.130000 47.170000
6744   1  2 0.0000 11.570000 15.130000 54.290000
6745   1  2 0.0000 11.570000 22.250000  4.450000
6746   1  2 0.0000 11.570000 22.250000 11.570000
6747   1  2 0.0000 11.570000 22.250000 18.690000
6748   1  2 0.0000 11.570000 22.250000 25.810000
6749   1  2 0.0000 11.570000 22.250000 32.930000
6750   1  2 0.0000 11.570000 22.250000 40.050000
6751   1  2 0.0000 11.570000 22.250000 47.170000
6752   1  2 0.0000 11.570000 22.250000 54.290000
6753   1  2 0.0000 11.570000 29.370000  4.450000
6754   1  2 0.0000 11.570000 29.370000 11.570000
6755   1  2 0.0000 11.570000 29.370000 18.690000
6756   1  2 0.0000 11.570000 29.370000 25.810000
6757   1  2 0.0000 11.570000 29.370000 32.930000
6758   1  2 0.0000 11.570000 29.370000 40.050000
6759   1  2 0.0000 11.570000 29.370000 47.170000
6760   1  2 0.0000 11.570000 29.370000 54.290000
6761   1  2 0.0000 11.570000 36.490000  4.450000
6762   1  2 0.0000 11.570000 36.490000 11.570000
6763   1  2 0.0000 11.570000 36.490000 18.690000
6764   1  2 0.0000 11.570000 36.490000 25.810000
6765   1  2 0.0000 11.570000 36.490000 32.930000
6766   1  2 0.0000 11.570000 36.490000 40.050000
6767   1  2 0.0000 11.570000 36.490000 47.170000
6768   1  2 0.0000 11.570000 36.490000 54.290000
6769   1  2 0.0000 11.570000 43.610000  4.450000
6770   1  2 0.0000 11.570000 43.610000 11.570000
6771   1  2 0.0000 11.570000 43.610000 18.690000
6772   1  2 0.0000 11.570000 43.610000 25.810000
6773   1  2 0.0000 11.570000 43.610000 32.930000
6774   1  2 0.0000 11.570000 43.610000 40.050000
6775   1  2 0.0000 11.570000 43.610000 47.170000
6776   1  2 0.0000 11.570000 43.610000 54.290000
6777   1  2 0.0000 11.570000 50.730000  4.450000
6778   1  2 0.0000 11.570000 50.730000 11.570000
6779   1  2 0.0000 11.570000 50.730000 18.690000
6780   1  2 0.0000 11.570000 50.730000 25.810000
6781   1  2 0.0000 11.570000 50.730000 32.930000
6782   1  2 0.0000 11.570000 50.730000 40.050000
6783   1  2 0.0000 11.570000 50.730000 47.170000
6784   1  2 0.0000 11.570000 50.730000 54.290000
6785   1  2 0.0000 18.690000  0.890000  4.450000
6786   1  2 0.0000 18.690000  0.890000 11.570000
6787   1  2 0.0000 18.690000  0.890000 18.690000
6788   1  2 0.0000 18.690000  0.890000 25.810000
6789   1  2 0.0000 18.690000  0.890000 32.930000
6790   1  2 0.0000 18.690000  0.890000 40.050000
6791   1  2 0.0000 18.690000  0.890000 47.170000
6792   1  2 0.0000 18.690000  0.890000 54.290000
6793   1  2 0.0000 18.690000  8.010000  4.450000
6794   1  2 0.0000 18.690000  8.010000 11.570000
6795   1  2 0.0000 18.690000  8.010000 18.690000
6796   1  2 0.0000 18.690000  8.010000 25.810000
6797   1  2 0.0000 18.690000  8.010000 32.930000
6798   1  2 0.0000 18.690000  8.010000 40.050000
6799   1  2 0.0000 18.690000  8.010000 47.170000
6800   1  2 0.0000 18.690000  8.010000 54.290000
6801   1  2 0.0000 18.690000 15.130000  4.450000
6802   1  2 0.0000 18.690000 15.130000 11.570000
6803   1  2 0.0000 18.690000 15.130000 18.690000
6804   1  2 0.0000 18.690000 15.130000 25.810000
6805   1  2 0.0000 18.690000 15.130000 32.930000
6806   1  2 0.0000 18.690000 15.130000 40.050000
6807   1  2 0.0000 18.690000 15.130000 47.170000
6808   1  2 0.0000 18.690000 15.130000 54.290000
6809   1  2 0.0000 18.690000 22.250000  4.450000
6810   1  2 0.0000 18.690000 22.250000 11.570000
6811   1  2 0.0000 18.690000 22.250000 18.690000
6812   1  2 0.0000 18.690000 22.250000 25.810000
6813   1  2 0.0000 18.690000 22.250000 32.930000
6814   1  2 0.0000 18.690000 22.250000 40.050000
6815   1  2 0.0000 18.690000 22.250000 47.170000
6816   1  2 0.0000 18.690000 22.250000 54.290000
6817   1  2 0.0000 18.690000 29.370000  4.450000
6818   1  2 0.0000 18.690000 29.370000 11.570000
6819   1  2 0.0000 18.690000 29.370000 18.690000
6820   1  2 0.0000 18.690000 29.370000 25.810000
6821   1  2 0.0000 18.690000 29.370000 32.930000
6822   1  2 0.0000 18.690000 29.370000 40.050000
6823   1  2 0.0000 18.690000 29.370000 47.170000
6824   1  2 0.0000 18.690000 29.370000 54.290000
6825   1  2 0.0000 18.690000 36.490000  4.450000
6826   1  2 0.0000 18.690000 36.490000 11.570000
6827   1  2 0.0000 18.690000 36.490000 18.690000
6828   1  2 0.0000 18.690000 36.490000 25.810000
6829   1  2 0.0000 18.690000 36.490000 32.930000
6830   1  2 0.0000 18.690000 36.490000 40.050000
6831   1  2 0.0000 18.690000 36.490000 47.170000
6832   1  2 0.0000 18.690000 36.490000 54.290000
6833   1  2 0.0000 18.690000 43.610000  4.450000
6834   1  2 0.0000 18.690000 43.610000 11.570000
6835   1  2 0.0000 18.690000 43.610000 18.690000
6836   1  2 0.0000 18.690000 43.610000 25.810000
6837   1  2 0.0000 18.690000 43.610000 32.930000
6838   1  2 0.0000 18.690000 43.610000 40.050000
6839   1  2 0.0000 18.690000 43.610000 47.170000
6840   1  2 0.0000 18.690000 43.610000 54.290000
6841   1  2 0.0000 18.690000 50.730000  4.450000
6842   1  2 0.0000 18.690000 50.730000 11.570000
6843   1  2 0.0000 18.690000 50.730000 18.690000
6844   1  2 0.0000 18.690000 50.730000 25.810000
6845   1  2 0.0000 18.690000 50.730000 32.930000
6846   1  2 0.0000 18.690000 50.730000 40.050000
6847   1  2 0.0000 18.690000 50.730000 47.170000
6848   1  2 0.0000 18.690000 50.730000 54.290000
6849   1  2 0.0000 25.810000  0.890000  4.450000
6850   1  2 0.0000 25.810000  0.890000 11.570000
6851   1  2 0.0000 25.810000  0.890000 18.690000
6852   1  2 0.0000 25.810000  0.890000 25.810000
6853   1  2 0.0000 25.810000  0.890000 32.930000
6854   1  2 0.0000 25.810000  0.890000 40.050000
6855   1  2 0.0000 25.810000  0.890000 47.170000
6856   1  2 0.0000 25.810000  0.890000 54.290000
6857   1  2 0.0000 25.810000  8.010000  4.450000
6858   1  2 0.0000 25.810000  8.010000 11.570000
6859   1  2 0.0000 25.810000  8.010000 18.690000
6860   1  2 0.0000 25.810000  8.010000 25.810000
6861   1  2 0.0000 25.810000  8.010000 32.930000
6862   1  2 0.0000 25.810000  8.010000 40.050000
6863   1  2 0.0000 25.810000  8.010000 47.170000
6864   1  2 0.0000 25.810000  8.010000 54.290000
6865   1  2 0.0000 25.810000 15.130000  4.450000
6866   1  2 0.0000 25.810000 15.130000 11.570000
6867   1  2 0.0000 25.810000 15.130000 18.690000
6868   1  2 0.0000 25.810000 15.130000 25.810000
6869   1  2 0.0000 25.810000 15.130000 32.930000
6870   1  2 0.0000 25.810000 15.130000 40.050000
6871   1  2 0.0000 25.810000 15.130000 47.170000
6872   1  2 0.0000 25.810000 15.130000 54.290000
6873   1  2 0.0000 25.810000 22.250000  4.450000
6874   1  2 0.0000 25.810000 22.250000 11.570000
6875   1  2 0.0000 25.810000 22.250000 18.690000
6876   1  2 0.0000 25.810000 22.250000 25.810000
6877   1  2 0.0000 25.810000 22.250000 32.930000
6878   1  2 0.0000 25.810000 22.250000 40.050000
6879   1  2 0.0000 25.810000 22.250000 47.170000
6880   1  2 0.0000 25.810000 22.250000 54.290000
6881   1  2 0.0000 25.810000 29.370000  4.450000
6882   1  2 0.0000 25.810000 29.370000 11.570000
6883   1  2 0.0000 25.810000 29.370000 18.690000
6884   1  2 0.0000 25.810000 29.370000 25.810000
6885   1  2 0.0000 25.810000 29.370000 32.930000
6886   1  2 0.0000 25.810000 29.370000 40.050000
6887   1  2 0.0000 25.810000 29.370000 47.170000
6888   1  2 0.0000 25.810000 29.370000 54.290000
6889   1  2 0.0000 25.810000 36.490000  4.450000
6890   1  2 0.0000 25.810000 36.490000 11.570000
6891   1  2 0.0000 25.810000 36.490000 18.690000
6892   1  2 0.0000 25.810000 36.490000 25.810000
6893   1  2 0.0000 25.810000 36.490000 32.930000
6894   1  2 0.0000 25.810000 36.490000 40.050000
6895   1  2 0.0000 25.810000 36.490000 47.170000
6896   1  2 0.0000 25.810000 36.490000 54.290000
6897   1  2 0.0000 25.810000 43.610000  4.450000
6898   1  2 0.0000 25.810000 43.610000 11.570000
6899   1  2 0.0000 25.810000 43.610000 18.690000
6900   1  2 0.0000 25.810000 43.610000 25.810000
6901   1  2 0.0000 25.810000 43.610000 32.930000
6902   1  2 0.0000 25.810000 43.610000 40.050000
6903   1  2 0.0000 25.810000 43.610000 47.170000
6904   1  2 0.0000 25.810000 43.610000 54.290000
6905   1  2 0.0000 25.810000 50.730000  4.450000
6906   1  2 0.0000 25.810000 50.730000 11.570000
6907   1  2 0.0000 25.810000 50.730000 18.690000
6908   1  2 0.0000 25.810000 50.730000 25.810000
6909   1  2 0.0000 25.810000 50.730000 32.930000
6910   1  2 0.0000 25.810000 50.730000 40.050000
6911   1  2 0.0000 25.810000 50.730000 47.170000
6912   1  2 0.0000 25.810000 50.730000 54.290000
6913   1  2 0.0000 32.930000  0.890000  4.450000
6914   1  2 0.0000 32.930000  0.890000 11.570000
6915   1  2 0.0000 32.930000  0.890000 18.690000
6916   1  2 0.0000 32.930000  0.890000 25.810000
6917   1  2 0.0000 32.930000  0.890000 32.930000
6918   1  2 0.0000 32.930000  0.890000 40.050000
6919   1  2 0.0000 32.930000  0.890000 47.170000
6920   1  2 0.0000 32.930000  0.890000 54.290000
6921   1  2 0.0000 32.930000  8.010000  4.450000
6922   1  2 0.0000 32.930000  8.010000 11.570000
6923   1  2 0.0000 32.930000  8.010000 18.690000
6924   1  2 0.0000 32.930000  8.010000 25.810000
6925   1  2 0.0000 32.930000  8.010000 32.930000
6926   1  2 0.0000 32.930000  8.010000 40.050000
6927   1  2 0.0000 32.930000  8.010000 47.170000
6928   1  2 0.0000 32.930000  8.010000 54.290000
6929   1  2 0.0000 32.930000 15.130000  4.450000
6930   1  2 0.0000 32.930000 15.130000 11.570000
6931   1  2 0.0000 32.930000 15.130000 18.690000
6932   1  2 0.0000 32.930000 15.130000 25.810000
6933   1  2 0.0000 32.930000 15.130000 32.930000
6934   1  2 0.0000 32.930000 15.130000 40.050000
6935   1  2 0.0000 32.930000 15.130000 47.170000
6936   1  2 0.0000 32.930000 15.130000 54.290000
6937   1  2 0.0000 32.930000 22.250000  4.450000
6938   1  2 0.0000 32.930000 22.250000 11.570000
6939   1  2 0.0000 32.930000 22.250000 18.690000
6940   1  2 0.0000 32.930000 22.250000 25.810000
6941   1  2 0.0000 32.930000 22.250000 32.930000
6942   1  2 0.0000 32.930000 22.250000 40.050000
6943   1  2 0.0000 32.930000 22.250000 47.170000
6944   1  2 0.0000 32.930000 22.250000 54.290000
6945   1  2 0.0000 32.930000 29.370000  4.450000
6946   1  2 0.0000 32.930000 29.370000 11.570000
6947   1  2 0.0000 32.930000 29.370000 18.690000
6948   1  2 0.0000 32.930000 29.370000 25.810000
6949   1  2 0.0000 32.930000 29.370000 32.930000
6950   1  2 0.0000 32.930000 29.370000 40.050000
6951   1  2 0.0000 32.930000 29.370000 47.170000
6952   1  2 0.0000 32.930000 29.370000 54.290000
6953   1  2 0.0000 32.930000 36.490000  4.450000
6954   1  2 0.0000 32.930000 36.490000 11.570000
6955   1  2 0.0000 32.930000 36.490000 18.690000
6956   1  2 0.0000 32.930000 36.490000 25.810000
6957   1  2 0.0000 32.930000 36.490000 32.930000
6958   1  2 0.0000 32.930000 36.490000 40.050000
6959   1  2 0.0000 32.930000 36.490000 47.170000
6960   1  2 0.0000 32.930000 36.490000 54.290000
6961   1  2 0.0000 32.930000 43.610000  4.450000
6962   1  2 0.0000 32.930000 43.610000 11.570000
6963   1  2 0.0000 32.930000 43.610000 18.690000
6964   1  2 0.0000 32.930000 43.610000 25.810000
6965   1  2 0.0000 32.930000 43.610000 32.930000
6966   1  2 0.0000 32.930000 43.610000 40.050000
6967   1  2 0.0000 32.930000 43.610000 47.170000
6968   1  2 0.0000 32.930000 43.610000 54.290000
6969   1  2 0.0000 32.930000 50.730000  4.450000
6970   1  2 0.0000 32.930000 50.730000 11.570000
6971   1  2 0.0000 32.930000 50.730000 18.690000
6972   1  2 0.0000 32.930000 50.730000 25.810000
6973   1  2 0.0000 32.930000 50.730000 32.930000
6974   1  2 0.0000 32.930000 50.730000 40.050000
6975   1  2 0.0000 32.930000 50.730000 47.170000
6976   1  2 0.0000 32.930000 50.730000 54.290000
6977   1  2 0.0000 40.050000  0.890000  4.450000
6978   1  2 0.0000 40.050000  0.890000 11.570000
6979   1  2 0.0000 40.050000  0.890000 18.690000
6980   1  2 0.0000 40.050000  0.890000 25.810000
6981   1  2 0.0000 40.050000  0.890000 32.930000
6982   1  2 0.0000 40.050000  0.890000 40.050000
6983   1  2 0.0000 40.050000  0.890000 47.170000
6984   1  2 0.0000 40.050000  0.890000 54.290000
6985   1  2 0.0000 40.050000  8.010000  4.450000
6986   1  2 0.0000 40.050000  8.010000 11.570000
6987   1  2 0.0000 40.050000  8.010000 18.690000
6988   1  2 0.0000 40.050000  8.010000 25.810000
6989   1  2 0.0000 40.050000  8.010000 32.930000
6990   1  2 0.0000 40.050000  8.010000 40.050000
6991   1  2 0.0000 40.050000  8.010000 47.170000
6992   1  2 0.0000 40.050000  8.010000 54.290000
6993   1  2 0.0000 40.050000 15.130000  4.450000
6994   1  2 0.0000 40.050000 15.130000 11.570000
6995   1  2 0.0000 40.050000 15.130000 18.690000
6996   1  2 0.0000 40.050000 15.130000 25.810000
6997   1  2 0.0000 40.050000 15.130000 32.930000
6998   1  2 0.0000 40.050000 15.130000 40.050000
6999   1  2 0.0000 40.050000 15.130000 47.170000
7000   1  2 0.0000 40.050000 15.130000 54.290000
7001   1  2 0.0000 40.050000 22.250000  4.450000
7002   1  2 0.0000 40.050000 22.250000 11.570000
7003   1  2 0.0000 40.050000 22.250000 18.690000
7004   1  2 0.0000 40.050000 22.250000 25.810000
7005   1  2 0.0000 40.050000 22.250000 32.930000
7006   1  2 0.0000 40.050000 22.250000 40.050000
7007   1  2 0.0000 40.050000 22.250000 47.170000
7008   1  2 0.0000 40.050000 22.250000 54.290000
7009   1  2 0.0000 40.050000 29.370000  4.450000
7010   1  2 0.0000 40.050000 29.370000 11.570000
7011   1  2 0.0000 40.050000 29.370000 18.690000
7012   1  2 0.0000 40.050000 29.370000 25.810000
7013   1  2 0.0000 40.050000 29.370000 32.930000
7014   1  2 0.0000 40.050000 29.370000 40.050000
7015   1  2 0.0000 40.050000 29.370000 47.170000
7016   1  2 0.0000 40.050000 29.370000 54.290000
7017   1  2 0.0000 40.050000 36.490000  4.450000
7018   1  2 0.0000 40.050000 36.490000 11.570000
7019   1  2 0.0000 40.050000 36.490000 18.690000
7020   1  2 0.0000 40.050000 36.490000 25.810000
7021   1  2 0.0000 40.050000 36.490000 32.930000
7022   1  2 0.0000 40.050000 36.490000 40.050000
7023   1  2 0.0000 40.050000 36.490000 47.170000
7024   1  2 0.0000 40.050000 36.490000 54.290000
7025   1  2 0.0000 40.050000 43.610000  4.450000
7026   1  2 0.0000 40.050000 43.610000 11.570000
7027   1  2 0.0000 40.050000 43.610000 18.690000
7028   1  2 0.0000 40.050000 43.610000 25.810000
7029   1  2 0.0000 40.050000 43.610000 32.930000
7030   1  2 0.0000 40.050000 43.610000 40.050000
7031   1  2 0.0000 40.050000 43.610000 47.170000
7032   1  2 0.0000 40.050000 43.610000 54.290000
7033   1  2 0.0000 40.050000 50.730000  4.450000
7034   1  2 0.0000 40.050000 50.730000 11.570000
7035   1  2 0.0000 40.050000 50.730000 18.690000
7036   1  2 0.0000 40.050000 50.730000 25.810000
7037   1  2 0.0000 40.050000 50.730000 32.930000
7038   1  2 0.0000 40.050000 50.730000 40.050000
7039   1  2 0.0000 40.050000 50.730000 47.170000
7040   1  2 0.0000 40.050000 50.730000 54.290000
7041   1  2 0.0000 47.170000  0.890000  4.450000
7042   1  2 0.0000 47.170000  0.890000 11.570000
7043   1  2 0.0000 47.170000  0.890000 18.690000
7044   1  2 0.0000 47.170000  0.890000 25.810000
7045   1  2 0.0000 47.170000  0.890000 32.930000
7046   1  2 0.0000 47.170000  0.890000 40.050000
7047   1  2 0.0000 47.170000  0.890000 47.170000
7048   1  2 0.0000 47.170000  0.890000 54.290000
7049   1  2 0.0000 47.170000  8.010000  4.450000
7050   1  2 0.0000 47.170000  8.010000 11.570000
7051   1  2 0.0000 47.170000  8.010000 18.690000
7052   1  2 0.0000 47.170000  8.010000 25.810000
7053   1  2 0.0000 47.170000  8.010000 32.930000
7054   1  2 0.0000 47.170000  8.010000 40.050000
7055   1  2 0.0000 47.170000  8.010000 47.170000
7056   1  2 0.0000 47.170000  8.010000 54.290000
7057   1  2 0.0000 47.170000 15.130000  4.450000
7058   1  2 0.0000 47.170000 15.130000 11.570000
7059   1  2 0.0000 47.170000 15.130000 18.690000
7060   1  2 0.0000 47.170000 15.130000 25.810000
7061   1  2 0.0000 47.170000 15.130000 32.930000
7062   1  2 0.0000 47.170000 15.130000 40.050000
7063   1  2 0.0000 47.170000 15.130000 47.170000
7064   1  2 0.0000 47.170000 15.130000 54.290000
7065   1  2 0.0000 47.170000 22.250000  4.450000
7066   1  2 0.0000 47.170000 22.250000 11.570000
7067   1  2 0.0000 47.170000 22.250000 18.690000
7068   1  2 0.0000 47.170000 22.250000 25.810000
7069   1  2 0.0000 47.170000 22.250000 32.930000
7070   1  2 0.0000 47.170000 22.250000 40.050000
7071   1  2 0.0000 47.170000 22.250000 47.170000
7072   1  2 0.0000 47.170000 22.250000 54.290000
7073   1  2 0.0000 47.170000 29.370000  4.450000
7074   1  2 0.0000 47.170000 29.370000 11.570000
7075   1  2 0.0000 47.170000 29.370000 18.690000
7076   1  2 0.0000 47.170000 29.370000 25.810000
7077   1  2 0.0000 47.170000 29.370000 32.930000
7078   1  2 0.0000 47.170000 29.370000 40.050000
7079   1  2 0.0000 47.170000 29.370000 47.170000
7080   1  2 0.0000 47.170000 29.370000 54.290000
7081   1  2 0.0000 47.170000 36.490000  4.450000
7082   1  2 0.0000 47.170000 36.490000 11.570000
7083   1  2 0.0000 47.170000 36.490000 18.690000
7084   1  2 0.0000 47.170000 36.490000 25.810000
7085   1  2 0.0000 47.170000 36.490000 32.930000
7086   1  2 0.0000 47.170000 36.490000 40.050000
7087   1  2 0.0000 47.170000 36.490000 47.170000
7088   1  2 0.0000 47.170000 36.490000 54.290000
7089   1  2 0.0000 47.170000 43.610000  4.450000
7090   1  2 0.0000 47.170000 43.610000 11.570000
7091   1  2 0.0000 47.170000 43.610000 18.690000
7092   1  2 0.0000 47.170000 43.610000 25.810000
7093   1  2 0.0000 47.170000 43.610000 32.930000
7094   1  2 0.0000 47.170000 43.610000 40.050000
7095   1  2 0.0000 47.170000 43.610000 47.170000
7096   1  2 0.0000 47.170000 43.610000 54.290000
7097   1  2 0.0000 47.170000 50.730000  4.450000
7098   1  2 0.0000 47.170000 50.730000 11.570000
7099   1  2 0.0000 47.170000 50.730000 18.690000
7100   1  2 0.0000 47.170000 50.730000 25.810000
7101   1  2 0.0000 47.170000 50.730000 32.930000
7102   1  2 0.0000 47.170000 50.730000 40.050000
7103   1  2 0.0000 47.170000 50.730000 47.170000
7104   1  2 0.0000 47.170000 50.730000 54.290000
7105   1  2 0.0000 54.290000  0.890000  4.450000
7106   1  2 0.0000 54.290000  0.890000 11.570000
7107   1  2 0.0000 54.290000  0.890000 18.690000
7108   1  2 0.0000 54.290000  0.890000 25.810000
7109   1  2 0.0000 54.290000  0.890000 32.930000
7110   1  2 0.0000 54.290000  0.890000 40.050000
7111   1  2 0.0000 54.290000  0.890000 47.170000
7112   1  2 0.0000 54.290000  0.890000 54.290000
7113   1  2 0.0000 54.290000  8.010000  4.450000
7114   1  2 0.0000 54.290000  8.010000 11.570000
7115   1  2 0.0000 54.290000  8.010000 18.690000
7116   1  2 0.0000 54.290000  8.010000 25.810000
7117   1  2 0.0000 54.290000  8.010000 32.930000
7118   1  2 0.0000 54.290000  8.010000 40.050000
7119   1  2 0.0000 54.290000  8.010000 47.170000
7120   1  2 0.0000 54.290000  8.010000 54.290000
7121   1  2 0.0000 54.290000 15.130000  4.450000
7122   1  2 0.0000 54.290000 15.130000 11.570000
7123   1  2 0.0000 54.290000 15.130000 18.690000
7124   1  2 0.0000 54.290000 15.130000 25.810000
7125   1  2 0.0000 54.290000 15.130000 32.930000
7126   1  2 0.0000 54.290000 15.130000 40.050000
7127   1  2 0.0000 54.290000 15.130000 47.170000
7128   1  2 0.0000 54.290000 15.130000 54.290000
7129   1  2 0.0000 54.290000 22.250000  4.450000
7130   1  2 0.0000 54.290000 22.250000 11.570000
7131   1  2 0.0000 54.290000 22.250000 18.690000
7132   1  2 0.0000 54.290000 22.250000 25.810000
7133   1  2 0.0000 54.290000 22.250000 32.930000
7134   1  2 0.0000 54.290000 22.250000 40.050000
7135   1  2 0.0000 54.290000 22.250000 47.170000
7136   1  2 0.0000 54.290000 22.250000 54.290000
7137   1  2 0.0000 54.290000 29.370000  4.450000
7138   1  2 0.0000 54.290000 29.370000 11.570000
7139   1  2 0.0000 54.290000 29.370000 18.690000
7140   1  2 0.0000 54.290000 29.370000 25.810000
7141   1  2 0.0000 54.290000 29.370000 32.930000
7142   1  2 0.0000 54.290000 29.370000 40.050000
7143   1  2 0.0000 54.290000 29.370000 47.170000
7144   1  2 0.0000 54.290000 29.370000 54.290000
7145   1  2 0.0000 54.290000 36.490000  4.450000
7146   1  2 0.0000 54.290000 36.490000 11.570000
7147   1  2 0.0000 54.290000 36.490000 18.690000
7148   1  2 0.0000 54.290000 36.490000 25.810000
7149   1  2 0.0000 54.290000 36.490000 32.930000
7150   1  2 0.0000 54.290000 36.490000 40.050000
7151   1  2 0.0000 54.290000 36.490000 47.170000
7152   1  2 0.0000 54.290000 36.490000 54.290000
7153   1  2 0.0000 54.290000 43.610000  4.450000
7154   1  2 0.0000 54.290000 43.610000 11.570000
7155   1  2 0.0000 54.290000 43.610000 18.690000
7156   1  2 0.0000 54.290000 43.610000 25.810000
7157   1  2 0.0000 54.290000 43.610000 32.930000
7158   1  2 0.0000 54.290000 43.610000 40.050000
7159   1  2 0.0000 54.290000 43.610000 47.170000
7160   1  2 0.0000 54.290000 43.610000 54.290000
7161   1  2 0.0000 54.290000 50.730000  4.450000
7162   1  2 0.0000 54.290000 50.730000 11.570000
7163   1  2 0.0000 54.290000 50.730000 18.690000
7164   1  2 0.0000 54.290000 50.730000 25.810000
7165   1  2 0.0000 54.290000 50.730000 32.930000
7166   1  2 0.0000 54.290000 50.730000 40.050000
7167   1  2 0.0000 54.290000 50.730000 47.170000
7168   1  2 0.0000 54.290000 50.730000 54.290000
7169   1  2 0.0000  4.450000  4.450000  0.890000
7170   1  2 0.0000  4.450000  4.450000  8.010000
7171   1  2 0.0000  4.450000  4.450000 15.130000
7172   1  2 0.0000  4.450000  4.450000 22.250000
7173   1  2 0.0000  4.450000  4.450000 29.370000
7174   1  2 0.0000  4.450000  4.450000 36.490000
7175   1  2 0.0000  4.450000  4.450000 43.610000
7176   1  2 0.0000  4.450000  4.450000 50.730000
7177   1  2 0.0000  4.450000 11.570000  0.890000
7178   1  2 0.0000  4.450000 11.570000  8.010000
7179   1  2 0.0000  4.450000 11.570000 15.130000
7180   1  2 0.0000  4.450000 11.570000 22.250000
7181   1  2 0.0000  4.450000 11.570000 29.370000
7182   1  2 0.0000  4.450000 11.570000 36.490000
7183   1  2 0.0000  4.450000 11.570000 43.610000
7184   1  2 0.0000  4.450000 11.570000 50.730000
7185   1  2 0.0000  4.450000 18.690000  0.890000
7186   1  2 0.0000  4.450000 18.690000  8.010000
7187   1  2 0.0000  4.450000 18.690000 15.130000
7188   1  2 0.0000  4.450000 18.690000 22.250000
7189   1  2 0.0000  4.450000 18.690000 29.370000
7190   1  2 0.0000  4.450000 18.690000 36.490000
7191   1  2 0.0000  4.450000 18.690000 43.610000
7192   1  2 0.0000  4.450000 18.690000 50.730000
7193   1  2 0.0000  4.450000 25.810000  0.890000
7194   1  2 0.0000  4.450000 25.810000  8.010000
7195   1  2 0.0000  4.450000 25.810000 15.130000
7196   1  2 0.0000  4.450000 25.810000 22.250000
7197   1  2 0.0000  4.450000 25.810000 29.370000
7198   1  2 0.0000  4.450000 25.810000 36.490000
7199   1  2 0.0000  4.450000 25.810000 43.610000
7200   1  2 0.0000  4.450000 25.810000 50.730000
7201   1  2 0.0000  4.450000 32.930000  0.890000
7202   1  2 0.0000  4.450000 32.930000  8.010000
7203   1  2 0.0000  4.450000 32.930000 15.130000
7204   1  2 0.0000  4.450000 32.930000 22.250000
7205   1  2 0.0000  4.450000 32.930000 29.370000
7206   1  2 0.0000  4.450000 32.930000 36.490000
7207   1  2 0.0000  4.450000 32.930000 43.610000
7208   1  2 0.0000  4.450000 32.930000 50.730000
7209   1  2 0.0000  4.450000 40.050000  0.890000
7210   1  2 0.0000  4.450000 40.050000  8.010000
7211   1  2 0.0000  4.450000 40.050000 15.130000
7212   1  2 0.0000  4.450000 40.050000 22.250000
7213   1  2 0.0000  4.450000 40.050000 29.370000
7214   1  2 0.0000  4.450000 40.050000 36.490000
7215   1  2 0.0000  4.450000 40.050000 43.610000
7216   1  2 0.0000  4.450000 40.050000 50.730000
7217   1  2 0.0000  4.450000 47.170000  0.890000
7218   1  2 0.0000  4.450000 47.170000  8.010000
7219   1  2 0.0000  4.450000 47.170000 15.130000
7220   1  2 0.0000  4.450000 47.170000 22.250000
7221   1  2 0.0000  4.450000 47.170000 29.370000
7222   1  2 0.0000  4.450000 47.170000 36.490000
7223   1  2 0.0000  4.450000 47.170000 43.610000
7224   1  2 0.0000  4.450000 47.170000 50.730000
7225   1  2 0.0000  4.450000 54.290000  0.890000
7226   1  2 0.0000  4.450000 54.290000  8.010000
7227   1  2 0.0000  4.450000 54.290000 15.130000
7228   1  2 0.0000  4.450000 54.290000 22.250000
7229   1  2 0.0000  4.450000 54.290000 29.370000
7230   1  2 0.0000  4.450000 54.290000 36.490000
7231   1  2 0.0000  4.450000 54.290000 43.610000
7232   1  2 0.0000  4.450000 54.290000 50.730000
7233   1  2 0.0000 11.570000  4.450000  0.890000
7234   1  2 0.0000 11.570000  4.450000  8.010000
7235   1  2 0.0000 11.570000  4.450000 15.130000
7236   1  2 0.0000 11.570000  4.450000 22.250000
7237   1  2 0.0000 11.570000  4.450000 29.370000
7238   1  2 0.0000 11.570000  4.450000 36.490000
7239   1  2 0.0000 11.570000  4.450000 43.610000
7240   1  2 0.0000 11.570000  4.450000 50.730000
7241   1  2 0.0000 11.570000 11.570000  0.890000
7242   1  2 0.0000 11.570000 11.570000  8.010000
7243   1  2 0.0000 11.570000 11.570000 15.130000
7244   1  2 0.0000 11.570000 11.570000 22.250000
7245   1  2 0.0000 11.570000 11.570000 29.370000
7246   1  2 0.0000 11.570000 11.570000 36.490000
7247   1  2 0.0000 11.570000 11.570000 43.610000
7248   1  2 0.0000 11.570000 11.570000 50.730000
7249   1  2 0.0000 11.570000 18.690000  0.890000
7250   1  2 0.0000 11.570000 18.690000  8.010000
7251   1  2 0.0000 11.570000 18.690000 15.130000
7252   1  2 0.0000 11.570000 18.690000 22.250000
7253   1  2 0.0000 11.570000 18.690000 29.370000
7254   1  2 0.0000 11.570000 18.690000 36.490000
7255   1  2 0.0000 11.570000 18.690000 43.610000
7256   1  2 0.0000 11.570000 18.690000 50.730000
7257   1  2 0.0000 11.570000 25.810000  0.890000
7258   1  2 0.0000 11.570000 25.810000  8.010000
7259   1  2 0.0000 11.570000 25.810000 15.130000
7260   1  2 0.0000 11.570000 25.810000 22.250000
7261   1  2 0.0000 11.570000 25.810000 29.370000
7262   1  2 0.0000 11.570000 25.810000 36.490000
7263   1  2 0.0000 11.570000 25.810000 43.610000
7264   1  2 0.0000 11.570000 25.810000 50.730000
7265   1  2 0.0000 11.570000 32.930000  0.890000
7266   1  2 0.0000 11.570000 32.930000  8.010000
7267   1  2 0.0000 11.570000 32.930000 15.130000
7268   1  2 0.0000 11.570000 32.930000 22.250000
7269   1  2 0.0000 11.570000 32.930000 29.370000
7270   1  2 0.0000 11.570000 32.930000 36.490000
7271   1  2 0.0000 11.570000 32.930000 43.610000
7272   1  2 0.0000 11.570000 32.930000 50.730000
7273   1  2 0.0000 11.570000 40.050000  0.890000
7274   1  2 0.0000 11.570000 40.050000  8.010000
7275   1  2 0.0000 11.570000 40.050000 15.130000
7276   1  2 0.0000 11.570000 40.050000 22.250000
7277   1  2 0.0000 11.570000 40.050000 29.370000
7278   1  2 0.0000 11.570000 40.050000 36.490000
7279   1  2 0.0000 11.570000 40.050000 43.610000
7280   1  2 0.0000 11.570000 40.050000 50.730000
7281   1  2 0.0000 11.570000 47.170000  0.890000
7282   1  2 0.0000 11.570000 47.170000  8.010000
7283   1  2 0.0000 11.570000 47.170000 15.130000
7284   1  2 0.0000 11.570000 47.170000 22.250000
7285   1  2 0.0000 11.570000 47.170000 29.370000
7286   1  2 0.0000 11.570000 47.170000 36.490000
7287   1  2 0.0000 11.570000 47.170000 43.610000
7288   1  2 0.0000 11.570000 47.170000 50.730000
7289   1  2 0.0000 11.570000 54.290000  0.890000
7290   1  2 0.0000 11.570000 54.290000  8.010000
7291   1  2 0.0000 11.570000 54.290000 15.130000
7292   1  2 0.0000 11.570000 54.290000 22.250000
7293   1  2 0.0000 11.570000 54.290000 29.370000
7294   1  2 0.0000 11.570000 54.290000 36.490000
7295   1  2 0.0000 11.570000 54.290000 43.610000
7296   1  2 0.0000 11.570000 54.290000 50.730000
7297   1  2 0.0000 18.690000  4.450000  0.890000
7298   1  2 0.0000 18.690000  4.450000  8.010000
7299   1  2 0.0000 18.690000  4.450000 15.130000
7300   1  2 0.0000 18.690000  4.450000 22.250000
7301   1  2 0.0000 18.690000  4.450000 29.370000
7302   1  2 0.0000 18.690000  4.450000 36.490000
7303   1  2 0.0000 18.690000  4.450000 43.610000
7304   1  2 0.0000 18.690000  4.450000 50.730000
7305   1  2 0.0000 18.690000 11.570000  0.890000
7306   1  2 0.0000 18.690000 11.570000  8.010000
7307   1  2 0.0000 18.690000 11.570000 15.130000
7308   1  2 0.0000 18.690000 11.570000 22.250000
7309   1  2 0.0000 18.690000 11.570000 29.370000
7310   1  2 0.0000 18.690000 11.570000 36.490000
7311   1  2 0.0000 18.690000 11.570000 43.610000
7312   1  2 0.0000 18.690000 11.570000 50.730000
7313   1  2 0.0000 18.690000 18.690000  0.890000
7314   1  2 0.0000 18.690000 18.690000  8.010000
7315   1  2 0.0000 18.690000 18.690000 15.130000
7316   1  2 0.0000 18.690000 18.690000 22.250000
7317   1  2 0.0000 18.690000 18.690000 29.370000
7318   1  2 0.0000 18.690000 18.690000 36.490000
7319   1  2 0.0000 18.690000 18.690000 43.610000
7320   1  2 0.0000 18.690000 18.690000 50.730000
7321   1  2 0.0000 18.690000 25.810000  0.890000
7322   1  2 0.0000 18.690000 25.810000  8.010000
7323   1  2 0.0000 18.690000 25.810000 15.130000
7324   1  2 0.0000 18.690000 25.810000 22.250000
7325   1  2 0.0000 18.690000 25.810000 29.370000
7326   1  2 0.0000 18.690000 25.810000 36.490000
7327   1  2 0.0000 18.690000 25.810000 43.610000
7328   1  2 0.0000 18.690000 25.810000 50.730000
7329   1  2 0.0000 18.690000 32.930000  0.890000
7330   1  2 0.0000 18.690000 32.930000  8.010000
7331   1  2 0.0000 18.690000 32.930000 15.130000
7332   1  2 0.0000 18.690000 32.930000 22.250000
7333   1  2 0.0000 18.690000 32.930000 29.370000
7334   1  2 0.0000 18.690000 32.930000 36.490000
7335   1  2 0.0000 18.690000 32.930000 43.610000
7336   1  2 0.0000 18.690000 32.930000 50.730000
7337   1  2 0.0000 18.690000 40.050000  0.890000
7338   1  2 0.0000 18.690000 40.050000  8.010000
7339   1  2 0.0000 18.690000 40.050000 15.130000
7340   1  2 0.0000 18.690000 40.050000 22.250000
7341   1  2 0.0000 18.690000 40.050000 29.370000
7342   1  2 0.0000 18.690000 40.050000 36.490000
7343   1  2 0.0000 18.690000 40.050000 43.610000
7344   1  2 0.0000 18.690000 40.050000 50.730000
7345   1  2 0.0000 18.690000 47.170000  0.890000
7346   1  2 0.0000 18.690000 47.170000  8.010000
7347   1  2 0.0000 18.690000 47.170000 15.130000
7348   1  2 0.0000 18.690000 47.170000 22.250000
7349   1  2 0.0000 18.690000 47.170000 29.370000
7350   1  2 0.0000 18.690000 47.170000 36.490000
7351   1  2 0.0000 18.690000 47.170000 43.610000
7352   1  2 0.0000 18.690000 47.170000 50.730000
7353   1  2 0.0000 18.690000 54.290000  0.890000
7354   1  2 0.0000 18.690000 54.290000  8.010000
7355   1  2 0.0000 18.690000 54.290000 15.130000
7356   1  2 0.0000 18.690000 54.290000 22.250000
7357   1  2 0.0000 18.690000 54.290000 29.370000
7358   1  2 0.0000 18.690000 54.290000 36.490000
7359   1  2 0.0000 18.690000 54.290000 43.610000
7360   1  2 0.0000 18.690000 54.290000 50.730000
7361   1  2 0.0000 25.810000  4.450000  0.890000
7362   1  2 0.0000 25.810000  4.450000  8.010000
7363   1  2 0.0000 25.810000  4.450000 15.130000
7364   1  2 0.0000 25.810000  4.450000 22.250000
7365   1  2 0.0000 25.810000  4.450000 29.370000
7366   1  2 0.0000 25.810000  4.450000 36.490000
7367   1  2 0.0000 25.810000  4.450000 43.610000
7368   1  2 0.0000 25.810000  4.450000 50.730000
7369   1  2 0.0000 25.810000 11.570000  0.890000
7370   1  2 0.0000 25.810000 11.570000  8.010000
7371   1  2 0.0000 25.810000 11.570000 15.130000
7372   1  2 0.0000 25.810000 11.570000 22.250000
7373   1  2 0.0000 25.810000 11.570000 29.370000
7374   1  2 0.0000 25.810000 11.570000 36.490000
7375   1  2 0.0000 25.810000 11.570000 43.610000
7376   1  2 0.0000 25.810000 11.570000 50.730000
7377   1  2 0.0000 25.810000 18.690000  0.890000
7378   1  2 0.0000 25.810000 18.690000  8.010000
7379   1  2 0.0000 25.810000 18.690000 15.130000
7380   1  2 0.0000 25.810000 18.690000 22.250000
7381   1  2 0.0000 25.810000 18.690000 29.370000
7382   1  2 0.0000 25.810000 18.690000 36.490000
7383   1  2 0.0000 25.810000 18.690000 43.610000
7384   1  2 0.0000 25.810000 18.690000 50.730000
7385   1  2 0.0000 25.810000 25.810000  0.890000
7386   1  2 0.0000 25.810000 25.810000  8.010000
7387   1  2 0.0000 25.810000 25.810000 15.130000
7388   1  2 0.0000 25.810000 25.810000 22.250000
7389   1  2 0.0000 25.810000 25.810000 29.370000
7390   1  2 0.0000 25.810000 25.810000 36.490000
7391   1  2 0.0000 25.810000 25.810000 43.610000
7392   1  2 0.0000 25.810000 25.810000 50.730000
7393   1  2 0.0000 25.810000 32.930000  0.890000
7394   1  2 0.0000 25.810000 32.930000  8.010000
7395   1  2 0.0000 25.810000 32.930000 15.130000
7396   1  2 0.0000 25.810000 32.930000 22.250000
7397   1  2 0.0000 25.810000 32.930000 29.370000
7398   1  2 0.0000 25.810000 32.930000 36.490000
7399   1  2 0.0000 25.810000 32.930000 43.610000
7400   1  2 0.0000 25.810000 32.930000 50.730000
7401   1  2 0.0000 25.810000 40.050000  0.890000
7402   1  2 0.0000 25.810000 40.050000  8.010000
7403   1  2 0.0000 25.810000 40.050000 15.130000
7404   1  2 0.0000 25.810000 40.050000 22.250000
7405   1  2 0.0000 25.810000 40.050000 29.370000
7406   1  2 0.0000 25.810000 40.050000 36.490000
7407   1  2 0.0000 25.810000 40.050000 43.610000
7408   1  2 0.0000 25.810000 40.050000 50.730000
7409   1  2 0.0000 25.810000 47.170000  0.890000
7410   1  2 0.0000 25.810000 47.170000  8.010000
7411   1  2 0.0000 25.810000 47.170000 15.130000
7412   1  2 0.0000 25.810000 47.170000 22.250000
7413   1  2 0.0000 25.810000 47.170000 29.370000
7414   1  2 0.0000 25.810000 47.170000 36.490000
7415   1  2 0.0000 25.810000 47.170000 43.610000
7416   1  2 0.0000 25.810000 47.170000 50.730000
7417   1  2 0.0000 25.810000 54.290000  0.890000
7418   1  2 0.0000 25.810000 54.290000  8.010000
7419   1  2 0.0000 25.810000 54.290000 15.130000
7420   1  2 0.0000 25.810000 54.290000 22.250000
7421   1  2 0.0000 25.810000 54.290000 29.370000
7422   1  2 0.0000 25.810000 54.290000 36.490000
7423   1  2 0.0000 25.810000 54.290000 43.610000
7424   1  2 0.0000 25.810000 54.290000 50.730000
7425   1  2 0.0000 32.930000  4.450000  0.890000
7426   1  2 0.0000 32.930000  4.450000  8.010000
7427   1  2 0.0000 32.930000  4.450000 15.130000
7428   1  2 0.0000 32.930000  4.450000 22.250000
7429   1  2 0.0000 32.930000  4.450000 29.370000
7430   1  2 0.0000 32.930000  4.450000 36.490000
7431   1  2 0.0000 32.930000  4.450000 43.610000
7432   1  2 0.0000 32.930000  4.450000 50.730000
7433   1  2 0.0000 32.930000 11.570000  0.890000
7434   1  2 0.0000 32.930000 11.570000  8.010000
7435   1  2 0.0000 32.930000 11.570000 15.130000
7436   1  2 0.0000 32.930000 11.570000 22.250000
7437   1  2 0.0000 32.930000 11.570000 29.370000
7438   1  2 0.0000 32.930000 11.570000 36.490000
7439   1  2 0.0000 32.930000 11.570000 43.610000
7440   1  2 0.0000 32.930000 11.570000 50.730000
7441   1  2 0.0000 32.930000 18.690000  0.890000
7442   1  2 0.0000 32.930000 18.690000  8.010000
7443   1  2 0.0000 32.930000 18.690000 15.130000
7444   1  2 0.0000 32.930000 18.690000 22.250000
7445   1  2 0.0000 32.930000 18.690000 29.370000
7446   1  2 0.0000 32.930000 18.690000 36.490000
7447   1  2 0.0000 32.930000 18.690000 43.610000
7448   1  2 0.0000 32.930000 18.690000 50.730000
7449   1  2 0.0000 32.930000 25.810000  0.890000
7450   1  2 0.0000 32.930000 25.810000  8.010000
7451   1  2 0.0000 32.930000 25.810000 15.130000
7452   1  2 0.0000 32.930000 25.810000 22.250000
7453   1  2 0.0000 32.930000 25.810000 29.370000
7454   1  2 0.0000 32.930000 25.810000 36.490000
7455   1  2 0.0000 32.930000 25.810000 43.610000
7456   1  2 0.0000 32.930000 25.810000 50.730000
7457   1  2 0.0000 32.930000 32.930000  0.890000
7458   1  2 0.0000 32.930000 32.930000  8.010000
7459   1  2 0.0000 32.930000 32.930000 15.130000
7460   1  2 0.0000 32.930000 32.930000 22.250000
7461   1  2 0.0000 32.930000 32.930000 29.370000
7462   1  2 0.0000 32.930000 32.930000 36.490000
7463   1  2 0.0000 32.930000 32.930000 43.610000
7464   1  2 0.0000 32.930000 32.930000 50.730000
7465   1  2 0.0000 32.930000 40.050000  0.890000
7466   1  2 0.0000 32.930000 40.050000  8.010000
7467   1  2 0.0000 32.930000 40.050000 15.130000
7468   1  2 0.0000 32.930000 40.050000 22.250000
7469   1  2 0.0000 32.930000 40.050000 29.370000
7470   1  2 0.0000 32.930000 40.050000 36.490000
7471   1  2 0.0000 32.930000 40.050000 43.610000
7472   1  2 0.0000 32.930000 40.050000 50.730000
7473   1  2 0.0000 32.930000 47.170000  0.890000
7474   1  2 0.0000 32.930000 47.170000  8.010000
7475   1  2 0.0000 32.930000 47.170000 15.130000
7476   1  2 0.0000 32.930000 47.170000 22.250000
7477   1  2 0.0000 32.930000 47.170000 29.370000
7478   1  2 0.0000 32.930000 47.170000 36.490000
7479   1  2 0.0000 32.930000 47.170000 43.610000
7480   1  2 0.0000 32.930000 47.170000 50.730000
7481   1  2 0.0000 32.930000 54.290000  0.890000
7482   1  2 0.0000 32.930000 54.290000  8.010000
7483   1  2 0.0000 32.930000 54.290000 15.130000
7484   1  2 0.0000 32.930000 54.290000 22.250000
7485   1  2 0.0000 32.930000 54.290000 29.370000
7486   1  2 0.0000 32.930000 54.290000 36.490000
7487   1  2 0.0000 32.930000 54.290000 43.610000
7488   1  2 0.0000 32.930000 54.290000 50.730000
7489   1  2 0.0000 40.050000  4.450000  0.890000
7490   1  2 0.0000 40.050000  4.450000  8.010000
7491   1  2 0.0000 40.050000  4.450000 15.130000
7492   1  2 0.0000 40.050000  4.450000 22.250000
7493   1  2 0.0000 40.050000  4.450000 29.370000
7494   1  2 0.0000 40.050000  4.450000 36.490000
7495   1  2 0.0000 40.050000  4.450000 43.610000
7496   1  2 0.0000 40.050000  4.450000 50.730000
7497   1  2 0.0000 40.050000 11.570000  0.890000
7498   1  2 0.0000 40.050000 11.570000  8.010000
7499   1  2 0.0000 40.050000 11.570000 15.130000
7500   1  2 0.0000 40.050000 11.570000 22.250000
7501   1  2 0.0000 40.050000 11.570000 29.370000
7502   1  2 0.0000 40.050000 11.570000 36.490000
7503   1  2 0.0000 40.050000 11.570000 43.610000
7504   1  2 0.0000 40.050000 11.570000 50.730000
7505   1  2 0.0000 40.050000 18.690000  0.890000
7506   1  2 0.0000 40.050000 18.690000  8.010000
7507   1  2 0.0000 40.050000 18.690000 15.130000
7508   1  2 0.0000 40.050000 18.690000 22.250000
7509   1  2 0.0000 40.050000 18.690000 29.370000
7510   1  2 0.0000 40.050000 18.690000 36.490000
7511   1  2 0.0000 40.050000 18.690000 43.610000
7512   1  2 0.0000 40.050000 18.690000 50.730000
7513   1  2 0.0000 40.050000 25.810000  0.890000
7514   1  2 0.0000 40.050000 25.810000  8.010000
7515   1  2 0.0000 40.050000 25.810000 15.130000
7516   1  2 0.0000 40.050000 25.810000 22.250000
7517   1  2 0.0000 40.050000 25.810000 29.370000
7518   1  2 0.0000 40.050000 25.810000 36.490000
7519   1  2 0.0000 40.050000 25.810000 43.610000
7520   1  2 0.0000 40.050000 25.810000 50.730000
7521   1  2 0.0000 40.050000 32.930000  0.890000
7522   1  2 0.0000 40.050000 32.930000  8.010000
7523   1  2 0.0000 40.050000 32.930000 15.130000
7524   1  2 0.0000 40.050000 32.930000 22.250000
7525   1  2 0.0000 40.050000 32.930000 29.370000
7526   1  2 0.0000 40.050000 32.930000 36.490000
7527   1  2 0.0000 40.050000 32.930000 43.610000
7528   1  2 0.0000 40.050000 32.930000 50.730000
7529   1  2 0.0000 40.050000 40.050000  0.890000
7530   1  2 0.0000 40.050000 40.050000  8.010000
7531   1  2 0.0000 40.050000 40.050000 15.130000
7532   1  2 0.0000 40.050000 40.050000 22.250000
7533   1  2 0.0000 40.050000 40.050000 29.370000
7534   1  2 0.0000 40.050000 40.050000 36.490000
7535   1  2 0.0000 40.050000 40.050000 43.610000
7536   1  2 0.0000 40.050000 40.050000 50.730000
7537   1  2 0.0000 40.050000 47.170000  0.890000
7538   1  2 0.0000 40.050000 47.170000  8.010000
7539   1  2 0.0000 40.050000 47.170000 15.130000
7540   1  2 0.0000 40.050000 47.170000 22.250000
7541   1  2 0.0000 40.050000 47.170000 29.370000
7542   1  2 0.0000 40.050000 47.170000 36.490000
7543   1  2 0.0000 40.050000 47.170000 43.610000
7544   1  2 0.0000 40.050000 47.170000 50.730000
7545   1  2 0.0000 40.050000 54.290000  0.890000
7546   1  2 0.0000 40.050000 54.290000  8.010000
7547   1  2 0.0000 40.050000 54.290000 15.130000
7548   1  2 0.0000 40.050000 54.290000 22.250000
7549   1  2 0.0000 40.050000 54.290000 29.370000
7550   1  2 0.0000 40.050000 54.290000 36.490000
7551   1  2 0.0000 40.050000 54.290000 43.610000
7552   1  2 0.0000 40.050000 54.290000 50.730000
7553   1  2 0.0000 47.170000  4.450000  0.890000
7554   1  2 0.0000 47.170000  4.450000  8.010000
7555   1  2 0.0000 47.170000  4.450000 15.130000
7556   1  2 0.0000 47.170000  4.450000 22.250000
7557   1  2 0.0000 47.170000  4.450000 29.370000
7558   1  2 0.0000 47.170000  4.450000 36.490000
7559   1  2 0.0000 47.170000  4.450000 43.610000
7560   1  2 0.0000 47.170000  4.450000 50.730000
7561   1  2 0.0000 47.170000 11.570000  0.890000
7562   1  2 0.0000 47.170000 11.570000  8.010000
7563   1  2 0.0000 47.170000 11.570000 15.130000
7564   1  2 0.0000 47.170000 11.570000 22.250000
7565   1  2 0.0000 47.170000 11.570000 29.370000
7566   1  2 0.0000 47.170000 11.570000 36.490000
7567   1  2 0.0000 47.170000 11.570000 43.610000
7568   1  2 0.0000 47.170000 11.570000 50.730000
7569   1  2 0.0000 47.170000 18.690000  0.890000
7570   1  2 0.0000 47.170000 18.690000  8.010000
7571   1  2 0.0000 47.170000 18.690000 15.130000
7572   1  2 0.0000 47.170000 18.690000 22.250000
7573   1  2 0.0000 47.170000 18.690000 29.370000
7574   1  2 0.0000 47.170000 18.690000 36.490000
7575   1  2 0.0000 47.170000 18.690000 43.610000
7576   1  2 0.0000 47.170000 18.690000 50.730000
7577   1  2 0.0000 47.170000 25.810000  0.890000
7578   1  2 0.0000 47.170000 25.810000  8.010000
7579   1  2 0.0000 47.170000 25.810000 15.130000
7580   1  2 0.0000 47.170000 25.810000 22.250000
7581   1  2 0.0000 47.170000 25.810000 29.370000
7582   1  2 0.0000 47.170000 25.810000 36.490000
7583   1  2 0.0000 47.170000 25.810000 43.610000
7584   1  2 0.0000 47.170000 25.810000 50.730000
7585   1  2 0.0000 47.170000 32.930000  0.890000
7586   1  2 0.0000 47.170000 32.930000  8.010000
7587   1  2 0.0000 47.170000 32.930000 15.130000
7588   1  2 0.0000 47.170000 32.930000 22.250000
7589   1  2 0.0000 47.170000 32.930000 29.370000
7590   1  2 0.0000 47.170000 32.930000 36.490000
7591   1  2 0.0000 47.170000 32.930000 43.610000
7592   1  2 0.0000 47.170000 32.930000 50.730000
7593   1  2 0.0000 47.170000 40.050000  0.890000
7594   1  2 0.0000 47.170000 40.050000  8.010000
7595   1  2 0.0000 47.170000 40.050000 15.130000
7596   1  2 0.0000 47.170000 40.050000 22.250000
7597   1  2 0.0000 47.170000 40.050000 29.370000
7598   1  2 0.0000 47.170000 40.050000 36.490000
7599   1  2 0.0000 47.170000 40.050000 43.610000
7600   1  2 0.0000 47.170000 40.050000 50.730000
7601   1  2 0.0000 47.170000 47.170000  0.890000
7602   1  2 0.0000 47.170000 47.170000  8.010000
7603   1  2 0.0000 47.170000 47.170000 15.130000
7604   1  2 0.0000 47.170000 47.170000 22.250000
7605   1  2 0.0000 47.170000 47.170000 29.370000
7606   1  2 0.0000 47.170000 47.170000 36.490000
7607   1  2 0.0000 47.170000 47.170000 43.610000
7608   1  2 0.0000 47.170000 47.170000 50.730000
7609   1  2 0.0000 47.170000 54.290000  0.890000
7610   1  2 0.0000 47.170000 54.290000  8.010000
7611   1  2 0.0000 47.170000 54.290000 15.130000
7612   1  2 0.0000 47.170000 54.290000 22.250000
7613   1  2 0.0000 47.170000 54.290000 29.370000
7614   1  2 0.0000 47.170000 54.290000 36.490000
7615   1  2 0.0000 47.170000 54.290000 43.610000
7616   1  2 0.0000 47.170000 54.290000 50.730000
7617   1  2 0.0000 54.290000  4.450000  0.890000
7618   1  2 0.0000 54.290000  4.450000  8.010000
7619   1  2 0.0000 54.290000  4.450000 15.130000
7620   1  2 0.0000 54.290000  4.450000 22.250000
7621   1  2 0.0000 54.290000  4.450000 29.370000
7622   1  2 0.0000 54.290000  4.450000 36.490000
7623   1  2 0.0000 54.290000  4.450000 43.610000
7624   1  2 0.0000 54.290000  4.450000 50.730000
7625   1  2 0.0000 54.290000 11.570000  0.890000
7626   1  2 0.0000 54.290000 11.570000  8.010000
7627   1  2 0.0000 54.290000 11.570000 15.130000
7628   1  2 0.0000 54.290000 11.570000 22.250000
7629   1  2 0.0000 54.290000 11.570000 29.370000
7630   1  2 0.0000 54.290000 11.570000 36.490000
7631   1  2 0.0000 54.290000 11.570000 43.610000
7632   1  2 0.0000 54.290000 11.570000 50.730000
7633   1  2 0.0000 54.290000 18.690000  0.890000
7634   1  2 0.0000 54.290000 18.690000  8.010000
7635   1  2 0.0000 54.290000 18.690000 15.130000
7636   1  2 0.0000 54.290000 18.690000 22.250000
7637   1  2 0.0000 54.290000 18.690000 29.370000
7638   1  2 0.0000 54.290000 18.690000 36.490000
7639   1  2 0.0000 54.290000 18.690000 43.610000
7640   1  2 0.0000 54.290000 18.690000 50.730000
7641   1  2 0.0000 54.290000 25.810000  0.890000
7642   1  2 0.0000 54.290000 25.810000  8.010000
7643   1  2 0.0000 54.290000 25.810000 15.130000
7644   1  2 0.0000 54.290000 25.810000 22.250000
7645   1  2 0.0000 54.290000 25.810000 29.370000
7646   1  2 0.0000 54.290000 25.810000 36.490000
7647   1  2 0.0000 54.290000 25.810000 43.610000
7648   1  2 0.0000 54.290000 25.810000 50.730000
7649   1  2 0.0000 54.290000 32.930000  0.890000
7650   1  2 0.0000 54.290000 32.930000  8.010000
7651   1  2 0.0000 54.290000 32.930000 15.130000
7652   1  2 0.0000 54.290000 32.930000 22.250000
7653   1  2 0.0000 54.290000 32.930000 29.370000
7654   1  2 0.0000 54.290000 32.930000 36.490000
7655   1  2 0.0000 54.290000 32.930000 43.610000
7656   1  2 0.0000 54.290000 32.930000 50.730000
7657   1  2 0.0000 54.290000 40.050000  0.890000
7658   1  2 0.0000 54.290000 40.050000  8.010000
7659   1  2 0.0000 54.290000 40.050000 15.130000
7660   1  2 0.0000 54.290000 40.050000 22.250000
7661   1  2 0.0000 54.290000 40.050000 29.370000
7662   1  2 0.0000 54.290000 40.050000 36.490000
7663   1  2 0.0000 54.290000 40.050000 43.610000
7664   1  2 0.0000 54.290000 40.050000 50.730000
7665   1  2 0.0000 54.290000 47.170000  0.890000
7666   1  2 0.0000 54.290000 47.170000  8.010000
7667   1  2 0.0000 54.290000 47.170000 15.130000
7668   1  2 0.0000 54.290000 47.170000 22.250000
7669   1  2 0.0000 54.290000 47.170000 29.370000
7670   1  2 0.0000 54.290000 47.170000 36.490000
7671   1  2 0.0000 54.290000 47.170000 43.610000
7672   1  2 0.0000 54.290000 47.170000 50.730000
7673   1  2 0.0000 54.290000 54.290000  0.890000
7674   1  2 0.0000 54.290000 54.290000  8.010000
7675   1  2 0.0000 54.290000 54.290000 15.130000
7676   1  2 0.0000 54.290000 54.290000 22.250000
7677   1  2 0.0000 54.290000 54.290000 29.370000
7678   1  2 0.0000 54.290000 54.290000 36.490000
7679   1  2 0.0000 54.290000 54.290000 43.610000
7680   1  2 0.0000 54.290000 54.290000 50.730000
7681   1  2 0.0000  6.230000  4.450000  2.670000
7682   1  2 0.0000  6.230000  4.450000  9.790000
7683   1  2 0.0000  6.230000  4.450000 16.910000
7684   1  2 0.0000  6.230000  4.450000 24.030000
7685   1  2 0.0000  6.230000  4.450000 31.150000
7686   1  2 0.0000  6.230000  4.450000 38.270000
7687   1  2 0.0000  6.230000  4.450000 45.390000
7688   1  2 0.0000  6.230000  4.450000 52.510000
7689   1  2 0.0000  6.230000 11.570000  2.670000
7690   1  2 0.0000  6.230000 11.570000  9.790000
7691   1  2 0.0000  6.230000 11.570000 16.910000
7692   1  2 0.0000  6.230000 11.570000 24.030000
7693   1  2 0.0000  6.230000 11.570000 31.150000
7694   1  2 0.0000  6.230000 11.570000 38.270000
7695   1  2 0.0000  6.230000 11.570000 45.390000
7696   1  2 0.0000  6.230000 11.570000 52.510000
7697   1  2 0.0000  6.230000 18.690000  2.670000
7698   1  2 0.0000  6.230000 18.690000  9.790000
7699   1  2 0.0000  6.230000 18.690000 16.910000
7700   1  2 0.0000  6.230000 18.690000 24.030000
7701   1  2 0.0000  6.230000 18.690000 31.150000
7702   1  2 0.0000  6.230000 18.690000 38.270000
7703   1  2 0.0000  6.230000 18.690000 45.390000
7704   1  2 0.0000  6.230000 18.690000 52.510000
7705   1  2 0.0000  6.230000 25.810000  2.670000
7706   1  2 0.0000  6.230000 25.810000  9.790000
7707   1  2 0.0000  6.230000 25.810000 16.910000
7708   1  2 0.0000  6.230000 25.810000 24.030000
7709   1  2 0.0000  6.230000 25.810000 31.150000
7710   1  2 0.0000  6.230000 25.810000 38.270000
7711   1  2 0.0000  6.230000 25.810000 45.390000
7712   1  2 0.0000  6.230000 25.810000 52.510000
7713   1  2 0.0000  6.230000 32.930000  2.670000
7714   1  2 0.0000  6.230000 32.930000  9.790000
7715   1  2 0.0000  6.230000 32.930000 16.910000
7716   1  2 0.0000  6.230000 32.930000 24.030000
7717   1  2 0.0000  6.230000 32.930000 31.150000
7718   1  2 0.0000  6.230000 32.930000 38.270000
7719   1  2 0.0000  6.230000 32.930000 45.390000
7720   1  2 0.0000  6.230000 32.930000 52.510000
7721   1  2 0.0000  6.230000 40.050000  2.670000
7722   1  2 0.0000  6.230000 40.050000  9.790000
7723   1  2 0.0000  6.230000 40.050000 16.910000
7724   1  2 0.0000  6.230000 40.050000 24.030000
7725   1  2 0.0000  6.230000 40.050000 31.150000
7726   1  2 0.0000  6.230000 40.050000 38.270000
7727   1  2 0.0000  6.230000 40.050000 45.390000
7728   1  2 0.0000  6.230000 40.050000 52.510000
7729   1  2 0.0000  6.230000 47.170000  2.670000
7730   1  2 0.0000  6.230000 47.170000  9.790000
7731   1  2 0.0000  6.230000 47.170000 16.910000
7732   1  2 0.0000  6.230000 47.170000 24.030000
7733   1  2 0.0000  6.230000 47.170000 31.150000
7734   1  2 0.0000  6.230000 47.170000 38.270000
7735   1  2 0.0000  6.230000 47.170000 45.390000
7736   1  2 0.0000  6.230000 47.170000 52.510000
7737   1  2 0.0000  6.230000 54.290000  2.670000
7738   1  2 0.0000  6.230000 54.290000  9.790000
7739   1  2 0.0000  6.230000 54.290000 16.910000
7740   1  2 0.0000  6.230000 54.290000 24.030000
7741   1  2 0.0000  6.230000 54.290000 31.150000
7742   1  2 0.0000  6.230000 54.290000 38.270000
7743   1  2 0.0000  6.230000 54.290000 45.390000
7744   1  2 0.0000  6.230000 54.290000 52.510000
7745   1  2 0.0000 13.350000  4.450000  2.670000
7746   1  2 0.0000 13.350000  4.450000  9.790000
7747   1  2 0.0000 13.350000  4.450000 16.910000
7748   1  2 0.0000 13.350000  4.450000 24.030000
7749   1  2 0.0000 13.350000  4.450000 31.150000
7750   1  2 0.0000 13.350000  4.450000 38.270000
7751   1  2 0.0000 13.350000  4.450000 45.390000
7752   1  2 0.0000 13.350000  4.450000 52.510000
7753   1  2 0.0000 13.350000 11.570000  2.670000
7754   1  2 0.0000 13.350000 11.570000  9.790000
7755   1  2 0.0000 13.350000 11.570000 16.910000
7756   1  2 0.0000 13.350000 11.570000 24.030000
7757   1  2 0.0000 13.350000 11.570000 31.150000
7758   1  2 0.0000 13.350000 11.570000 38.270000
7759   1  2 0.0000 13.350000 11.570000 45.390000
7760   1  2 0.0000 13.350000 11.570000 52.510000
7761   1  2 0.0000 13.350000 18.690000  2.670000
7762   1  2 0.0000 13.350000 18.690000  9.790000
7763   1  2 0.0000 13.350000 18.690000 16.910000
7764   1  2 0.0000 13.350000 18.690000 24.030000
7765   1  2 0.0000 13.350000 18.690000 31.150000
7766   1  2 0.0000 13.350000 18.690000 38.270000
7767   1  2 0.0000 13.350000 18.690000 45.390000
7768   1  2 0.0000 13.350000 18.690000 52.510000
7769   1  2 0.0000 13.350000 25.810000  2.670000
7770   1  2 0.0000 13.350000 25.810000  9.790000
7771   1  2 0.0000 13.350000 25.810000 16.910000
7772   1  2 0.0000 13.350000 25.810000 24.030000
7773   1  2 0.0000 13.350000 25.810000 31.150000
7774   1  2 0.0000 13.350000 25.810000 38.270000
7775   1  2 0.0000 13.350000 25.810000 45.390000
7776   1  2 0.0000 13.350000 25.810000 52.510000
7777   1  2 0.0000 13.350000 32.930000  2.670000
7778   1  2 0.0000 13.350000 32.930000  9.790000
7779   1  2 0.0000 13.350000 32.930000 16.910000
7780   1  2 0.0000 13.350000 32.930000 24.030000
7781   1  2 0.0000 13.350000 32.930000 31.150000
7782   1  2 0.0000 13.350000 32.930000 38.270000
7783   1  2 0.0000 13.350000 32.930000 45.390000
7784   1  2 0.0000 13.350000 32.930000 52.510000
7785   1  2 0.0000 13.350000 40.050000  2.670000
7786   1  2 0.0000 13.350000 40.050000  9.790000
7787   1  2 0.0000 13.350000 40.050000 16.910000
7788   1  2 0.0000 13.350000 40.050000 24.030000
7789   1  2 0.0000 13.350000 40.050000 31.150000
7790   1  2 0.0000 13.350000 40.050000 38.270000
7791   1  2 0.0000 13.350000 40.050000 45.390000
7792   1  2 0.0000 13.350000 40.050000 52.510000
7793   1  2 0.0000 13.350000 47.170000  2.670000
7794   1  2 0.0000 13.350000 47.170000  9.790000
7795   1  2 0.0000 13.350000 47.170000 16.910000
7796   1  2 0.0000 13.350000 47.170000 24.030000
7797   1  2 0.0000 13.350000 47.170000 31.150000
7798   1  2 0.0000 13.350000 47.170000 38.270000
7799   1  2 0.0000 13.350000 47.170000 45.390000
7800   1  2 0.0000 13.350000 47.170000 52.510000
7801   1  2 0.0000 13.350000 54.290000  2.670000
7802   1  2 0.0000 13.350000 54.290000  9.790000
7803   1  2 0.0000 13.350000 54.290000 16.910000
7804   1  2 0.0000 13.350000 54.290000 24.030000
7805   1  2 0.0000 13.350000 54.290000 31.150000
7806   1  2 0.0000 13.350000 54.290000 38.270000
7807   1  2 0.0000 13.350000 54.290000 45.390000
7808   1  2 0.0000 13.350000 54.290000 52.510000
7809   1  2 0.0000 20.470000  4.450000  2.670000
7810   1  2 0.0000 20.470000  4.450000  9.790000
7811   1  2 0.0000 20.470000  4.450000 16.910000
7812   1  2 0.0000 20.470000  4.450000 24.030000
7813   1  2 0.0000 20.470000  4.450000 31.150000
7814   1  2 0.0000 20.470000  4.450000 38.270000
7815   1  2 0.0000 20.470000  4.450000 45.390000
7816   1  2 0.0000 20.470000  4.450000 52.510000
7817   1  2 0.0000 20.470000 11.570000  2.670000
7818   1  2 0.0000 20.470000 11.570000  9.790000
7819   1  2 0.0000 20.470000 11.570000 16.910000
7820   1  2 0.0000 20.470000 11.570000 24.030000
7821   1  2 0.0000 20.470000 11.570000 31.150000
7822   1  2 0.0000 20.470000 11.570000 38.270000
7823   1  2 0.0000 20.470000 11.570000 45.390000
7824   1  2 0.0000 20.470000 11.570000 52.510000
7825   1  2 0.0000 20.470000 18.690000  2.670000
7826   1  2 0.0000 20.470000 18.690000  9.790000
7827   1  2 0.0000 20.470000 18.690000 16.910000
7828   1  2 0.0000 20.470000 18.690000 24.030000
7829   1  2 0.0000 20.470000 18.690000 31.150000
7830   1  2 0.0000 20.470000 18.690000 38.270000
7831   1  2 0.0000 20.470000 18.690000 45.390000
7832   1  2 0.0000 20.470000 18.690000 52.510000
7833   1  2 0.0000 20.470000 25.810000  2.670000
7834   1  2 0.0000 20.470000 25.810000  9.790000
7835   1  2 0.0000 20.470000 25.810000 16.910000
7836   1  2 0.0000 20.470000 25.810000 24.030000
7837   1  2 0.0000 20.470000 25.810000 31.150000
7838   1  2 0.0000 20.470000 25.810000 38.270000
7839   1  2 0.0000 20.470000 25.810000 45.390000
7840   1  2 0.0000 20.470000 25.810000 52.510000
7841   1  2 0.0000 20.470000 32.930000  2.670000
7842   1  2 0.0000 20.470000 32.930000  9.790000
7843   1  2 0.0000 20.470000 32.930000 16.910000
7844   1  2 0.0000 20.470000 32.930000 24.030000
7845   1  2 0.0000 20.470000 32.930000 31.150000
7846   1  2 0.0000 20.470000 32.930000 38.270000
7847   1  2 0.0000 20.470000 32.930000 45.390000
7848   1  2 0.0000 20.470000 32.930000 52.510000
7849   1  2 0.0000 20.470000 40.050000  2.670000
7850   1  2 0.0000 20.470000 40.050000  9.790000
7851   1  2 0.0000 20.470000 40.050000 16.910000
7852   1  2 0.0000 20.470000 40.050000 24.030000
7853   1  2 0.0000 20.470000 40.050000 31.150000
7854   1  2 0.0000 20.470000 40.050000 38.270000
7855   1  2 0.0000 20.470000 40.050000 45.390000
7856   1  2 0.0000 20.470000 40.050000 52.510000
7857   1  2 0.0000 20.470000 47.170000  2.670000
7858   1  2 0.0000 20.470000 47.170000  9.790000
7859   1  2 0.0000 20.470000 47.170000 16.910000
7860   1  2 0.0000 20.470000 47.170000 24.030000
7861   1  2 0.0000 20.470000 47.170000 31.150000
7862   1  2 0.0000 20.470000 47.170000 38.270000
7863   1  2 0.0000 20.470000 47.170000 45.390000
7864   1  2 0.0000 20.470000 47.170000 52.510000
7865   1  2 0.0000 20.470000 54.290000  2.670000
7866   1  2 0.0000 20.470000 54.290000  9.790000
7867   1  2 0.0000 20.470000 54.290000 16.910000
7868   1  2 0.0000 20.470000 54.290000 24.030000
7869   1  2 0.0000 20.470000 54.290000 31.150000
7870   1  2 0.0000 20.470000 54.290000 38.270000
7871   1  2 0.0000 20.470000 54.290000 45.390000
7872   1  2 0.0000 20.470000 54.290000 52.510000
7873   1  2 0.0000 27.590000  4.450000  2.670000
7874   1  2 0.0000 27.590000  4.450000  9.790000
7875   1  2 0.0000 27.590000  4.450000 16.910000
7876   1  2 0.0000 27.590000  4.450000 24.030000
7877   1  2 0.0000 27.590000  4.450000 31.150000
7878   1  2 0.0000 27.590000  4.450000 38.270000
7879   1  2 0.0000 27.590000  4.450000 45.390000
7880   1  2 0.0000 27.590000  4.450000 52.510000
7881   1  2 0.0000 27.590000 11.570000  2.670000
7882   1  2 0.0000 27.590000 11.570000  9.790000
7883   1  2 0.0000 27.590000 11.570000 16.910000
7884   1  2 0.0000 27.590000 11.570000 24.030000
7885   1  2 0.0000 27.590000 11.570000 31.150000
7886   1  2 0.0000 27.590000 11.570000 38.270000
7887   1  2 0.0000 27.590000 11.570000 45.390000
7888   1  2 0.0000 27.590000 11.570000 52.510000
7889   1  2 0.0000 27.590000 18.690000  2.670000
7890   1  2 0.0000 27.590000 18.690000  9.790000
7891   1  2 0.0000 27.590000 18.690000 16.910000
7892   1  2 0.0000 27.590000 18.690000 24.030000
7893   1  2 0.0000 27.590000 18.690000 31.150000
7894   1  2 0.0000 27.590000 18.690000 38.270000
7895   1  2 0.0000 27.590000 18.690000 45.390000
7896   1  2 0.0000 27.590000 18.690000 52.510000
7897   1  2 0.0000 27.590000 25.810000  2.670000
7898   1  2 0.0000 27.590000 25.810000  9.790000
7899   1  2 0.0000 27.590000 25.810000 16.910000
7900   1  2 0.0000 27.590000 25.810000 24.030000
7901   1  2 0.0000 27.590000 25.810000 31.150000
7902   1  2 0.0000 27.590000 25.810000 38.270000
7903   1  2 0.0000 27.590000 25.810000 45.390000
7904   1  2 0.0000 27.590000 25.810000 52.510000
7905   1  2 0.0000 27.590000 32.930000  2.670000
7906   1  2 0.0000 27.590000 32.930000  9.790000
7907   1  2 0.0000 27.590000 32.930000 16.910000
7908   1  2 0.0000 27.590000 32.930000 24.030000
7909   1  2 0.0000 27.590000 32.930000 31.150000
7910   1  2 0.0000 27.590000 32.930000 38.270000
7911   1  2 0.0000 27.590000 32.930000 45.390000
7912   1  2 0.0000 27.590000 32.930000 52.510000
7913   1  2 0.0000 27.590000 40.050000  2.670000
7914   1  2 0.0000 27.590000 40.050000  9.790000
7915   1  2 0.0000 27.590000 40.050000 16.910000
7916   1  2 0.0000 27.590000 40.050000 24.030000
7917   1  2 0.0000 27.590000 40.050000 31.150000
7918   1  2 0.0000 27.590000 40.050000 38.270000
7919   1  2 0.0000 27.590000 40.050000 45.390000
7920   1  2 0.0000 27.590000 40.050000 52.510000
7921   1  2 0.0000 27.590000 47.170000  2.670000
7922   1  2 0.0000 27.590000 47.170000  9.790000
7923   1  2 0.0000 27.590000 47.170000 16.910000
7924   1  2 0.0000 27.590000 47.170000 24.030000
7925   1  2 0.0000 27.590000 47.170000 31.150000
7926   1  2 0.0000 27.590000 47.170000 38.270000
7927   1  2 0.0000 27.590000 47.170000 45.390000
7928   1  2 0.0000 27.590000 47.170000 52.510000
7929   1  2 0.0000 27.590000 54.290000  2.670000
7930   1  2 0.0000 27.590000 54.290000  9.790000
7931   1  2 0.0000 27.590000 54.290000 16.910000
7932   1  2 0.0000 27.590000 54.290000 24.030000
7933   1  2 0.0000 27.590000 54.290000 31.150000
7934   1  2 0.0000 27.590000 54.290000 38.270000
7935   1  2 0.0000 27.590000 54.290000 45.390000
7936   1  2 0.0000 27.590000 54.290000 52.510000
7937   1  2 0.0000 34.710000  4.450000  2.670000
7938   1  2 0.0000 34.710000  4.450000  9.790000
7939   1  2 0.0000 34.710000  4.450000 16.910000
7940   1  2 0.0000 34.710000  4.450000 24.030000
7941   1  2 0.0000 34.710000  4.450000 31.150000
7942   1  2 0.0000 34.710000  4.450000 38.270000
7943   1  2 0.0000 34.710000  4.450000 45.390000
7944   1  2 0.0000 34.710000  4.450000 52.510000
7945   1  2 0.0000 34.710000 11.570000  2.670000
7946   1  2 0.0000 34.710000 11.570000  9.790000
7947   1  2 0.0000 34.710000 11.570000 16.910000
7948   1  2 0.0000 34.710000 11.570000 24.030000
7949   1  2 0.0000 34.710000 11.570000 31.150000
7950   1  2 0.0000 34.710000 11.570000 38.270000
7951   1  2 0.0000 34.710000 11.570000 45.390000
7952   1  2 0.0000 34.710000 11.570000 52.510000
7953   1  2 0.0000 34.710000 18.690000  2.670000
7954   1  2 0.0000 34.710000 18.690000  9.790000
7955   1  2 0.0000 34.710000 18.690000 16.910000
7956   1  2 0.0000 34.710000 18.690000 24.030000
7957   1  2 0.0000 34.710000 18.690000 31.150000
7958   1  2 0.0000 34.710000 18.690000 38.270000
7959   1  2 0.0000 34.710000 18.690000 45.390000
7960   1  2 0.0000 34.710000 18.690000 52.510000
7961   1  2 0.0000 34.710000 25.810000  2.670000
7962   1  2 0.0000 34.710000 25.810000  9.790000
7963   1  2 0.0000 34.710000 25.810000 16.910000
7964   1  2 0.0000 34.710000 25.810000 24.030000
7965   1  2 0.0000 34.710000 25.810000 31.150000
7966   1  2 0.0000 34.710000 25.810000 38.270000
7967   1  2 0.0000 34.710000 25.810000 45.390000
7968   1  2 0.0000 34.710000 25.810000 52.510000
7969   1  2 0.0000 34.710000 32.930000  2.670000
7970   1  2 0.0000 34.710000 32.930000  9.790000
7971   1  2 0.0000 34.710000 32.930000 16.910000
7972   1  2 0.0000 34.710000 32.930000 24.030000
7973   1  2 0.0000 34.710000 32.930000 31.150000
7974   1  2 0.0000 34.710000 32.930000 38.270000
7975   1  2 0.0000 34.710000 32.930000 45.390000
7976   1  2 0.0000 34.710000 32.930000 52.510000
7977   1  2 0.0000 34.710000 40.050000  2.670000
7978   1  2 0.0000 34.710000 40.050000  9.790000
7979   1  2 0.0000 34.710000 40.050000 16.910000
7980   1  2 0.0000 34.710000 40.050000 24.030000
7981   1  2 0.0000 34.710000 40.050000 31.150000
7982   1  2 0.0000 34.710000 40.050000 38.270000
7983   1  2 0.0000 34.710000 40.050000 45.390000
7984   1  2 0.0000 34.710000 40.050000 52.510000
7985   1  2 0.0000 34.710000 47.170000  2.670000
7986   1  2 0.0000 34.710000 47.170000  9.790000
7987   1  2 0.0000 34.710000 47.170000 16.910000
7988   1  2 0.0000 34.710000 47.170000 24.030000
7989   1  2 0.0000 34.710000 47.170000 31.150000
7990   1  2 0.0000 34.710000 47.170000 38.270000
7991   1  2 0.0000 34.710000 47.170000 45.390000
7992   1  2 0.0000 34.710000 47.170000 52.510000
7993   1  2 0.0000 34.710000 54.290000  2.670000
7994   1  2 0.0000 34.710000 54.290000  9.790000
7995   1  2 0.0000 34.710000 54.290000 16.910000
7996   1  2 0.0000 34.710000 54.290000 24.030000
7997   1  2 0.0000 34.710000 54.290000 31.150000
7998   1  2 0.0000 34.710000 54.290000 38.270000
7999   1  2 0.0000 34.710000 54.290000 45.390000
8000   1  2 0.0000 34.710000 54.290000 52.510000
8001   1  2 0.0000 41.830000  4.450000  2.670000
8002   1  2 0.0000 41.830000  4.450000  9.790000
8003   1  2 0.0000 41.830000  4.450000 16.910000
8004   1  2 0.0000 41.830000  4.450000 24.030000
8005   1  2 0.0000 41.830000  4.450000 31.150000
8006   1  2 0.0000 41.830000  4.450000 38.270000
8007   1  2 0.0000 41.830000  4.450000 45.390000
8008   1  2 0.0000 41.830000  4.450000 52.510000
8009   1  2 0.0000 41.830000 11.570000  2.670000
8010   1  2 0.0000 41.830000 11.570000  9.790000
8011   1  2 0.0000 41.830000 11.570000 16.910000
8012   1  2 0.0000 41.830000 11.570000 24.030000
8013   1  2 0.0000 41.830000 11.570000 31.150000
8014   1  2 0.0000 41.830000 11.570000 38.270000
8015   1  2 0.0000 41.830000 11.570000 45.390000
8016   1  2 0.0000 41.830000 11.570000 52.510000
8017   1  2 0.0000 41.830000 18.690000  2.670000
8018   1  2 0.0000 41.830000 18.690000  9.790000
8019   1  2 0.0000 41.830000 18.690000 16.910000
8020   1  2 0.0000 41.830000 18.690000 24.030000
8021   1  2 0.0000 41.830000 18.690000 31.150000
8022   1  2 0.0000 41.830000 18.690000 38.270000
8023   1  2 0.0000 41.830000 18.690000 45.390000
8024   1  2 0.0000 41.830000 18.690000 52.510000
8025   1  2 0.0000 41.830000 25.810000  2.670000
8026   1  2 0.0000 41.830000 25.810000  9.790000
8027   1  2 0.0000 41.830000 25.810000 16.910000
8028   1  2 0.0000 41.830000 25.810000 24.030000
8029   1  2 0.0000 41.830000 25.810000 31.150000
8030   1  2 0.0000 41.830000 25.810000 38.270000
8031   1  2 0.0000 41.830000 25.810000 45.390000
8032   1  2 0.0000 41.830000 25.810000 52.510000
8033   1  2 0.0000 41.830000 32.930000  2.670000
8034   1  2 0.0000 41.830000 32.930000  9.790000
8035   1  2 0.0000 41.830000 32.930000 16.910000
8036   1  2 0.0000 41.830000 32.930000 24.030000
8037   1  2 0.0000 41.830000 32.930000 31.150000
8038   1  2 0.0000 41.830000 32.930000 38.270000
8039   1  2 0.0000 41.830000 32.930000 45.390000
8040   1  2 0.0000 41.830000 32.930000 52.510000
8041   1  2 0.0000 41.830000 40.050000  2.670000
8042   1  2 0.0000 41.830000 40.050000  9.790000
8043   1  2 0.0000 41.830000 40.050000 16.910000
8044   1  2 0.0000 41.830000 40.050000 24.030000
8045   1  2 0.0000 41.830000 40.050000 31.150000
8046   1  2 0.0000 41.830000 40.050000 38.270000
8047   1  2 0.0000 41.830000 40.050000 45.390000
8048   1  2 0.0000 41.830000 40.050000 52.510000
8049   1  2 0.0000 41.830000 47.170000  2.670000
8050   1  2 0.0000 41.830000 47.170000  9.790000
8051   1  2 0.0000 41.830000 47.170000 16.910000
8052   1  2 0.0000 41.830000 47.170000 24.030000
8053   1  2 0.0000 41.830000 47.170000 31.150000
8054   1  2 0.0000 41.830000 47.170000 38.270000
8055   1  2 0.0000 41.830000 47.170000 45.390000
8056   1  2 0.0000 41.830000 47.170000 52.510000
8057   1  2 0.0000 41.830000 54.290000  2.670000
8058   1  2 0.0000 41.830000 54.290000  9.790000
8059   1  2 0.0000 41.830000 54.290000 16.910000
8060   1  2 0.0000 41.830000 54.290000 24.030000
8061   1  2 0.0000 41.830000 54.290000 31.150000
8062   1  2 0.0000 41.830000 54.290000 38.270000
8063   1  2 0.0000 41.830000 54.290000 45.390000
8064   1  2 0.0000 41.830000 54.290000 52.510000
8065   1  2 0.0000 48.950000  4.450000  2.670000
8066   1  2 0.0000 48.950000  4.450000  9.790000
8067   1  2 0.0000 48.950000  4.450000 16.910000
8068   1  2 0.0000 48.950000  4.450000 24.030000
8069   1  2 0.0000 48.950000  4.450000 31.150000
8070   1  2 0.0000 48.950000  4.450000 38.270000
8071   1  2 0.0000 48.950000  4.450000 45.390000
8072   1  2 0.0000 48.950000  4.450000 52.510000
8073   1  2 0.0000 48.950000 11.570000  2.670000
8074   1  2 0.0000 48.950000 11.570000  9.790000
8075   1  2 0.0000 48.950000 11.570000 16.910000
8076   1  2 0.0000 48.950000 11.570000 24.030000
8077   1  2 0.0000 48.950000 11.570000 31.150000
8078   1  2 0.0000 48.950000 11.570000 38.270000
8079   1  2 0.0000 48.950000 11.570000 45.390000
8080   1  2 0.0000 48.950000 11.570000 52.510000
8081   1  2 0.0000 48.950000 18.690000  2.670000
8082   1  2 0.0000 48.950000 18.690000  9.790000
8083   1  2 0.0000 48.950000 18.690000 16.910000
8084   1  2 0.0000 48.950000 18.690000 24.030000
8085   1  2 0.0000 48.950000 18.690000 31.150000
8086   1  2 0.0000 48.950000 18.690000 38.270000
8087   1  2 0.0000 48.950000 18.690000 45.390000
8088   1  2 0.0000 48.950000 18.690000 52.510000
8089   1  2 0.0000 48.950000 25.810000  2.670000
8090   1  2 0.0000 48.950000 25.810000  9.790000
8091   1  2 0.0000 48.950000 25.810000 16.910000
8092   1  2 0.0000 48.950000 25.810000 24.030000
8093   1  2 0.0000 48.950000 25.810000 31.150000
8094   1  2 0.0000 48.950000 25.810000 38.270000
8095   1  2 0.0000 48.950000 25.810000 45.390000
8096   1  2 0.0000 48.950000 25.810000 52.510000
8097   1  2 0.0000 48.950000 32.930000  2.670000
8098   1  2 0.0000 48.950000 32.930000  9.790000
8099   1  2 0.0000 48.950000 32.930000 16.910000
8100   1  2 0.0000 48.950000 32.930000 24.030000
8101   1  2 0.0000 48.950000 32.930000 31.150000
8102   1  2 0.0000 48.950000 32.930000 38.270000
8103   1  2 0.0000 48.950000 32.930000 45.390000
8104   1  2 0.0000 48.950000 32.930000 52.510000
8105   1  2 0.0000 48.950000 40.050000  2.670000
8106   1  2 0.0000 48.950000 40.050000  9.790000
8107   1  2 0.0000 48.950000 40.050000 16.910000
8108   1  2 0.0000 48.950000 40.050000 24.030000
8109   1  2 0.0000 48.950000 40.050000 31.150000
8110   1  2 0.0000 48.950000 40.050000 38.270000
8111   1  2 0.0000 48.950000 40.050000 45.390000
8112   1  2 0.0000 48.950000 40.050000 52.510000
8113   1  2 0.0000 48.950000 47.170000  2.670000
8114   1  2 0.0000 48.950000 47.170000  9.790000
8115   1  2 0.0000 48.950000 47.170000 16.910000
8116   1  2 0.0000 48.950000 47.170000 24.030000
8117   1  2 0.0000 48.950000 47.170000 31.150000
8118   1  2 0.0000 48.950000 47.170000 38.270000
8119   1  2 0.0000 48.950000 47.170000 45.390000
8120   1  2 0.0000 48.950000 47.170000 52.510000
8121   1  2 0.0000 48.950000 54.290000  2.670000
8122   1  2 0.0000 48.950000 54.290000  9.790000
8123   1  2 0.0000 48.950000 54.290000 16.910000
8124   1  2 0.0000 48.950000 54.290000 24.030000
8125   1  2 0.0000 48.950000 54.290000 31.150000
8126   1  2 0.0000 48.950000 54.290000 38.270000
8127   1  2 0.0000 48.950000 54.290000 45.390000
8128   1  2 0.0000 48.950000 54.290000 52.510000
8129   1  2 0.0000 56.070000  4.450000  2.670000
8130   1  2 0.0000 56.070000  4.450000  9.790000
8131   1  2 0.0000 56.070000  4.450000 16.910000
8132   1  2 0.0000 56.070000  4.450000 24.030000
8133   1  2 0.0000 56.070000  4.450000 31.150000
8134   1  2 0.0000 56.070000  4.450000 38.270000
8135   1  2 0.0000 56.070000  4.450000 45.390000
8136   1  2 0.0000 56.070000  4.450000 52.510000
8137   1  2 0.0000 56.070000 11.570000  2.670000
8138   1  2 0.0000 56.070000 11.570000  9.790000
8139   1  2 0.0000 56.070000 11.570000 16.910000
8140   1  2 0.0000 56.070000 11.570000 24.030000
8141   1  2 0.0000 56.070000 11.570000 31.150000
8142   1  2 0.0000 56.070000 11.570000 38.270000
8143   1  2 0.0000 56.070000 11.570000 45.390000
8144   1  2 0.0000 56.070000 11.570000 52.510000
8145   1  2 0.0000 56.070000 18.690000  2.670000
8146   1  2 0.0000 56.070000 18.690000  9.790000
8147   1  2 0.0000 56.070000 18.690000 16.910000
8148   1  2 0.0000 56.070000 18.690000 24.030000
8149   1  2 0.0000 56.070000 18.690000 31.150000
8150   1  2 0.0000 56.070000 18.690000 38.270000
8151   1  2 0.0000 56.070000 18.690000 45.390000
8152   1  2 0.0000 56.070000 18.690000 52.510000
8153   1  2 0.0000 56.070000 25.810000  2.670000
8154   1  2 0.0000 56.070000 25.810000  9.790000
8155   1  2 0.0000 56.070000 25.810000 16.910000
8156   1  2 0.0000 56.070000 25.810000 24.030000
8157   1  2 0.0000 56.070000 25.810000 31.150000
8158   1  2 0.0000 56.070000 25.810000 38.270000
8159   1  2 0.0000 56.070000 25.810000 45.390000
8160   1  2 0.0000 56.070000 25.810000 52.510000
8161   1  2 0.0000 56.070000 32.930000  2.670000
8162   1  2 0.0000 56.070000 32.930000  9.790000
8163   1  2 0.0000 56.070000 32.930000 16.910000
8164   1  2 0.0000 56.070000 32.930000 24.030000
8165   1  2 0.0000 56.070000 32.930000 31.150000
8166   1  2 0.0000 56.070000 32.930000 38.270000
8167   1  2 0.0000 56.070000 32.930000 45.390000
8168   1  2 0.0000 56.070000 32.930000 52.510000
8169   1  2 0.0000 56.070000 40.050000  2.670000
8170   1  2 0.0000 56.070000 40.050000  9.790000
8171   1  2 0.0000 56.070000 40.050000 16.910000
8172   1  2 0.0000 56.070000 40.050000 24.030000
8173   1  2 0.0000 56.070000 40.050000 31.150000
8174   1  2 0.0000 56.070000 40.050000 38.270000
8175   1  2 0.0000 56.070000 40.050000 45.390000
8176   1  2 0.0000 56.070000 40.050000 52.510000
8177   1  2 0.0000 56.070000 47.170000  2.670000
8178   1  2 0.0000 56.070000 47.170000  9.790000
8179   1  2 0.0000 56.070000 47.170000 16.910000
8180   1  2 0.0000 56.070000 47.170000 24.030000
8181   1  2 0.0000 56.070000 47.170000 31.150000
8182   1  2 0.0000 56.070000 47.170000 38.270000
8183   1  2 0.0000 56.070000 47.170000 45.390000
8184   1  2 0.0000 56.070000 47.170000 52.510000
8185   1  2 0.0000 56.070000 54.290000  2.670000
8186   1  2 0.0000 56.070000 54.290000  9.790000
8187   1  2 0.0000 56.070000 54.290000 16.910000
8188   1  2 0.0000 56.070000 54.290000 24.030000
8189   1  2 0.0000 56.070000 54.290000 31.150000
8190   1  2 0.0000 56.070000 54.290000 38.270000
8191   1  2 0.0000 56.070000 54.290000 45.390000
8192   1  2 0.0000 56.070000 54.290000 52.510000
8193   1  2 0.0000  2.670000  0.890000  2.670000
8194   1  2 0.0000  2.670000  0.890000  9.790000
8195   1  2 0.0000  2.670000  0.890000 16.910000
8196   1  2 0.0000  2.670000  0.890000 24.030000
8197   1  2 0.0000  2.670000  0.890000 31.150000
8198   1  2 0.0000  2.670000  0.890000 38.270000
8199   1  2 0.0000  2.670000  0.890000 45.390000
8200   1  2 0.0000  2.670000  0.890000 52.510000
8201   1  2 0.0000  2.670000  8.010000  2.670000
8202   1  2 0.0000  2.670000  8.010000  9.790000
8203   1  2 0.0000  2.670000  8.010000 16.910000
8204   1  2 0.0000  2.670000  8.010000 24.030000
8205   1  2 0.0000  2.670000  8.010000 31.150000
8206   1  2 0.0000  2.670000  8.010000 38.270000
8207   1  2 0.0000  2.670000  8.010000 45.390000
8208   1  2 0.0000  2.670000  8.010000 52.510000
8209   1  2 0.0000  2.670000 15.130000  2.670000
8210   1  2 0.0000  2.670000 15.130000  9.790000
8211   1  2 0.0000  2.670000 15.130000 16.910000
8212   1  2 0.0000  2.670000 15.130000 24.030000
8213   1  2 0.0000  2.670000 15.130000 31.150000
8214   1  2 0.0000  2.670000 15.130000 38.270000
8215   1  2 0.0000  2.670000 15.130000 45.390000
8216   1  2 0.0000  2.670000 15.130000 52.510000
8217   1  2 0.0000  2.670000 22.250000  2.670000
8218   1  2 0.0000  2.670000 22.250000  9.790000
8219   1  2 0.0000  2.670000 22.250000 16.910000
8220   1  2 0.0000  2.670000 22.250000 24.030000
8221   1  2 0.0000  2.670000 22.250000 31.150000
8222   1  2 0.0000  2.670000 22.250000 38.270000
8223   1  2 0.0000  2.670000 22.250000 45.390000
8224   1  2 0.0000  2.670000 22.250000 52.510000
8225   1  2 0.0000  2.670000 29.370000  2.670000
8226   1  2 0.0000  2.670000 29.370000  9.790000
8227   1  2 0.0000  2.670000 29.370000 16.910000
8228   1  2 0.0000  2.670000 29.370000 24.030000
8229   1  2 0.0000  2.670000 29.370000 31.150000
8230   1  2 0.0000  2.670000 29.370000 38.270000
8231   1  2 0.0000  2.670000 29.370000 45.390000
8232   1  2 0.0000  2.670000 29.370000 52.510000
8233   1  2 0.0000  2.670000 36.490000  2.670000
8234   1  2 0.0000  2.670000 36.490000  9.790000
8235   1  2 0.0000  2.670000 36.490000 16.910000
8236   1  2 0.0000  2.670000 36.490000 24.030000
8237   1  2 0.0000  2.670000 36.490000 31.150000
8238   1  2 0.0000  2.670000 36.490000 38.270000
8239   1  2 0.0000  2.670000 36.490000 45.390000
8240   1  2 0.0000  2.670000 36.490000 52.510000
8241   1  2 0.0000  2.670000 43.610000  2.670000
8242   1  2 0.0000  2.670000 43.610000  9.790000
8243   1  2 0.0000  2.670000 43.610000 16.910000
8244   1  2 0.0000  2.670000 43.610000 24.030000
8245   1  2 0.0000  2.670000 43.610000 31.150000
8246   1  2 0.0000  2.670000 43.610000 38.270000
8247   1  2 0.0000  2.670000 43.610000 45.390000
8248   1  2 0.0000  2.670000 43.610000 52.510000
8249   1  2 0.0000  2.670000 50.730000  2.670000
8250   1  2 0.0000  2.670000 50.730000  9.790000
8251   1  2 0.0000  2.670000 50.730000 16.910000
8252   1  2 0.0000  2.670000 50.730000 24.030000
8253   1  2 0.0000  2.670000 50.730000 31.150000
8254   1  2 0.0000  2.670000 50.730000 38.270000
8255   1  2 0.0000  2.670000 50.730000 45.390000
8256   1  2 0.0000  2.670000 50.730000 52.510000
8257   1  2 0.0000  9.790000  0.890000  2.670000
8258   1  2 0.0000  9.790000  0.890000  9.790000
8259   1  2 0.0000  9.790000  0.890000 16.910000
8260   1  2 0.0000  9.790000  0.890000 24.030000
8261   1  2 0.0000  9.790000  0.890000 31.150000
8262   1  2 0.0000  9.790000  0.890000 38.270000
8263   1  2 0.0000  9.790000  0.890000 45.390000
8264   1  2 0.0000  9.790000  0.890000 52.510000
8265   1  2 0.0000  9.790000  8.010000  2.670000
8266   1  2 0.0000  9.790000  8.010000  9.790000
8267   1  2 0.0000  9.790000  8.010000 16.910000
8268   1  2 0.0000  9.790000  8.010000 24.030000
8269   1  2 0.0000  9.790000  8.010000 31.150000
8270   1  2 0.0000  9.790000  8.010000 38.270000
8271   1  2 0.0000  9.790000  8.010000 45.390000
8272   1  2 0.0000  9.790000  8.010000 52.510000
8273   1  2 0.0000  9.790000 15.130000  2.670000
8274   1  2 0.0000  9.790000 15.130000  9.790000
8275   1  2 0.0000  9.790000 15.130000 16.910000
8276   1  2 0.0000  9.790000 15.130000 24.030000
8277   1  2 0.0000  9.790000 15.130000 31.150000
8278   1  2 0.0000  9.790000 15.130000 38.270000
8279   1  2 0.0000  9.790000 15.130000 45.390000
8280   1  2 0.0000  9.790000 15.130000 52.510000
8281   1  2 0.0000  9.790000 22.250000  2.670000
8282   1  2 0.0000  9.790000 22.250000  9.790000
8283   1  2 0.0000  9.790000 22.250000 16.910000
8284   1  2 0.0000  9.790000 22.250000 24.030000
8285   1  2 0.0000  9.790000 22.250000 31.150000
8286   1  2 0.0000  9.790000 22.250000 38.270000
8287   1  2 0.0000  9.790000 22.250000 45.390000
8288   1  2 0.0000  9.790000 22.250000 52.510000
8289   1  2 0.0000  9.790000 29.370000  2.670000
8290   1  2 0.0000  9.790000 29.370000  9.790000
8291   1  2 0.0000  9.790000 29.370000 16.910000
8292   1  2 0.0000  9.790000 29.370000 24.030000
8293   1  2 0.0000  9.790000 29.370000 31.150000
8294   1  2 0.0000  9.790000 29.370000 38.270000
8295   1  2 0.0000  9.790000 29.370000 45.390000
8296   1  2 0.0000  9.790000 29.370000 52.510000
8297   1  2 0.0000  9.790000 36.490000  2.670000
8298   1  2 0.0000  9.790000 36.490000  9.790000
8299   1  2 0.0000  9.790000 36.490000 16.910000
8300   1  2 0.0000  9.790000 36.490000 24.030000
8301   1  2 0.0000  9.790000 36.490000 31.150000
8302   1  2 0.0000  9.790000 36.490000 38.270000
8303   1  2 0.0000  9.790000 36.490000 45.390000
8304   1  2 0.0000  9.790000 36.490000 52.510000
8305   1  2 0.0000  9.790000 43.610000  2.670000
8306   1  2 0.0000  9.790000 43.610000  9.790000
8307   1  2 0.0000  9.790000 43.610000 16.910000
8308   1  2 0.0000  9.790000 43.610000 24.030000
8309   1  2 0.0000  9.790000 43.610000 31.150000
8310   1  2 0.0000  9.790000 43.610000 38.270000
8311   1  2 0.0000  9.790000 43.610000 45.390000
8312   1  2 0.0000  9.790000 43.610000 52.510000
8313   1  2 0.0000  9.790000 50.730000  2.670000
8314   1  2 0.0000  9.790000 50.730000  9.790000
8315   1  2 0.0000  9.790000 50.730000 16.910000
8316   1  2 0.0000  9.790000 50.730000 24.030000
8317   1  2 0.0000  9.790000 50.730000 31.150000
8318   1  2 0.0000  9.790000 50.730000 38.270000
8319   1  2 0.0000  9.790000 50.730000 45.390000
8320   1  2 0.0000  9.790000 50.730000 52.510000
8321   1  2 0.0000 16.910000  0.890000  2.670000
8322   1  2 0.0000 16.910000  0.890000  9.790000
8323   1  2 0.0000 16.910000  0.890000 16.910000
8324   1  2 0.0000 16.910000  0.890000 24.030000
8325   1  2 0.0000 16.910000  0.890000 31.150000
8326   1  2 0.0000 16.910000  0.890000 38.270000
8327   1  2 0.0000 16.910000  0.890000 45.390000
8328   1  2 0.0000 16.910000  0.890000 52.510000
8329   1  2 0.0000 16.910000  8.010000  2.670000
8330   1  2 0.0000 16.910000  8.010000  9.790000
8331   1  2 0.0000 16.910000  8.010000 16.910000
8332   1  2 0.0000 16.910000  8.010000 24.030000
8333   1  2 0.0000 16.910000  8.010000 31.150000
8334   1  2 0.0000 16.910000  8.010000 38.270000
8335   1  2 0.0000 16.910000  8.010000 45.390000
8336   1  2 0.0000 16.910000  8.010000 52.510000
8337   1  2 0.0000 16.910000 15.130000  2.670000
8338   1  2 0.0000 16.910000 15.130000  9.790000
8339   1  2 0.0000 16.910000 15.130000 16.910000
8340   1  2 0.0000 16.910000 15.130000 24.030000
8341   1  2 0.0000 16.910000 15.130000 31.150000
8342   1  2 0.0000 16.910000 15.130000 38.270000
8343   1  2 0.0000 16.910000 15.130000 45.390000
8344   1  2 0.0000 16.910000 15.130000 52.510000
8345   1  2 0.0000 16.910000 22.250000  2.670000
8346   1  2 0.0000 16.910000 22.250000  9.790000
8347   1  2 0.0000 16.910000 22.250000 16.910000
8348   1  2 0.0000 16.910000 22.250000 24.030000
8349   1  2 0.0000 16.910000 22.250000 31.150000
8350   1  2 0.0000 16.910000 22.250000 38.270000
8351   1  2 0.0000 16.910000 22.250000 45.390000
8352   1  2 0.0000 16.910000 22.250000 52.510000
8353   1  2 0.0000 16.910000 29.370000  2.670000
8354   1  2 0.0000 16.910000 29.370000  9.790000
8355   1  2 0.0000 16.910000 29.370000 16.910000
8356   1  2 0.0000 16.910000 29.370000 24.030000
8357   1  2 0.0000 16.910000 29.370000 31.150000
8358   1  2 0.0000 16.910000 29.370000 38.270000
8359   1  2 0.0000 16.910000 29.370000 45.390000
8360   1  2 0.0000 16.910000 29.370000 52.510000
8361   1  2 0.0000 16.910000 36.490000  2.670000
8362   1  2 0.0000 16.910000 36.490000  9.790000
8363   1  2 0.0000 16.910000 36.490000 16.910000
8364   1  2 0.0000 16.910000 36.490000 24.030000
8365   1  2 0.0000 16.910000 36.490000 31.150000
8366   1  2 0.0000 16.910000 36.490000 38.270000
8367   1  2 0.0000 16.910000 36.490000 45.390000
8368   1  2 0.0000 16.910000 36.490000 52.510000
8369   1  2 0.0000 16.910000 43.610000  2.670000
8370   1  2 0.0000 16.910000 43.610000  9.790000
8371   1  2 0.0000 16.910000 43.610000 16.910000
8372   1  2 0.0000 16.910000 43.610000 24.030000
8373   1  2 0.0000 16.910000 43.610000 31.150000
8374   1  2 0.0000 16.910000 43.610000 38.270000
8375   1  2 0.0000 16.910000 43.610000 45.390000
8376   1  2 0.0000 16.910000 43.610000 52.510000
8377   1  2 0.0000 16.910000 50.730000  2.670000
8378   1  2 0.0000 16.910000 50.730000  9.790000
8379   1  2 0.0000 16.910000 50.730000 16.910000
8380   1  2 0.0000 16.910000 50.730000 24.030000
8381   1  2 0.0000 16.910000 50.730000 31.150000
8382   1  2 0.0000 16.910000 50.730000 38.270000
8383   1  2 0.0000 16.910000 50.730000 45.390000
8384   1  2 0.0000 16.910000 50.730000 52.510000
8385   1  2 0.0000 24.030000  0.890000  2.670000
8386   1  2 0.0000 24.030000  0.890000  9.790000
8387   1  2 0.0000 24.030000  0.890000 16.910000
8388   1  2 0.0000 24.030000  0.890000 24.030000
8389   1  2 0.0000 24.030000  0.890000 31.150000
8390   1  2 0.0000 24.030000  0.890000 38.270000
8391   1  2 0.0000 24.030000  0.890000 45.390000
8392   1  2 0.0000 24.030000  0.890000 52.510000
8393   1  2 0.0000 24.030000  8.010000  2.670000
8394   1  2 0.0000 24.030000  8.010000  9.790000
8395   1  2 0.0000 24.030000  8.010000 16.910000
8396   1  2 0.0000 24.030000  8.010000 24.030000
8397   1  2 0.0000 24.030000  8.010000 31.150000
8398   1  2 0.0000 24.030000  8.010000 38.270000
8399   1  2 0.0000 24.030000  8.010000 45.390000
8400   1  2 0.0000 24.030000  8.010000 52.510000
8401   1  2 0.0000 24.030000 15.130000  2.670000
8402   1  2 0.0000 24.030000 15.130000  9.790000
8403   1  2 0.0000 24.030000 15.130000 16.910000
8404   1  2 0.0000 24.030000 15.130000 24.030000
8405   1  2 0.0000 24.030000 15.130000 31.150000
8406   1  2 0.0000 24.030000 15.130000 38.270000
8407   1  2 0.0000 24.030000 15.130000 45.390000
8408   1  2 0.0000 24.030000 15.130000 52.510000
8409   1  2 0.0000 24.030000 22.250000  2.670000
8410   1  2 0.0000 24.030000 22.250000  9.790000
8411   1  2 0.0000 24.030000 22.250000 16.910000
8412   1  2 0.0000 24.030000 22.250000 24.030000
8413   1  2 0.0000 24.030000 22.250000 31.150000
8414   1  2 0.0000 24.030000 22.250000 38.270000
8415   1  2 0.0000 24.030000 22.250000 45.390000
8416   1  2 0.0000 24.030000 22.250000 52.510000
8417   1  2 0.0000 24.030000 29.370000  2.670000
8418   1  2 0.0000 24.030000 29.370000  9.790000
8419   1  2 0.0000 24.030000 29.370000 16.910000
8420   1  2 0.0000 24.030000 29.370000 24.030000
8421   1  2 0.0000 24.030000 29.370000 31.150000
8422   1  2 0.0000 24.030000 29.370000 38.270000
8423   1  2 0.0000 24.030000 29.370000 45.390000
8424   1  2 0.0000 24.030000 29.370000 52.510000
8425   1  2 0.0000 24.030000 36.490000  2.670000
8426   1  2 0.0000 24.030000 36.490000  9.790000
8427   1  2 0.0000 24.030000 36.490000 16.910000
8428   1  2 0.0000 24.030000 36.490000 24.030000
8429   1  2 0.0000 24.030000 36.490000 31.150000
8430   1  2 0.0000 24.030000 36.490000 38.270000
8431   1  2 0.0000 24.030000 36.490000 45.390000
8432   1  2 0.0000 24.030000 36.490000 52.510000
8433   1  2 0.0000 24.030000 43.610000  2.670000
8434   1  2 0.0000 24.030000 43.610000  9.790000
8435   1  2 0.0000 24.030000 43.610000 16.910000
8436   1  2 0.0000 24.030000 43.610000 24.030000
8437   1  2 0.0000 24.030000 43.610000 31.150000
8438   1  2 0.0000 24.030000 43.610000 38.270000
8439   1  2 0.0000 24.030000 43.610000 45.390000
8440   1  2 0.0000 24.030000 43.610000 52.510000
8441   1  2 0.0000 24.030000 50.730000  2.670000
8442   1  2 0.0000 24.030000 50.730000  9.790000
8443   1  2 0.0000 24.030000 50.730000 16.910000
8444   1  2 0.0000 24.030000 50.730000 24.030000
8445   1  2 0.0000 24.030000 50.730000 31.150000
8446   1  2 0.0000 24.030000 50.730000 38.270000
8447   1  2 0.0000 24.030000 50.730000 45.390000
8448   1  2 0.0000 24.030000 50.730000 52.510000
8449   1  2 0.0000 31.150000  0.890000  2.670000
8450   1  2 0.0000 31.150000  0.890000  9.790000
8451   1  2 0.0000 31.150000  0.890000 16.910000
8452   1  2 0.0000 31.150000  0.890000 24.030000
8453   1  2 0.0000 31.150000  0.890000 31.150000
8454   1  2 0.0000 31.150000  0.890000 38.270000
8455   1  2 0.0000 31.150000  0.890000 45.390000
8456   1  2 0.0000 31.150000  0.890000 52.510000
8457   1  2 0.0000 31.150000  8.010000  2.670000
8458   1  2 0.0000 31.150000  8.010000  9.790000
8459   1  2 0.0000 31.150000  8.010000 16.910000
8460   1  2 0.0000 31.150000  8.010000 24.030000
8461   1  2 0.0000 31.150000  8.010000 31.150000
8462   1  2 0.0000 31.150000  8.010000 38.270000
8463   1  2 0.0000 31.150000  8.010000 45.390000
8464   1  2 0.0000 31.150000  8.010000 52.510000
8465   1  2 0.0000 31.150000 15.130000  2.670000
8466   1  2 0.0000 31.150000 15.130000  9.790000
8467   1  2 0.0000 31.150000 15.130000 16.910000
8468   1  2 0.0000 31.150000 15.130000 24.030000
8469   1  2 0.0000 31.150000 15.130000 31.150000
8470   1  2 0.0000 31.150000 15.130000 38.270000
8471   1  2 0.0000 31.150000 15.130000 45.390000
8472   1  2 0.0000 31.150000 15.130000 52.510000
8473   1  2 0.0000 31.150000 22.250000  2.670000
8474   1  2 0.0000 31.150000 22.250000  9.790000
8475   1  2 0.0000 31.150000 22.250000 16.910000
8476   1  2 0.0000 31.150000 22.250000 24.030000
8477   1  2 0.0000 31.150000 22.250000 31.150000
8478   1  2 0.0000 31.150000 22.250000 38.270000
8479   1  2 0.0000 31.150000 22.250000 45.390000
8480   1  2 0.0000 31.150000 22.250000 52.510000
8481   1  2 0.0000 31.150000 29.370000  2.670000
8482   1  2 0.0000 31.150000 29.370000  9.790000
8483   1  2 0.0000 31.150000 29.370000 16.910000
8484   1  2 0.0000 31.150000 29.370000 24.030000
8485   1  2 0.0000 31.150000 29.370000 31.150000
8486   1  2 0.0000 31.150000 29.370000 38.270000
8487   1  2 0.0000 31.150000 29.370000 45.390000
8488   1  2 0.0000 31.150000 29.370000 52.510000
8489   1  2 0.0000 31.150000 36.490000  2.670000
8490   1  2 0.0000 31.150000 36.490000  9.790000
8491   1  2 0.0000 31.150000 36.490000 16.910000
8492   1  2 0.0000 31.150000 36.490000 24.030000
8493   1  2 0.0000 31.150000 36.490000 31.150000
8494   1  2 0.0000 31.150000 36.490000 38.270000
8495   1  2 0.0000 31.150000 36.490000 45.390000
8496   1  2 0.0000 31.150000 36.490000 52.510000
8497   1  2 0.0000 31.150000 43.610000  2.670000
8498   1  2 0.0000 31.150000 43.610000  9.790000
8499   1  2 0.0000 31.150000 43.610000 16.910000
8500   1  2 0.0000 31.150000 43.610000 24.030000
8501   1  2 0.0000 31.150000 43.610000 31.150000
8502   1  2 0.0000 31.150000 43.610000 38.270000
8503   1  2 0.0000 31.150000 43.610000 45.390000
8504   1  2 0.0000 31.150000 43.610000 52.510000
8505   1  2 0.0000 31.150000 50.730000  2.670000
8506   1  2 0.0000 31.150000 50.730000  9.790000
8507   1  2 0.0000 31.150000 50.730000 16.910000
8508   1  2 0.0000 31.150000 50.730000 24.030000
8509   1  2 0.0000 31.150000 50.730000 31.150000
8510   1  2 0.0000 31.150000 50.730000 38.270000
8511   1  2 0.0000 31.150000 50.730000 45.390000
8512   1  2 0.0000 31.150000 50.730000 52.510000
8513   1  2 0.0000 38.270000  0.890000  2.670000
8514   1  2 0.0000 38.270000  0.890000  9.790000
8515   1  2 0.0000 38.270000  0.890000 16.910000
8516   1  2 0.0000 38.270000  0.890000 24.030000
8517   1  2 0.0000 38.270000  0.890000 31.150000
8518   1  2 0.0000 38.270000  0.890000 38.270000
8519   1  2 0.0000 38.270000  0.890000 45.390000
8520   1  2 0.0000 38.270000  0.890000 52.510000
8521   1  2 0.0000 38.270000  8.010000  2.670000
8522   1  2 0.0000 38.270000  8.010000  9.790000
8523   1  2 0.0000 38.270000  8.010000 16.910000
8524   1  2 0.0000 38.270000  8.010000 24.030000
8525   1  2 0.0000 38.270000  8.010000 31.150000
8526   1  2 0.0000 38.270000  8.010000 38.270000
8527   1  2 0.0000 38.270000  8.010000 45.390000
8528   1  2 0.0000 38.270000  8.010000 52.510000
8529   1  2 0.0000 38.270000 15.130000  2.670000
8530   1  2 0.0000 38.270000 15.130000  9.790000
8531   1  2 0.0000 38.270000 15.130000 16.910000
8532   1  2 0.0000 38.270000 15.130000 24.030000
8533   1  2 0.0000 38.270000 15.130000 31.150000
8534   1  2 0.0000 38.270000 15.130000 38.270000
8535   1  2 0.0000 38.270000 15.130000 45.390000
8536   1  2 0.0000 38.270000 15.130000 52.510000
8537   1  2 0.0000 38.270000 22.250000  2.670000
8538   1  2 0.0000 38.270000 22.250000  9.790000
8539   1  2 0.0000 38.270000 22.250000 16.910000
8540   1  2 0.0000 38.270000 22.250000 24.030000
8541   1  2 0.0000 38.270000 22.250000 31.150000
8542   1  2 0.0000 38.270000 22.250000 38.270000
8543   1  2 0.0000 38.270000 22.250000 45.390000
8544   1  2 0.0000 38.270000 22.250000 52.510000
8545   1  2 0.0000 38.270000 29.370000  2.670000
8546   1  2 0.0000 38.270000 29.370000  9.790000
8547   1  2 0.0000 38.270000 29.370000 16.910000
8548   1  2 0.0000 38.270000 29.370000 24.030000
8549   1  2 0.0000 38.270000 29.370000 31.150000
8550   1  2 0.0000 38.270000 29.370000 38.270000
8551   1  2 0.0000 38.270000 29.370000 45.390000
8552   1  2 0.0000 38.270000 29.370000 52.510000
8553   1  2 0.0000 38.270000 36.490000  2.670000
8554   1  2 0.0000 38.270000 36.490000  9.790000
8555   1  2 0.0000 38.270000 36.490000 16.910000
8556   1  2 0.0000 38.270000 36.490000 24.030000
8557   1  2 0.0000 38.270000 36.490000 31.150000
8558   1  2 0.0000 38.270000 36.490000 38.270000
8559   1  2 0.0000 38.270000 36.490000 45.390000
8560   1  2 0.0000 38.270000 36.490000 52.510000
8561   1  2 0.0000 38.270000 43.610000  2.670000
8562   1  2 0.0000 38.270000 43.610000  9.790000
8563   1  2 0.0000 38.270000 43.610000 16.910000
8564   1  2 0.0000 38.270000 43.610000 24.030000
8565   1  2 0.0000 38.270000 43.610000 31.150000
8566   1  2 0.0000 38.270000 43.610000 38.270000
8567   1  2 0.0000 38.270000 43.610000 45.390000
8568   1  2 0.0000 38.270000 43.610000 52.510000
8569   1  2 0.0000 38.270000 50.730000  2.670000
8570   1  2 0.0000 38.270000 50.730000  9.790000
8571   1  2 0.0000 38.270000 50.730000 16.910000
8572   1  2 0.0000 38.270000 50.730000 24.030000
8573   1  2 0.0000 38.270000 50.730000 31.150000
8574   1  2 0.0000 38.270000 50.730000 38.270000
8575   1  2 0.0000 38.270000 50.730000 45.390000
8576   1  2 0.0000 38.270000 50.730000 52.510000
8577   1  2 0.0000 45.390000  0.890000  2.670000
8578   1  2 0.0000 45.390000  0.890000  9.790000
8579   1  2 0.0000 45.390000  0.890000 16.910000
8580   1  2 0.0000 45.390000  0.890000 24.030000
8581   1  2 0.0000 45.390000  0.890000 31.150000
8582   1  2 0.0000 45.390000  0.890000 38.270000
8583   1  2 0.0000 45.390000  0.890000 45.390000
8584   1  2 0.0000 45.390000  0.890000 52.510000
8585   1  2 0.0000 45.390000  8.010000  2.670000
8586   1  2 0.0000 45.390000  8.010000  9.790000
8587   1  2 0.0000 45.390000  8.010000 16.910000
8588   1  2 0.0000 45.390000  8.010000 24.030000
8589   1  2 0.0000 45.390000  8.010000 31.150000
8590   1  2 0.0000 45.390000  8.010000 38.270000
8591   1  2 0.0000 45.390000  8.010000 45.390000
8592   1  2 0.0000 45.390000  8.010000 52.510000
8593   1  2 0.0000 45.390000 15.130000  2.670000
8594   1  2 0.0000 45.390000 15.130000  9.790000
8595   1  2 0.0000 45.390000 15.130000 16.910000
8596   1  2 0.0000 45.390000 15.130000 24.030000
8597   1  2 0.0000 45.390000 15.130000 31.150000
8598   1  2 0.0000 45.390000 15.130000 38.270000
8599   1  2 0.0000 45.390000 15.130000 45.390000
8600   1  2 0.0000 45.390000 15.130000 52.510000
8601   1  2 0.0000 45.390000 22.250000  2.670000
8602   1  2 0.0000 45.390000 22.250000  9.790000
8603   1  2 0.0000 45.390000 22.250000 16.910000
8604   1  2 0.0000 45.390000 22.250000 24.030000
8605   1  2 0.0000 45.390000 22.250000 31.150000
8606   1  2 0.0000 45.390000 22.250000 38.270000
8607   1  2 0.0000 45.390000 22.250000 45.390000
8608   1  2 0.0000 45.390000 22.250000 52.510000
8609   1  2 0.0000 45.390000 29.370000  2.670000
8610   1  2 0.0000 45.390000 29.370000  9.790000
8611   1  2 0.0000 45.390000 29.370000 16.910000
8612   1  2 0.0000 45.390000 29.370000 24.030000
8613   1  2 0.0000 45.390000 29.370000 31.150000
8614   1  2 0.0000 45.390000 29.370000 38.270000
8615   1  2 0.0000 45.390000 29.370000 45.390000
8616   1  2 0.0000 45.390000 29.370000 52.510000
8617   1  2 0.0000 45.390000 36.490000  2.670000
8618   1  2 0.0000 45.390000 36.490000  9.790000
8619   1  2 0.0000 45.390000 36.490000 16.910000
8620   1  2 0.0000 45.390000 36.490000 24.030000
8621   1  2 0.0000 45.390000 36.490000 31.150000
8622   1  2 0.0000 45.390000 36.490000 38.270000
8623   1  2 0.0000 45.390000 36.490000 45.390000
8624   1  2 0.0000 45.390000 36.490000 52.510000
8625   1  2 0.0000 45.390000 43.610000  2.670000
8626   1  2 0.0000 45.390000 43.610000  9.790000
8627   1  2 0.0000 45.390000 43.610000 16.910000
8628   1  2 0.0000 45.390000 43.610000 24.030000
8629   1  2 0.0000 45.390000 43.610000 31.150000
8630   1  2 0.0000 45.390000 43.610000 38.270000
8631   1  2 0.0000 45.390000 43.610000 45.390000
8632   1  2 0.0000 45.390000 43.610000 52.510000
8633   1  2 0.0000 45.390000 50.730000  2.670000
8634   1  2 0.0000 45.390000 50.730000  9.790000
8635   1  2 0.0000 45.390000 50.730000 16.910000
8636   1  2 0.0000 45.390000 50.730000 24.030000
8637   1  2 0.0000 45.390000 50.730000 31.150000
8638   1  2 0.0000 45.390000 50.730000 38.270000
8639   1  2 0.0000 45.390000 50.730000 45.390000
8640   1  2 0.0000 45.390000 50.730000 52.510000
8641   1  2 0.0000 52.510000  0.890000  2.670000
8642   1  2 0.0000 52.510000  0.890000  9.790000
8643   1  2 0.0000 52.510000  0.890000 16.910000
8644   1  2 0.0000 52.510000  0.890000 24.030000
8645   1  2 0.0000 52.510000  0.890000 31.150000
8646   1  2 0.0000 52.510000  0.890000 38.270000
8647   1  2 0.0000 52.510000  0.890000 45.390000
8648   1  2 0.0000 52.510000  0.890000 52.510000
8649   1  2 0.0000 52.510000  8.010000  2.670000
8650   1  2 0.0000 52.510000  8.010000  9.790000
8651   1  2 0.0000 52.510000  8.010000 16.910000
8652   1  2 0.0000 52.510000  8.010000 24.030000
8653   1  2 0.0000 52.510000  8.010000 31.150000
8654   1  2 0.0000 52.510000  8.010000 38.270000
8655   1  2 0.0000 52.510000  8.010000 45.390000
8656   1  2 0.0000 52.510000  8.010000 52.510000
8657   1  2 0.0000 52.510000 15.130000  2.670000
8658   1  2 0.0000 52.510000 15.130000  9.790000
8659   1  2 0.0000 52.510000 15.130000 16.910000
8660   1  2 0.0000 52.510000 15.130000 24.030000
8661   1  2 0.0000 52.510000 15.130000 31.150000
8662   1  2 0.0000 52.510000 15.130000 38.270000
8663   1  2 0.0000 52.510000 15.130000 45.390000
8664   1  2 0.0000 52.510000 15.130000 52.510000
8665   1  2 0.0000 52.510000 22.250000  2.670000
8666   1  2 0.0000 52.510000 22.250000  9.790000
8667   1  2 0.0000 52.510000 22.250000 16.910000
8668   1  2 0.0000 52.510000 22.250000 24.030000
8669   1  2 0.0000 52.510000 22.250000 31.150000
8670   1  2 0.0000 52.510000 22.250000 38.270000
8671   1  2 0.0000 52.510000 22.250000 45.390000
8672   1  2 0.0000 52.510000 22.250000 52.510000
8673   1  2 0.0000 52.510000 29.370000  2.670000
8674   1  2 0.0000 52.510000 29.370000  9.790000
8675   1  2 0.0000 52.510000 29.370000 16.910000
8676   1  2 0.0000 52.510000 29.370000 24.030000
8677   1  2 0.0000 52.510000 29.370000 31.150000
8678   1  2 0.0000 52.510000 29.370000 38.270000
8679   1  2 0.0000 52.510000 29.370000 45.390000
8680   1  2 0.0000 52.510000 29.370000 52.510000
8681   1  2 0.0000 52.510000 36.490000  2.670000
8682   1  2 0.0000 52.510000 36.490000  9.790000
8683   1  2 0.0000 52.510000 36.490000 16.910000
8684   1  2 0.0000 52.510000 36.490000 24.030000
8685   1  2 0.0000 52.510000 36.490000 31.150000
8686   1  2 0.0000 52.510000 36.490000 38.270000
8687   1  2 0.0000 52.510000 36.490000 45.390000
8688   1  2 0.0000 52.510000 36.490000 52.510000
8689   1  2 0.0000 52.510000 43.610000  2.670000
8690   1  2 0.0000 52.510000 43.610000  9.790000
8691   1  2 0.0000 52.510000 43.610000 16.910000
8692   1  2 0.0000 52.510000 43.610000 24.030000
8693   1  2 0.0000 52.510000 43.610000 31.150000
8694   1  2 0.0000 52.510000 43.610000 38.270000
8695   1  2 0.0000 52.510000 43.610000 45.390000
8696   1  2 0.0000 52.510000 43.610000 52.510000
8697   1  2 0.0000 52.510000 50.730000  2.670000
8698   1  2 0.0000 52.510000 50.730000  9.790000
8699   1  2 0.0000 52.510000 50.730000 16.910000
8700   1  2 0.0000 52.510000 50.730000 24.030000
8701   1  2 0.0000 52.510000 50.730000 31.150000
8702   1  2 0.0000 52.510000 50.730000 38.270000
8703   1  2 0.0000 52.510000 50.730000 45.390000
8704   1  2 0.0000 52.510000 50.730000 52.510000
8705   1  2 0.0000  2.670000  4.450000  6.230000
8706   1  2 0.0000  2.670000  4.450000 13.350000
8707   1  2 0.0000  2.670000  4.450000 20.470000
8708   1  2 0.0000  2.670000  4.450000 27.590000
8709   1  2 0.0000  2.670000  4.450000 34.710000
8710   1  2 0.0000  2.670000  4.450000 41.830000
8711   1  2 0.0000  2.670000  4.450000 48.950000
8712   1  2 0.0000  2.670000  4.450000 56.070000
8713   1  2 0.0000  2.670000 11.570000  6.230000
8714   1  2 0.0000  2.670000 11.570000 13.350000
8715   1  2 0.0000  2.670000 11.570000 20.470000
8716   1  2 0.0000  2.670000 11.570000 27.590000
8717   1  2 0.0000  2.670000 11.570000 34.710000
8718   1  2 0.0000  2.670000 11.570000 41.830000
8719   1  2 0.0000  2.670000 11.570000 48.950000
8720   1  2 0.0000  2.670000 11.570000 56.070000
8721   1  2 0.0000  2.670000 18.690000  6.230000
8722   1  2 0.0000  2.670000 18.690000 13.350000
8723   1  2 0.0000  2.670000 18.690000 20.470000
8724   1  2 0.0000  2.670000 18.690000 27.590000
8725   1  2 0.0000  2.670000 18.690000 34.710000
8726   1  2 0.0000  2.670000 18.690000 41.830000
8727   1  2 0.0000  2.670000 18.690000 48.950000
8728   1  2 0.0000  2.670000 18.690000 56.070000
8729   1  2 0.0000  2.670000 25.810000  6.230000
8730   1  2 0.0000  2.670000 25.810000 13.350000
8731   1  2 0.0000  2.670000 25.810000 20.470000
8732   1  2 0.0000  2.670000 25.810000 27.590000
8733   1  2 0.0000  2.670000 25.810000 34.710000
8734   1  2 0.0000  2.670000 25.810000 41.830000
8735   1  2 0.0000  2.670000 25.810000 48.950000
8736   1  2 0.0000  2.670000 25.810000 56.070000
8737   1  2 0.0000  2.670000 32.930000  6.230000
8738   1  2 0.0000  2.670000 32.930000 13.350000
8739   1  2 0.0000  2.670000 32.930000 20.470000
8740   1  2 0.0000  2.670000 32.930000 27.590000
8741   1  2 0.0000  2.670000 32.930000 34.710000
8742   1  2 0.0000  2.670000 32.930000 41.830000
8743   1  2 0.0000  2.670000 32.930000 48.950000
8744   1  2 0.0000  2.670000 32.930000 56.070000
8745   1  2 0.0000  2.670000 40.050000  6.230000
8746   1  2 0.0000  2.670000 40.050000 13.350000
8747   1  2 0.0000  2.670000 40.050000 20.470000
8748   1  2 0.0000  2.670000 40.050000 27.590000
8749   1  2 0.0000  2.670000 40.050000 34.710000
8750   1  2 0.0000  2.670000 40.050000 41.830000
8751   1  2 0.0000  2.670000 40.050000 48.950000
8752   1  2 0.0000  2.670000 40.050000 56.070000
8753   1  2 0.0000  2.670000 47.170000  6.230000
8754   1  2 0.0000  2.670000 47.170000 13.350000
8755   1  2 0.0000  2.670000 47.170000 20.470000
8756   1  2 0.0000  2.670000 47.170000 27.590000
8757   1  2 0.0000  2.670000 47.170000 34.710000
8758   1  2 0.0000  2.670000 47.170000 41.830000
8759   1  2 0.0000  2.670000 47.170000 48.950000
8760   1  2 0.0000  2.670000 47.170000 56.070000
8761   1  2 0.0000  2.670000 54.290000  6.230000
8762   1  2 0.0000  2.670000 54.290000 13.350000
8763   1  2 0.0000  2.670000 54.290000 20.470000
8764   1  2 0.0000  2.670000 54.290000 27.590000
8765   1  2 0.0000  2.670000 54.290000 34.710000
8766   1  2 0.0000  2.670000 54.290000 41.830000
8767   1  2 0.0000  2.670000 54.290000 48.950000
8768   1  2 0.0000  2.670000 54.290000 56.070000
8769   1  2 0.0000  9.790000  4.450000  6.230000
8770   1  2 0.0000  9.790000  4.450000 13.350000
8771   1  2 0.0000  9.790000  4.450000 20.470000
8772   1  2 0.0000  9.790000  4.450000 27.590000
8773   1  2 0.0000  9.790000  4.450000 34.710000
8774   1  2 0.0000  9.790000  4.450000 41.830000
8775   1  2 0.0000  9.790000  4.450000 48.950000
8776   1  2 0.0000  9.790000  4.450000 56.070000
8777   1  2 0.0000  9.790000 11.570000  6.230000
8778   1  2 0.0000  9.790000 11.570000 13.350000
8779   1  2 0.0000  9.790000 11.570000 20.470000
8780   1  2 0.0000  9.790000 11.570000 27.590000
8781   1  2 0.0000  9.790000 11.570000 34.710000
8782   1  2 0.0000  9.790000 11.570000 41.830000
8783   1  2 0.0000  9.790000 11.570000 48.950000
8784   1  2 0.0000  9.790000 11.570000 56.070000
8785   1  2 0.0000  9.790000 18.690000  6.230000
8786   1  2 0.0000  9.790000 18.690000 13.350000
8787   1  2 0.0000  9.790000 18.690000 20.470000
8788   1  2 0.0000  9.790000 18.690000 27.590000
8789   1  2 0.0000  9.790000 18.690000 34.710000
8790   1  2 0.0000  9.790000 18.690000 41.830000
8791   1  2 0.0000  9.790000 18.690000 48.950000
8792   1  2 0.0000  9.790000 18.690000 56.070000
8793   1  2 0.0000  9.790000 25.810000  6.230000
8794   1  2 0.0000  9.790000 25.810000 13.350000
8795   1  2 0.0000  9.790000 25.810000 20.470000
8796   1  2 0.0000  9.790000 25.810000 27.590000
8797   1  2 0.0000  9.790000 25.810000 34.710000
8798   1  2 0.0000  9.790000 25.810000 41.830000
8799   1  2 0.0000  9.790000 25.810000 48.950000
8800   1  2 0.0000  9.790000 25.810000 56.070000
8801   1  2 0.0000  9.790000 32.930000  6.230000
8802   1  2 0.0000  9.790000 32.930000 13.350000
8803   1  2 0.0000  9.790000 32.930000 20.470000
8804   1  2 0.0000  9.790000 32.930000 27.590000
8805   1  2 0.0000  9.790000 32.930000 34.710000
8806   1  2 0.0000  9.790000 32.930000 41.830000
8807   1  2 0.0000  9.790000 32.930000 48.950000
8808   1  2 0.0000  9.790000 32.930000 56.070000
8809   1  2 0.0000  9.790000 40.050000  6.230000
8810   1  2 0.0000  9.790000 40.050000 13.350000
8811   1  2 0.0000  9.790000 40.050000 20.470000
8812   1  2 0.0000  9.790000 40.050000 27.590000
8813   1  2 0.0000  9.790000 40.050000 34.710000
8814   1  2 0.0000  9.790000 40.050000 41.830000
8815   1  2 0.0000  9.790000 40.050000 48.950000
8816   1  2 0.0000  9.790000 40.050000 56.070000
8817   1  2 0.0000  9.790000 47.170000  6.230000
8818   1  2 0.0000  9.790000 47.170000 13.350000
8819   1  2 0.0000  9.790000 47.170000 20.470000
8820   1  2 0.0000  9.790000 47.170000 27.590000
8821   1  2 0.0000  9.790000 47.170000 34.710000
8822   1  2 0.0000  9.790000 47.170000 41.830000
8823   1  2 0.0000  9.790000 47.170000 48.950000
8824   1  2 0.0000  9.790000 47.170000 56.070000
8825   1  2 0.0000  9.790000 54.290000  6.230000
8826   1  2 0.0000  9.790000 54.290000 13.350000
8827   1  2 0.0000  9.790000 54.290000 20.470000
8828   1  2 0.0000  9.790000 54.290000 27.590000
8829   1  2 0.0000  9.790000 54.290000 34.710000
8830   1  2 0.0000  9.790000 54.290000 41.830000
8831   1  2 0.0000  9.790000 54.290000 48.950000
8832   1  2 0.0000  9.790000 54.290000 56.070000
8833   1  2 0.0000 16.910000  4.450000  6.230000
8834   1  2 0.0000 16.910000  4.450000 13.350000
8835   1  2 0.0000 16.910000  4.450000 20.470000
8836   1  2 0.0000 16.910000  4.450000 27.590000
8837   1  2 0.0000 16.910000  4.450000 34.710000
8838   1  2 0.0000 16.910000  4.450000 41.830000
8839   1  2 0.0000 16.910000  4.450000 48.950000
8840   1  2 0.0000 16.910000  4.450000 56.070000
8841   1  2 0.0000 16.910000 11.570000  6.230000
8842   1  2 0.0000 16.910000 11.570000 13.350000
8843   1  2 0.0000 16.910000 11.570000 20.470000
8844   1  2 0.0000 16.910000 11.570000 27.590000
8845   1  2 0.0000 16.910000 11.570000 34.710000
8846   1  2 0.0000 16.910000 11.570000 41.830000
8847   1  2 0.0000 16.910000 11.570000 48.950000
8848   1  2 0.0000 16.910000 11.570000 56.070000
8849   1  2 0.0000 16.910000 18.690000  6.230000
8850   1  2 0.0000 16.910000 18.690000 13.350000
8851   1  2 0.0000 16.910000 18.690000 20.470000
8852   1  2 0.0000 16.910000 18.690000 27.590000
8853   1  2 0.0000 16.910000 18.690000 34.710000
8854   1  2 0.0000 16.910000 18.690000 41.830000
8855   1  2 0.0000 16.910000 18.690000 48.950000
8856   1  2 0.0000 16.910000 18.690000 56.070000
8857   1  2 0.0000 16.910000 25.810000  6.230000
8858   1  2 0.0000 16.910000 25.810000 13.350000
8859   1  2 0.0000 16.910000 25.810000 20.470000
8860   1  2 0.0000 16.910000 25.810000 27.590000
8861   1  2 0.0000 16.910000 25.810000 34.710000
8862   1  2 0.0000 16.910000 25.810000 41.830000
8863   1  2 0.0000 16.910000 25.810000 48.950000
8864   1  2 0.0000 16.910000 25.810000 56.070000
8865   1  2 0.0000 16.910000 32.930000  6.230000
8866   1  2 0.0000 16.910000 32.930000 13.350000
8867   1  2 0.0000 16.910000 32.930000 20.470000
8868   1  2 0.0000 16.910000 32.930000 27.590000
8869   1  2 0.0000 16.910000 32.930000 34.710000
8870   1  2 0.0000 16.910000 32.930000 41.830000
8871   1  2 0.0000 16.910000 32.930000 48.950000
8872   1  2 0.0000 16.910000 32.930000 56.070000
8873   1  2 0.0000 16.910000 40.050000  6.230000
8874   1  2 0.0000 16.910000 40.050000 13.350000
8875   1  2 0.0000 16.910000 40.050000 20.470000
8876   1  2 0.0000 16.910000 40.050000 27.590000
8877   1  2 0.0000 16.910000 40.050000 34.710000
8878   1  2 0.0000 16.910000 40.050000 41.830000
8879   1  2 0.0000 16.910000 40.050000 48.950000
8880   1  2 0.0000 16.910000 40.050000 56.070000
8881   1  2 0.0000 16.910000 47.170000  6.230000
8882   1  2 0.0000 16.910000 47.170000 13.350000
8883   1  2 0.0000 16.910000 47.170000 20.470000
8884   1  2 0.0000 16.910000 47.170000 27.590000
8885   1  2 0.0000 16.910000 47.170000 34.710000
8886   1  2 0.0000 16.910000 47.170000 41.830000
8887   1  2 0.0000 16.910000 47.170000 48.950000
8888   1  2 0.0000 16.910000 47.170000 56.070000
8889   1  2 0.0000 16.910000 54.290000  6.230000
8890   1  2 0.0000 16.910000 54.290000 13.350000
8891   1  2 0.0000 16.910000 54.290000 20.470000
8892   1  2 0.0000 16.910000 54.290000 27.590000
8893   1  2 0.0000 16.910000 54.290000 34.710000
8894   1  2 0.0000 16.910000 54.290000 41.830000
8895   1  2 0.0000 16.910000 54.290000 48.950000
8896   1  2 0.0000 16.910000 54.290000 56.070000
8897   1  2 0.0000 24.030000  4.450000  6.230000
8898   1  2 0.0000 24.030000  4.450000 13.350000
8899   1  2 0.0000 24.030000  4.450000 20.470000
8900   1  2 0.0000 24.030000  4.450000 27.590000
8901   1  2 0.0000 24.030000  4.450000 34.710000
8902   1  2 0.0000 24.030000  4.450000 41.830000
8903   1  2 0.0000 24.030000  4.450000 48.950000
8904   1  2 0.0000 24.030000  4.450000 56.070000
8905   1  2 0.0000 24.030000 11.570000  6.230000
8906   1  2 0.0000 24.030000 11.570000 13.350000
8907   1  2 0.0000 24.030000 11.570000 20.470000
8908   1  2 0.0000 24.030000 11.570000 27.590000
8909   1  2 0.0000 24.030000 11.570000 34.710000
8910   1  2 0.0000 24.030000 11.570000 41.830000
8911   1  2 0.0000 24.030000 11.570000 48.950000
8912   1  2 0.0000 24.030000 11.570000 56.070000
8913   1  2 0.0000 24.030000 18.690000  6.230000
8914   1  2 0.0000 24.030000 18.690000 13.350000
8915   1  2 0.0000 24.030000 18.690000 20.470000
8916   1  2 0.0000 24.030000 18.690000 27.590000
8917   1  2 0.0000 24.030000 18.690000 34.710000
8918   1  2 0.0000 24.030000 18.690000 41.830000
8919   1  2 0.0000 24.030000 18.690000 48.950000
8920   1  2 0.0000 24.030000 18.690000 56.070000
8921   1  2 0.0000 24.030000 25.810000  6.230000
8922   1  2 0.0000 24.030000 25.810000 13.350000
8923   1  2 0.0000 24.030000 25.810000 20.470000
8924   1  2 0.0000 24.030000 25.810000 27.590000
8925   1  2 0.0000 24.030000 25.810000 34.710000
8926   1  2 0.0000 24.030000 25.810000 41.830000
8927   1  2 0.0000 24.030000 25.810000 48.950000
8928   1  2 0.0000 24.030000 25.810000 56.070000
8929   1  2 0.0000 24.030000 32.930000  6.230000
8930   1  2 0.0000 24.030000 32.930000 13.350000
8931   1  2 0.0000 24.030000 32.930000 20.470000
8932   1  2 0.0000 24.030000 32.930000 27.590000
8933   1  2 0.0000 24.030000 32.930000 34.710000
8934   1  2 0.0000 24.030000 32.930000 41.830000
8935   1  2 0.0000 24.030000 32.930000 48.950000
8936   1  2 0.0000 24.030000 32.930000 56.070000
8937   1  2 0.0000 24.030000 40.050000  6.230000
8938   1  2 0.0000 24.030000 40.050000 13.350000
8939   1  2 0.0000 24.030000 40.050000 20.470000
8940   1  2 0.0000 24.030000 40.050000 27.590000
8941   1  2 0.0000 24.030000 40.050000 34.710000
8942   1  2 0.0000 24.030000 40.050000 41.830000
8943   1  2 0.0000 24.030000 40.050000 48.950000
8944   1  2 0.0000 24.030000 40.050000 56.070000
8945   1  2 0.0000 24.030000 47.170000  6.230000
8946   1  2 0.0000 24.030000 47.170000 13.350000
8947   1  2 0.0000 24.030000 47.170000 20.470000
8948   1  2 0.0000 24.030000 47.170000 27.590000
8949   1  2 0.0000 24.030000 47.170000 34.710000
8950   1  2 0.0000 24.030000 47.170000 41.830000
8951   1  2 0.0000 24.030000 47.170000 48.950000
8952   1  2 0.0000 24.030000 47.170000 56.070000
8953   1  2 0.0000 24.030000 54.290000  6.230000
8954   1  2 0.0000 24.030000 54.290000 13.350000
8955   1  2 0.0000 24.030000 54.290000 20.470000
8956   1  2 0.0000 24.030000 54.290000 27.590000
8957   1  2 0.0000 24.030000 54.290000 34.710000
8958   1  2 0.0000 24.030000 54.290000 41.830000
8959   1  2 0.0000 24.030000 54.290000 48.950000
8960   1  2 0.0000 24.030000 54.290000 56.070000
8961   1  2 0.0000 31.150000  4.450000  6.230000
8962   1  2 0.0000 31.150000  4.450000 13.350000
8963   1  2 0.0000 31.150000  4.450000 20.470000
8964   1  2 0.0000 31.150000  4.450000 27.590000
8965   1  2 0.0000 31.150000  4.450000 34.710000
8966   1  2 0.0000 31.150000  4.450000 41.830000
8967   1  2 0.0000 31.150000  4.450000 48.950000
8968   1  2 0.0000 31.150000  4.450000 56.070000
8969   1  2 0.0000 31.150000 11.570000  6.230000
8970   1  2 0.0000 31.150000 11.570000 13.350000
8971   1  2 0.0000 31.150000 11.570000 20.470000
8972   1  2 0.0000 31.150000 11.570000 27.590000
8973   1  2 0.0000 31.150000 11.570000 34.710000
8974   1  2 0.0000 31.150000 11.570000 41.830000
8975   1  2 0.0000 31.150000 11.570000 48.950000
8976   1  2 0.0000 31.150000 11.570000 56.070000
8977   1  2 0.0000 31.150000 18.690000  6.230000
8978   1  2 0.0000 31.150000 18.690000 13.350000
8979   1  2 0.0000 31.150000 18.690000 20.470000
8980   1  2 0.0000 31.150000 18.690000 27.590000
8981   1  2 0.0000 31.150000 18.690000 34.710000
8982   1  2 0.0000 31.150000 18.690000 41.830000
8983   1  2 0.0000 31.150000 18.690000 48.950000
8984   1  2 0.0000 31.150000 18.690000 56.070000
8985   1  2 0.0000 31.150000 25.810000  6.230000
8986   1  2 0.0000 31.150000 25.810000 13.350000
8987   1  2 0.0000 31.150000 25.810000 20.470000
8988   1  2 0.0000 31.150000 25.810000 27.590000
8989   1  2 0.0000 31.150000 25.810000 34.710000
8990   1  2 0.0000 31.150000 25.810000 41.830000
8991   1  2 0.0000 31.150000 25.810000 48.950000
8992   1  2 0.0000 31.150000 25.810000 56.070000
8993   1  2 0.0000 31.150000 32.930000  6.230000
8994   1  2 0.0000 31.150000 32.930000 13.350000
8995   1  2 0.0000 31.150000 32.930000 20.470000
8996   1  2 0.0000 31.150000 32.930000 27.590000
8997   1  2 0.0000 31.150000 32.930000 34.710000
8998   1  2 0.0000 31.150000 32.930000 41.830000
8999   1  2 0.0000 31.150000 32.930000 48.950000
9000   1  2 0.0000 31.150000 32.930000 56.070000
9001   1  2 0.0000 31.150000 40.050000  6.230000
9002   1  2 0.0000 31.150000 40.050000 13.350000
9003   1  2 0.0000 31.150000 40.050000 20.470000
9004   1  2 0.0000 31.150000 40.050000 27.590000
9005   1  2 0.0000 31.150000 40.050000 34.710000
9006   1  2 0.0000 31.150000 40.050000 41.830000
9007   1  2 0.0000 31.150000 40.050000 48.950000
9008   1  2 0.0000 31.150000 40.050000 56.070000
9009   1  2 0.0000 31.150000 47.170000  6.230000
9010   1  2 0.0000 31.150000 47.170000 13.350000
9011   1  2 0.0000 31.150000 47.170000 20.470000
9012   1  2 0.0000 31.150000 47.170000 27.590000
9013   1  2 0.0000 31.150000 47.170000 34.710000
9014   1  2 0.0000 31.150000 47.170000 41.830000
9015   1  2 0.0000 31.150000 47.170000 48.950000
9016   1  2 0.0000 31.150000 47.170000 56.070000
9017   1  2 0.0000 31.150000 54.290000  6.230000
9018   1  2 0.0000 31.150000 54.290000 13.350000
9019   1  2 0.0000 31.150000 54.290000 20.470000
9020   1  2 0.0000 31.150000 54.290000 27.590000
9021   1  2 0.0000 31.150000 54.290000 34.710000
9022   1  2 0.0000 31.150000 54.290000 41.830000
9023   1  2 0.0000 31.150000 54.290000 48.950000
9024   1  2 0.0000 31.150000 54.290000 56.070000
9025   1  2 0.0000 38.270000  4.450000  6.230000
9026   1  2 0.0000 38.270000  4.450000 13.350000
9027   1  2 0.0000 38.270000  4.450000 20.470000
9028   1  2 0.0000 38.270000  4.450000 27.590000
9029   1  2 0.0000 38.270000  4.450000 34.710000
9030   1  2 0.0000 38.270000  4.450000 41.830000
9031   1  2 0.0000 38.270000  4.450000 48.950000
9032   1  2 0.0000 38.270000  4.450000 56.070000
9033   1  2 0.0000 38.270000 11.570000  6.230000
9034   1  2 0.0000 38.270000 11.570000 13.350000
9035   1  2 0.0000 38.270000 11.570000 20.470000
9036   1  2 0.0000 38.270000 11.570000 27.590000
9037   1  2 0.0000 38.270000 11.570000 34.710000
9038   1  2 0.0000 38.270000 11.570000 41.830000
9039   1  2 0.0000 38.270000 11.570000 48.950000
9040   1  2 0.0000 38.270000 11.570000 56.070000
9041   1  2 0.0000 38.270000 18.690000  6.230000
9042   1  2 0.0000 38.270000 18.690000 13.350000
9043   1  2 0.0000 38.270000 18.690000 20.470000
9044   1  2 0.0000 38.270000 18.690000 27.590000
9045   1  2 0.0000 38.270000 18.690000 34.710000
9046   1  2 0.0000 38.270000 18.690000 41.830000
9047   1  2 0.0000 38.270000 18.690000 48.950000
9048   1  2 0.0000 38.270000 18.690000 56.070000
9049   1  2 0.0000 38.270000 25.810000  6.230000
9050   1  2 0.0000 38.270000 25.810000 13.350000
9051   1  2 0.0000 38.270000 25.810000 20.470000
9052   1  2 0.0000 38.270000 25.810000 27.590000
9053   1  2 0.0000 38.270000 25.810000 34.710000
9054   1  2 0.0000 38.270000 25.810000 41.830000
9055   1  2 0.0000 38.270000 25.810000 48.950000
9056   1  2 0.0000 38.270000 25.810000 56.070000
9057   1  2 0.0000 38.270000 32.930000  6.230000
9058   1  2 0.0000 38.270000 32.930000 13.350000
9059   1  2 0.0000 38.270000 32.930000 20.470000
9060   1  2 0.0000 38.270000 32.930000 27.590000
9061   1  2 0.0000 38.270000 32.930000 34.710000
9062   1  2 0.0000 38.270000 32.930000 41.830000
9063   1  2 0.0000 38.270000 32.930000 48.950000
9064   1  2 0.0000 38.270000 32.930000 56.070000
9065   1  2 0.0000 38.270000 40.050000  6.230000
9066   1  2 0.0000 38.270000 40.050000 13.350000
9067   1  2 0.0000 38.270000 40.050000 20.470000
9068   1  2 0.0000 38.270000 40.050000 27.590000
9069   1  2 0.0000 38.270000 40.050000 34.710000
9070   1  2 0.0000 38.270000 40.050000 41.830000
9071   1  2 0.0000 38.270000 40.050000 48.950000
9072   1  2 0.0000 38.270000 40.050000 56.070000
9073   1  2 0.0000 38.270000 47.170000  6.230000
9074   1  2 0.0000 38.270000 47.170000 13.350000
9075   1  2 0.0000 38.270000 47.170000 20.470000
9076   1  2 0.0000 38.270000 47.170000 27.590000
9077   1  2 0.0000 38.270000 47.170000 34.710000
9078   1  2 0.0000 38.270000 47.170000 41.830000
9079   1  2 0.0000 38.270000 47.170000 48.950000
9080   1  2 0.0000 38.270000 47.170000 56.070000
9081   1  2 0.0000 38.270000 54.290000  6.230000
9082   1  2 0.0000 38.270000 54.290000 13.350000
9083   1  2 0.0000 38.270000 54.290000 20.470000
9084   1  2 0.0000 38.270000 54.290000 27.590000
9085   1  2 0.0000 38.270000 54.290000 34.710000
9086   1  2 0.0000 38.270000 54.290000 41.830000
9087   1  2 0.0000 38.270000 54.290000 48.950000
9088   1  2 0.0000 38.270000 54.290000 56.070000
9089   1  2 0.0000 45.390000  4.450000  6.230000
9090   1  2 0.0000 45.390000  4.450000 13.350000
9091   1  2 0.0000 45.390000  4.450000 20.470000
9092   1  2 0.0000 45.390000  4.450000 27.590000
9093   1  2 0.0000 45.390000  4.450000 34.710000
9094   1  2 0.0000 45.390000  4.450000 41.830000
9095   1  2 0.0000 45.390000  4.450000 48.950000
9096   1  2 0.0000 45.390000  4.450000 56.070000
9097   1  2 0.0000 45.390000 11.570000  6.230000
9098   1  2 0.0000 45.390000 11.570000 13.350000
9099   1  2 0.0000 45.390000 11.570000 20.470000
9100   1  2 0.0000 45.390000 11.570000 27.590000
9101   1  2 0.0000 45.390000 11.570000 34.710000
9102   1  2 0.0000 45.390000 11.570000 41.830000
9103   1  2 0.0000 45.390000 11.570000 48.950000
9104   1  2 0.0000 45.390000 11.570000 56.070000
9105   1  2 0.0000 45.390000 18.690000  6.230000
9106   1  2 0.0000 45.390000 18.690000 13.350000
9107   1  2 0.0000 45.390000 18.690000 20.470000
9108   1  2 0.0000 45.390000 18.690000 27.590000
9109   1  2 0.0000 45.390000 18.690000 34.710000
9110   1  2 0.0000 45.390000 18.690000 41.830000
9111   1  2 0.0000 45.390000 18.690000 48.950000
9112   1  2 0.0000 45.390000 18.690000 56.070000
9113   1  2 0.0000 45.390000 25.810000  6.230000
9114   1  2 0.0000 45.390000 25.810000 13.350000
9115   1  2 0.0000 45.390000 25.810000 20.470000
9116   1  2 0.0000 45.390000 25.810000 27.590000
9117   1  2 0.0000 45.390000 25.810000 34.710000
9118   1  2 0.0000 45.390000 25.810000 41.830000
9119   1  2 0.0000 45.390000 25.810000 48.950000
9120   1  2 0.0000 45.390000 25.810000 56.070000
9121   1  2 0.0000 45.390000 32.930000  6.230000
9122   1  2 0.0000 45.390000 32.930000 13.350000
9123   1  2 0.0000 45.390000 32.930000 20.470000
9124   1  2 0.0000 45.390000 32.930000 27.590000
9125   1  2 0.0000 45.390000 32.930000 34.710000
9126   1  2 0.0000 45.390000 32.930000 41.830000
9127   1  2 0.0000 45.390000 32.930000 48.950000
9128   1  2 0.0000 45.390000 32.930000 56.070000
9129   1  2 0.0000 45.390000 40.050000  6.230000
9130   1  2 0.0000 45.390000 40.050000 13.350000
9131   1  2 0.0000 45.390000 40.050000 20.470000
9132   1  2 0.0000 45.390000 40.050000 27.590000
9133   1  2 0.0000 45.390000 40.050000 34.710000
9134   1  2 0.0000 45.390000 40.050000 41.830000
9135   1  2 0.0000 45.390000 40.050000 48.950000
9136   1  2 0.0000 45.390000 40.050000 56.070000
9137   1  2 0.0000 45.390000 47.170000  6.230000
9138   1  2 0.0000 45.390000 47.170000 13.350000
9139   1  2 0.0000 45.390000 47.170000 20.470000
9140   1  2 0.0000 45.390000 47.170000 27.590000
9141   1  2 0.0000 45.390000 47.170000 34.710000
9142   1  2 0.0000 45.390000 47.170000 41.830000
9143   1  2 0.0000 45.390000 47.170000 48.950000
9144   1  2 0.0000 45.390000 47.170000 56.070000
9145   1  2 0.0000 45.390000 54.290000  6.230000
9146   1  2 0.0000 45.390000 54.290000 13.350000
9147   1  2 0.0000 45.390000 54.290000 20.470000
9148   1  2 0.0000 45.390000 54.290000 27.590000
9149   1  2 0.0000 45.390000 54.290000 34.710000
9150   1  2 0.0000 45.390000 54.290000 41.830000
9151   1  2 0.0000 45.390000 54.290000 48.950000
9152   1  2 0.0000 45.390000 54.290000 56.070000
9153   1  2 0.0000 52.510000  4.450000  6.230000
9154   1  2 0.0000 52.510000  4.450000 13.350000
9155   1  2 0.0000 52.510000  4.450000 20.470000
9156   1  2 0.0000 52.510000  4.450000 27.590000
9157   1  2 0.0000 52.510000  4.450000 34.710000
9158   1  2 0.0000 52.510000  4.450000 41.830000
9159   1  2 0.0000 52.510000  4.450000 48.950000
9160   1  2 0.0000 52.510000  4.450000 56.070000
9161   1  2 0.0000 52.510000 11.570000  6.230000
9162   1  2 0.0000 52.510000 11.570000 13.350000
9163   1  2 0.0000 52.510000 11.570000 20.470000
9164   1  2 0.0000 52.510000 11.570000 27.590000
9165   1  2 0.0000 52.510000 11.570000 34.710000
9166   1  2 0.0000 52.510000 11.570000 41.830000
9167   1  2 0.0000 52.510000 11.570000 48.950000
9168   1  2 0.0000 52.510000 11.570000 56.070000
9169   1  2 0.0000 52.510000 18.690000  6.230000
9170   1  2 0.0000 52.510000 18.690000 13.350000
9171   1  2 0.0000 52.510000 18.690000 20.470000
9172   1  2 0.0000 52.510000 18.690000 27.590000
9173   1  2 0.0000 52.510000 18.690000 34.710000
9174   1  2 0.0000 52.510000 18.690000 41.830000
9175   1  2 0.0000 52.510000 18.690000 48.950000
9176   1  2 0.0000 52.510000 18.690000 56.070000
9177   1  2 0.0000 52.510000 25.810000  6.230000
9178   1  2 0.0000 52.510000 25.810000 13.350000
9179   1  2 0.0000 52.510000 25.810000 20.470000
9180   1  2 0.0000 52.510000 25.810000 27.590000
9181   1  2 0.0000 52.510000 25.810000 34.710000
9182   1  2 0.0000 52.510000 25.810000 41.830000
9183   1  2 0.0000 52.510000 25.810000 48.950000
9184   1  2 0.0000 52.510000 25.810000 56.070000
9185   1  2 0.0000 52.510000 32.930000  6.230000
9186   1  2 0.0000 52.510000 32.930000 13.350000
9187   1  2 0.0000 52.510000 32.930000 20.470000
9188   1  2 0.0000 52.510000 32.930000 27.590000
9189   1  2 0.0000 52.510000 32.930000 34.710000
9190   1  2 0.0000 52.510000 32.930000 41.830000
9191   1  2 0.0000 52.510000 32.930000 48.950000
9192   1  2 0.0000 52.510000 32.930000 56.070000
9193   1  2 0.0000 52.510000 40.050000  6.230000
9194   1  2 0.0000 52.510000 40.050000 13.350000
9195   1  2 0.0000 52.510000 40.050000 20.470000
9196   1  2 0.0000 52.510000 40.050000 27.590000
9197   1  2 0.0000 52.510000 40.050000 34.710000
9198   1  2 0.0000 52.510000 40.050000 41.830000
9199   1  2 0.0000 52.510000 40.050000 48.950000
9200   1  2 0.0000 52.510000 40.050000 56.070000
9201   1  2 0.0000 52.510000 47.170000  6.230000
9202   1  2 0.0000 52.510000 47.170000 13.350000
9203   1  2 0.0000 52.510000 47.170000 20.470000
9204   1  2 0.0000 52.510000 47.170000 27.590000
9205   1  2 0.0000 52.510000 47.170000 34.710000
9206   1  2 0.0000 52.510000 47.170000 41.830000
9207   1  2 0.0000 52.510000 47.170000 48.950000
9208   1  2 0.0000 52.510000 47.170000 56.070000
9209   1  2 0.0000 52.510000 54.290000  6.230000
9210   1  2 0.0000 52.510000 54.290000 13.350000
9211   1  2 0.0000 52.510000 54.290000 20.470000
9212   1  2 0.0000 52.510000 54.290000 27.590000
9213   1  2 0.0000 52.510000 54.290000 34.710000
9214   1  2 0.0000 52.510000 54.290000 41.830000
9215   1  2 0.0000 52.510000 54.290000 48.950000
9216   1  2 0.0000 52.510000 54.290000 56.070000
9217   1  2 0.0000  0.890000  2.670000  2.670000
9218   1  2 0.0000  0.890000  2.670000  9.790000
9219   1  2 0.0000  0.890000  2.670000 16.910000
9220   1  2 0.0000  0.890000  2.670000 24.030000
9221   1  2 0.0000  0.890000  2.670000 31.150000
9222   1  2 0.0000  0.890000  2.670000 38.270000
9223   1  2 0.0000  0.890000  2.670000 45.390000
9224   1  2 0.0000  0.890000  2.670000 52.510000
9225   1  2 0.0000  0.890000  9.790000  2.670000
9226   1  2 0.0000  0.890000  9.790000  9.790000
9227   1  2 0.0000  0.890000  9.790000 16.910000
9228   1  2 0.0000  0.890000  9.790000 24.030000
9229   1  2 0.0000  0.890000  9.790000 31.150000
9230   1  2 0.0000  0.890000  9.790000 38.270000
9231   1  2 0.0000  0.890000  9.790000 45.390000
9232   1  2 0.0000  0.890000  9.790000 52.510000
9233   1  2 0.0000  0.890000 16.910000  2.670000
9234   1  2 0.0000  0.890000 16.910000  9.790000
9235   1  2 0.0000  0.890000 16.910000 16.910000
9236   1  2 0.0000  0.890000 16.910000 24.030000
9237   1  2 0.0000  0.890000 16.910000 31.150000
9238   1  2 0.0000  0.890000 16.910000 38.270000
9239   1  2 0.0000  0.890000 16.910000 45.390000
9240   1  2 0.0000  0.890000 16.910000 52.510000
9241   1  2 0.0000  0.890000 24.030000  2.670000
9242   1  2 0.0000  0.890000 24.030000  9.790000
9243   1  2 0.0000  0.890000 24.030000 16.910000
9244   1  2 0.0000  0.890000 24.030000 24.030000
9245   1  2 0.0000  0.890000 24.030000 31.150000
9246   1  2 0.0000  0.890000 24.030000 38.270000
9247   1  2 0.0000  0.890000 24.030000 45.390000
9248   1  2 0.0000  0.890000 24.030000 52.510000
9249   1  2 0.0000  0.890000 31.150000  2.670000
9250   1  2 0.0000  0.890000 31.150000  9.790000
9251   1  2 0.0000  0.890000 31.150000 16.910000
9252   1  2 0.0000  0.890000 31.150000 24.030000
9253   1  2 0.0000  0.890000 31.150000 31.150000
9254   1  2 0.0000  0.890000 31.150000 38.270000
9255   1  2 0.0000  0.890000 31.150000 45.390000
9256   1  2 0.0000  0.890000 31.150000 52.510000
9257   1  2 0.0000  0.890000 38.270000  2.670000
9258   1  2 0.0000  0.890000 38.270000  9.790000
9259   1  2 0.0000  0.890000 38.270000 16.910000
9260   1  2 0.0000  0.890000 38.270000 24.030000
9261   1  2 0.0000  0.890000 38.270000 31.150000
9262   1  2 0.0000  0.890000 38.270000 38.270000
9263   1  2 0.0000  0.890000 38.270000 45.390000
9264   1  2 0.0000  0.890000 38.270000 52.510000
9265   1  2 0.0000  0.890000 45.390000  2.670000
9266   1  2 0.0000  0.890000 45.390000  9.790000
9267   1  2 0.0000  0.890000 45.390000 16.910000
9268   1  2 0.0000  0.890000 45.390000 24.030000
9269   1  2 0.0000  0.890000 45.390000 31.150000
9270   1  2 0.0000  0.890000 45.390000 38.270000
9271   1  2 0.0000  0.890000 45.390000 45.390000
9272   1  2 0.0000  0.890000 45.390000 52.510000
9273   1  2 0.0000  0.890000 52.510000  2.670000
9274   1  2 0.0000  0.890000 52.510000  9.790000
9275   1  2 0.0000  0.890000 52.510000 16.910000
9276   1  2 0.0000  0.890000 52.510000 24.030000
9277   1  2 0.0000  0.890000 52.510000 31.150000
9278   1  2 0.0000  0.890000 52.510000 38.270000
9279   1  2 0.0000  0.890000 52.510000 45.390000
9280   1  2 0.0000  0.890000 52.510000 52.510000
9281   1  2 0.0000  8.010000  2.670000  2.670000
9282   1  2 0.0000  8.010000  2.670000  9.790000
9283   1  2 0.0000  8.010000  2.670000 16.910000
9284   1  2 0.0000  8.010000  2.670000 24.030000
9285   1  2 0.0000  8.010000  2.670000 31.150000
9286   1  2 0.0000  8.010000  2.670000 38.270000
9287   1  2 0.0000  8.010000  2.670000 45.390000
9288   1  2 0.0000  8.010000  2.670000 52.510000
9289   1  2 0.0000  8.010000  9.790000  2.670000
9290   1  2 0.0000  8.010000  9.790000  9.790000
9291   1  2 0.0000  8.010000  9.790000 16.910000
9292   1  2 0.0000  8.010000  9.790000 24.030000
9293   1  2 0.0000  8.010000  9.790000 31.150000
9294   1  2 0.0000  8.010000  9.790000 38.270000
9295   1  2 0.0000  8.010000  9.790000 45.390000
9296   1  2 0.0000  8.010000  9.790000 52.510000
9297   1  2 0.0000  8.010000 16.910000  2.670000
9298   1  2 0.0000  8.010000 16.910000  9.790000
9299   1  2 0.0000  8.010000 16.910000 16.910000
9300   1  2 0.0000  8.010000 16.910000 24.030000
9301   1  2 0.0000  8.010000 16.910000 31.150000
9302   1  2 0.0000  8.010000 16.910000 38.270000
9303   1  2 0.0000  8.010000 16.910000 45.390000
9304   1  2 0.0000  8.010000 16.910000 52.510000
9305   1  2 0.0000  8.010000 24.030000  2.670000
9306   1  2 0.0000  8.010000 24.030000  9.790000
9307   1  2 0.0000  8.010000 24.030000 16.910000
9308   1  2 0.0000  8.010000 24.030000 24.030000
9309   1  2 0.0000  8.010000 24.030000 31.150000
9310   1  2 0.0000  8.010000 24.030000 38.270000
9311   1  2 0.0000  8.010000 24.030000 45.390000
9312   1  2 0.0000  8.010000 24.030000 52.510000
9313   1  2 0.0000  8.010000 31.150000  2.670000
9314   1  2 0.0000  8.010000 31.150000  9.790000
9315   1  2 0.0000  8.010000 31.150000 16.910000
9316   1  2 0.0000  8.010000 31.150000 24.030000
9317   1  2 0.0000  8.010000 31.150000 31.150000
9318   1  2 0.0000  8.010000 31.150000 38.270000
9319   1  2 0.0000  8.010000 31.150000 45.390000
9320   1  2 0.0000  8.010000 31.150000 52.510000
9321   1  2 0.0000  8.010000 38.270000  2.670000
9322   1  2 0.0000  8.010000 38.270000  9.790000
9323   1  2 0.0000  8.010000 38.270000 16.910000
9324   1  2 0.0000  8.010000 38.270000 24.030000
9325   1  2 0.0000  8.010000 38.270000 31.150000
9326   1  2 0.0000  8.010000 38.270000 38.270000
9327   1  2 0.0000  8.010000 38.270000 45.390000
9328   1  2 0.0000  8.010000 38.270000 52.510000
9329   1  2 0.0000  8.010000 45.390000  2.670000
9330   1  2 0.0000  8.010000 45.390000  9.790000
9331   1  2 0.0000  8.010000 45.390000 16.910000
9332   1  2 0.0000  8.010000 45.390000 24.030000
9333   1  2 0.0000  8.010000 45.390000 31.150000
9334   1  2 0.0000  8.010000 45.390000 38.270000
9335   1  2 0.0000  8.010000 45.390000 45.390000
9336   1  2 0.0000  8.010000 45.390000 52.510000
9337   1  2 0.0000  8.010000 52.510000  2.670000
9338   1  2 0.0000  8.010000 52.510000  9.790000
9339   1  2 0.0000  8.010000 52.510000 16.910000
9340   1  2 0.0000  8.010000 52.510000 24.030000
9341   1  2 0.0000  8.010000 52.510000 31.150000
9342   1  2 0.0000  8.010000 52.510000 38.270000
9343   1  2 0.0000  8.010000 52.510000 45.390000
9344   1  2 0.0000  8.010000 52.510000 52.510000
9345   1  2 0.0000 15.130000  2.670000  2.670000
9346   1  2 0.0000 15.130000  2.670000  9.790000
9347   1  2 0.0000 15.130000  2.670000 16.910000
9348   1  2 0.0000 15.130000  2.670000 24.030000
9349   1  2 0.0000 15.130000  2.670000 31.150000
9350   1  2 0.0000 15.130000  2.670000 38.270000
9351   1  2 0.0000 15.130000  2.670000 45.390000
9352   1  2 0.0000 15.130000  2.670000 52.510000
9353   1  2 0.0000 15.130000  9.790000  2.670000
9354   1  2 0.0000 15.130000  9.790000  9.790000
9355   1  2 0.0000 15.130000  9.790000 16.910000
9356   1  2 0.0000 15.130000  9.790000 24.030000
9357   1  2 0.0000 15.130000  9.790000 31.150000
9358   1  2 0.0000 15.130000  9.790000 38.270000
9359   1  2 0.0000 15.130000  9.790000 45.390000
9360   1  2 0.0000 15.130000  9.790000 52.510000
9361   1  2 0.0000 15.130000 16.910000  2.670000
9362   1  2 0.0000 15.130000 16.910000  9.790000
9363   1  2 0.0000 15.130000 16.910000 16.910000
9364   1  2 0.0000 15.130000 16.910000 24.030000
9365   1  2 0.0000 15.130000 16.910000 31.150000
9366   1  2 0.0000 15.130000 16.910000 38.270000
9367   1  2 0.0000 15.130000 16.910000 45.390000
9368   1  2 0.0000 15.130000 16.910000 52.510000
9369   1  2 0.0000 15.130000 24.030000  2.670000
9370   1  2 0.0000 15.130000 24.030000  9.790000
9371   1  2 0.0000 15.130000 24.030000 16.910000
9372   1  2 0.0000 15.130000 24.030000 24.030000
9373   1  2 0.0000 15.130000 24.030000 31.150000
9374   1  2 0.0000 15.130000 24.030000 38.270000
9375   1  2 0.0000 15.130000 24.030000 45.390000
9376   1  2 0.0000 15.130000 24.030000 52.510000
9377   1  2 0.0000 15.130000 31.150000  2.670000
9378   1  2 0.0000 15.130000 31.150000  9.790000
9379   1  2 0.0000 15.130000 31.150000 16.910000
9380   1  2 0.0000 15.130000 31.150000 24.030000
9381   1  2 0.0000 15.130000 31.150000 31.150000
9382   1  2 0.0000 15.130000 31.150000 38.270000
9383   1  2 0.0000 15.130000 31.150000 45.390000
9384   1  2 0.0000 15.130000 31.150000 52.510000
9385   1  2 0.0000 15.130000 38.270000  2.670000
9386   1  2 0.0000 15.130000 38.270000  9.790000
9387   1  2 0.0000 15.130000 38.270000 16.910000
9388   1  2 0.0000 15.130000 38.270000 24.030000
9389   1  2 0.0000 15.130000 38.270000 31.150000
9390   1  2 0.0000 15.130000 38.270000 38.270000
9391   1  2 0.0000 15.130000 38.270000 45.390000
9392   1  2 0.0000 15.130000 38.270000 52.510000
9393   1  2 0.0000 15.130000 45.390000  2.670000
9394   1  2 0.0000 15.130000 45.390000  9.790000
9395   1  2 0.0000 15.130000 45.390000 16.910000
9396   1  2 0.0000 15.130000 45.390000 24.030000
9397   1  2 0.0000 15.130000 45.390000 31.150000
9398   1  2 0.0000 15.130000 45.390000 38.270000
9399   1  2 0.0000 15.130000 45.390000 45.390000
9400   1  2 0.0000 15.130000 45.390000 52.510000
9401   1  2 0.0000 15.130000 52.510000  2.670000
9402   1  2 0.0000 15.130000 52.510000  9.790000
9403   1  2 0.0000 15.130000 52.510000 16.910000
9404   1  2 0.0000 15.130000 52.510000 24.030000
9405   1  2 0.0000 15.130000 52.510000 31.150000
9406   1  2 0.0000 15.130000 52.510000 38.270000
9407   1  2 0.0000 15.130000 52.510000 45.390000
9408   1  2 0.0000 15.130000 52.510000 52.510000
9409   1  2 0.0000 22.250000  2.670000  2.670000
9410   1  2 0.0000 22.250000  2.670000  9.790000
9411   1  2 0.0000 22.250000  2.670000 16.910000
9412   1  2 0.0000 22.250000  2.670000 24.030000
9413   1  2 0.0000 22.250000  2.670000 31.150000
9414   1  2 0.0000 22.250000  2.670000 38.270000
9415   1  2 0.0000 22.250000  2.670000 45.390000
9416   1  2 0.0000 22.250000  2.670000 52.510000
9417   1  2 0.0000 22.250000  9.790000  2.670000
9418   1  2 0.0000 22.250000  9.790000  9.790000
9419   1  2 0.0000 22.250000  9.790000 16.910000
9420   1  2 0.0000 22.250000  9.790000 24.030000
9421   1  2 0.0000 22.250000  9.790000 31.150000
9422   1  2 0.0000 22.250000  9.790000 38.270000
9423   1  2 0.0000 22.250000  9.790000 45.390000
9424   1  2 0.0000 22.250000  9.790000 52.510000
9425   1  2 0.0000 22.250000 16.910000  2.670000
9426   1  2 0.0000 22.250000 16.910000  9.790000
9427   1  2 0.0000 22.250000 16.910000 16.910000
9428   1  2 0.0000 22.250000 16.910000 24.030000
9429   1  2 0.0000 22.250000 16.910000 31.150000
9430   1  2 0.0000 22.250000 16.910000 38.270000
9431   1  2 0.0000 22.250000 16.910000 45.390000
9432   1  2 0.0000 22.250000 16.910000 52.510000
9433   1  2 0.0000 22.250000 24.030000  2.670000
9434   1  2 0.0000 22.250000 24.030000  9.790000
9435   1  2 0.0000 22.250000 24.030000 16.910000
9436   1  2 0.0000 22.250000 24.030000 24.030000
9437   1  2 0.0000 22.250000 24.030000 31.150000
9438   1  2 0.0000 22.250000 24.030000 38.270000
9439   1  2 0.0000 22.250000 24.030000 45.390000
9440   1  2 0.0000 22.250000 24.030000 52.510000
9441   1  2 0.0000 22.250000 31.150000  2.670000
9442   1  2 0.0000 22.250000 31.150000  9.790000
9443   1  2 0.0000 22.250000 31.150000 16.910000
9444   1  2 0.0000 22.250000 31.150000 24.030000
9445   1  2 0.0000 22.250000 31.150000 31.150000
9446   1  2 0.0000 22.250000 31.150000 38.270000
9447   1  2 0.0000 22.250000 31.150000 45.390000
9448   1  2 0.0000 22.250000 31.150000 52.510000
9449   1  2 0.0000 22.250000 38.270000  2.670000
9450   1  2 0.0000 22.250000 38.270000  9.790000
9451   1  2 0.0000 22.250000 38.270000 16.910000
9452   1  2 0.0000 22.250000 38.270000 24.030000
9453   1  2 0.0000 22.250000 38.270000 31.150000
9454   1  2 0.0000 22.250000 38.270000 38.270000
9455   1  2 0.0000 22.250000 38.270000 45.390000
9456   1  2 0.0000 22.250000 38.270000 52.510000
9457   1  2 0.0000 22.250000 45.390000  2.670000
9458   1  2 0.0000 22.250000 45.390000  9.790000
9459   1  2 0.0000 22.250000 45.390000 16.910000
9460   1  2 0.0000 22.250000 45.390000 24.030000
9461   1  2 0.0000 22.250000 45.390000 31.150000
9462   1  2 0.0000 22.250000 45.390000 38.270000
9463   1  2 0.0000 22.250000 45.390000 45.390000
9464   1  2 0.0000 22.250000 45.390000 52.510000
9465   1  2 0.0000 22.250000 52.510000  2.670000
9466   1  2 0.0000 22.250000 52.510000  9.790000
9467   1  2 0.0000 22.250000 52.510000 16.910000
9468   1  2 0.0000 22.250000 52.510000 24.030000
9469   1  2 0.0000 22.250000 52.510000 31.150000
9470   1  2 0.0000 22.250000 52.510000 38.270000
9471   1  2 0.0000 22.250000 52.510000 45.390000
9472   1  2 0.0000 22.250000 52.510000 52.510000
9473   1  2 0.0000 29.370000  2.670000  2.670000
9474   1  2 0.0000 29.370000  2.670000  9.790000
9475   1  2 0.0000 29.370000  2.670000 16.910000
9476   1  2 0.0000 29.370000  2.670000 24.030000
9477   1  2 0.0000 29.370000  2.670000 31.150000
9478   1  2 0.0000 29.370000  2.670000 38.270000
9479   1  2 0.0000 29.370000  2.670000 45.390000
9480   1  2 0.0000 29.370000  2.670000 52.510000
9481   1  2 0.0000 29.370000  9.790000  2.670000
9482   1  2 0.0000 29.370000  9.790000  9.790000
9483   1  2 0.0000 29.370000  9.790000 16.910000
9484   1  2 0.0000 29.370000  9.790000 24.030000
9485   1  2 0.0000 29.370000  9.790000 31.150000
9486   1  2 0.0000 29.370000  9.790000 38.270000
9487   1  2 0.0000 29.370000  9.790000 45.390000
9488   1  2 0.0000 29.370000  9.790000 52.510000
9489   1  2 0.0000 29.370000 16.910000  2.670000
9490   1  2 0.0000 29.370000 16.910000  9.790000
9491   1  2 0.0000 29.370000 16.910000 16.910000
9492   1  2 0.0000 29.370000 16.910000 24.030000
9493   1  2 0.0000 29.370000 16.910000 31.150000
9494   1  2 0.0000 29.370000 16.910000 38.270000
9495   1  2 0.0000 29.370000 16.910000 45.390000
9496   1  2 0.0000 29.370000 16.910000 52.510000
9497   1  2 0.0000 29.370000 24.030000  2.670000
9498   1  2 0.0000 29.370000 24.030000  9.790000
9499   1  2 0.0000 29.370000 24.030000 16.910000
9500   1  2 0.0000 29.370000 24.030000 24.030000
9501   1  2 0.0000 29.370000 24.030000 31.150000
9502   1  2 0.0000 29.370000 24.030000 38.270000
9503   1  2 0.0000 29.370000 24.030000 45.390000
9504   1  2 0.0000 29.370000 24.030000 52.510000
9505   1  2 0.0000 29.370000 31.150000  2.670000
9506   1  2 0.0000 29.370000 31.150000  9.790000
9507   1  2 0.0000 29.370000 31.150000 16.910000
9508   1  2 0.0000 29.370000 31.150000 24.030000
9509   1  2 0.0000 29.370000 31.150000 31.150000
9510   1  2 0.0000 29.370000 31.150000 38.270000
9511   1  2 0.0000 29.370000 31.150000 45.390000
9512   1  2 0.0000 29.370000 31.150000 52.510000
9513   1  2 0.0000 29.370000 38.270000  2.670000
9514   1  2 0.0000 29.370000 38.270000  9.790000
9515   1  2 0.0000 29.370000 38.270000 16.910000
9516   1  2 0.0000 29.370000 38.270000 24.030000
9517   1  2 0.0000 29.370000 38.270000 31.150000
9518   1  2 0.0000 29.370000 38.270000 38.270000
9519   1  2 0.0000 29.370000 38.270000 45.390000
9520   1  2 0.0000 29.370000 38.270000 52.510000
9521   1  2 0.0000 29.370000 45.390000  2.670000
9522   1  2 0.0000 29.370000 45.390000  9.790000
9523   1  2 0.0000 29.370000 45.390000 16.910000
9524   1  2 0.0000 29.370000 45.390000 24.030000
9525   1  2 0.0000 29.370000 45.390000 31.150000
9526   1  2 0.0000 29.370000 45.390000 38.270000
9527   1  2 0.0000 29.370000 45.390000 45.390000
9528   1  2 0.0000 29.370000 45.390000 52.510000
9529   1  2 0.0000 29.370000 52.510000  2.670000
9530   1  2 0.0000 29.370000 52.510000  9.790000
9531   1  2 0.0000 29.370000 52.510000 16.910000
9532   1  2 0.0000 29.370000 52.510000 24.030000
9533   1  2 0.0000 29.370000 52.510000 31.150000
9534   1  2 0.0000 29.370000 52.510000 38.270000
9535   1  2 0.0000 29.370000 52.510000 45.390000
9536   1  2 0.0000 29.370000 52.510000 52.510000
9537   1  2 0.0000 36.490000  2.670000  2.670000
9538   1  2 0.0000 36.490000  2.670000  9.790000
9539   1  2 0.0000 36.490000  2.670000 16.910000
9540   1  2 0.0000 36.490000  2.670000 24.030000
9541   1  2 0.0000 36.490000  2.670000 31.150000
9542   1  2 0.0000 36.490000  2.670000 38.270000
9543   1  2 0.0000 36.490000  2.670000 45.390000
9544   1  2 0.0000 36.490000  2.670000 52.510000
9545   1  2 0.0000 36.490000  9.790000  2.670000
9546   1  2 0.0000 36.490000  9.790000  9.790000
9547   1  2 0.0000 36.490000  9.790000 16.910000
9548   1  2 0.0000 36.490000  9.790000 24.030000
9549   1  2 0.0000 36.490000  9.790000 31.150000
9550   1  2 0.0000 36.490000  9.790000 38.270000
9551   1  2 0.0000 36.490000  9.790000 45.390000
9552   1  2 0.0000 36.490000  9.790000 52.510000
9553   1  2 0.0000 36.490000 16.910000  2.670000
9554   1  2 0.0000 36.490000 16.910000  9.790000
9555   1  2 0.0000 36.490000 16.910000 16.910000
9556   1  2 0.0000 36.490000 16.910000 24.030000
9557   1  2 0.0000 36.490000 16.910000 31.150000
9558   1  2 0.0000 36.490000 16.910000 38.270000
9559   1  2 0.0000 36.490000 16.910000 45.390000
9560   1  2 0.0000 36.490000 16.910000 52.510000
9561   1  2 0.0000 36.490000 24.030000  2.670000
9562   1  2 0.0000 36.490000 24.030000  9.790000
9563   1  2 0.0000 36.490000 24.030000 16.910000
9564   1  2 0.0000 36.490000 24.030000 24.030000
9565   1  2 0.0000 36.490000 24.030000 31.150000
9566   1  2 0.0000 36.490000 24.030000 38.270000
9567   1  2 0.0000 36.490000 24.030000 45.390000
9568   1  2 0.0000 36.490000 24.030000 52.510000
9569   1  2 0.0000 36.490000 31.150000  2.670000
9570   1  2 0.0000 36.490000 31.150000  9.790000
9571   1  2 0.0000 36.490000 31.150000 16.910000
9572   1  2 0.0000 36.490000 31.150000 24.030000
9573   1  2 0.0000 36.490000 31.150000 31.150000
9574   1  2 0.0000 36.490000 31.150000 38.270000
9575   1  2 0.0000 36.490000 31.150000 45.390000
9576   1  2 0.0000 36.490000 31.150000 52.510000
9577   1  2 0.0000 36.490000 38.270000  2.670000
9578   1  2 0.0000 36.490000 38.270000  9.790000
9579   1  2 0.0000 36.490000 38.270000 16.910000
9580   1  2 0.0000 36.490000 38.270000 24.030000
9581   1  2 0.0000 36.490000 38.270000 31.150000
9582   1  2 0.0000 36.490000 38.270000 38.270000
9583   1  2 0.0000 36.490000 38.270000 45.390000
9584   1  2 0.0000 36.490000 38.270000 52.510000
9585   1  2 0.0000 36.490000 45.390000  2.670000
9586   1  2 0.0000 36.490000 45.390000  9.790000
9587   1  2 0.0000 36.490000 45.390000 16.910000
9588   1  2 0.0000 36.490000 45.390000 24.030000
9589   1  2 0.0000 36.490000 45.390000 31.150000
9590   1  2 0.0000 36.490000 45.390000 38.270000
9591   1  2 0.0000 36.490000 45.390000 45.390000
9592   1  2 0.0000 36.490000 45.390000 52.510000
9593   1  2 0.0000 36.490000 52.510000  2.670000
9594   1  2 0.0000 36.490000 52.510000  9.790000
9595   1  2 0.0000 36.490000 52.510000 16.910000
9596   1  2 0.0000 36.490000 52.510000 24.030000
9597   1  2 0.0000 36.490000 52.510000 31.150000
9598   1  2 0.0000 36.490000 52.510000 38.270000
9599   1  2 0.0000 36.490000 52.510000 45.390000
9600   1  2 0.0000 36.490000 52.510000 52.510000
9601   1  2 0.0000 43.610000  2.670000  2.670000
9602   1  2 0.0000 43.610000  2.670000  9.790000
9603   1  2 0.0000 43.610000  2.670000 16.910000
9604   1  2 0.0000 43.610000  2.670000 24.030000
9605   1  2 0.0000 43.610000  2.670000 31.150000
9606   1  2 0.0000 43.610000  2.670000 38.270000
9607   1  2 0.0000 43.610000  2.670000 45.390000
9608   1  2 0.0000 43.610000  2.670000 52.510000
9609   1  2 0.0000 43.610000  9.790000  2.670000
9610   1  2 0.0000 43.610000  9.790000  9.790000
9611   1  2 0.0000 43.610000  9.790000 16.910000
9612   1  2 0.0000 43.610000  9.790000 24.030000
9613   1  2 0.0000 43.610000  9.790000 31.150000
9614   1  2 0.0000 43.610000  9.790000 38.270000
9615   1  2 0.0000 43.610000  9.790000 45.390000
9616   1  2 0.0000 43.610000  9.790000 52.510000
9617   1  2 0.0000 43.610000 16.910000  2.670000
9618   1  2 0.0000 43.610000 16.910000  9.790000
9619   1  2 0.0000 43.610000 16.910000 16.910000
9620   1  2 0.0000 43.610000 16.910000 24.030000
9621   1  2 0.0000 43.610000 16.910000 31.150000
9622   1  2 0.0000 43.610000 16.910000 38.270000
9623   1  2 0.0000 43.610000 16.910000 45.390000
9624   1  2 0.0000 43.610000 16.910000 52.510000
9625   1  2 0.0000 43.610000 24.030000  2.670000
9626   1  2 0.0000 43.610000 24.030000  9.790000
9627   1  2 0.0000 43.610000 24.030000 16.910000
9628   1  2 0.0000 43.610000 24.030000 24.030000
9629   1  2 0.0000 43.610000 24.030000 31.150000
9630   1  2 0.0000 43.610000 24.030000 38.270000
9631   1  2 0.0000 43.610000 24.030000 45.390000
9632   1  2 0.0000 43.610000 24.030000 52.510000
9633   1  2 0.0000 43.610000 31.150000  2.670000
9634   1  2 0.0000 43.610000 31.150000  9.790000
9635   1  2 0.0000 43.610000 31.150000 16.910000
9636   1  2 0.0000 43.610000 31.150000 24.030000
9637   1  2 0.0000 43.610000 31.150000 31.150000
9638   1  2 0.0000 43.610000 31.150000 38.270000
9639   1  2 0.0000 43.610000 31.150000 45.390000
9640   1  2 0.0000 43.610000 31.150000 52.510000
9641   1  2 0.0000 43.610000 38.270000  2.670000
9642   1  2 0.0000 43.610000 38.270000  9.790000
9643   1  2 0.0000 43.610000 38.270000 16.910000
9644   1  2 0.0000 43.610000 38.270000 24.030000
9645   1  2 0.0000 43.610000 38.270000 31.150000
9646   1  2 0.0000 43.610000 38.270000 38.270000
9647   1  2 0.0000 43.610000 38.270000 45.390000
9648   1  2 0.0000 43.610000 38.270000 52.510000
9649   1  2 0.0000 43.610000 45.390000  2.670000
9650   1  2 0.0000 43.610000 45.390000  9.790000
9651   1  2 0.0000 43.610000 45.390000 16.910000
9652   1  2 0.0000 43.610000 45.390000 24.030000
9653   1  2 0.0000 43.610000 45.390000 31.150000
9654   1  2 0.0000 43.610000 45.390000 38.270000
9655   1  2 0.0000 43.610000 45.390000 45.390000
9656   1  2 0.0000 43.610000 45.390000 52.510000
9657   1  2 0.0000 43.610000 52.510000  2.670000
9658   1  2 0.0000 43.610000 52.510000  9.790000
9659   1  2 0.0000 43.610000 52.510000 16.910000
9660   1  2 0.0000 43.610000 52.510000 24.030000
9661   1  2 0.0000 43.610000 52.510000 31.150000
9662   1  2 0.0000 43.610000 52.510000 38.270000
9663   1  2 0.0000 43.610000 52.510000 45.390000
9664   1  2 0.0000 43.610000 52.510000 52.510000
9665   1  2 0.0000 50.730000  2.670000  2.670000
9666   1  2 0.0000 50.730000  2.670000  9.790000
9667   1  2 0.0000 50.730000  2.670000 16.910000
9668   1  2 0.0000 50.730000  2.670000 24.030000
9669   1  2 0.0000 50.730000  2.670000 31.150000
9670   1  2 0.0000 50.730000  2.670000 38.270000
9671   1  2 0.0000 50.730000  2.670000 45.390000
9672   1  2 0.0000 50.730000  2.670000 52.510000
9673   1  2 0.0000 50.730000  9.790000  2.670000
9674   1  2 0.0000 50.730000  9.790000  9.790000
9675   1  2 0.0000 50.730000  9.790000 16.910000
9676   1  2 0.0000 50.730000  9.790000 24.030000
9677   1  2 0.0000 50.730000  9.790000 31.150000
9678   1  2 0.0000 50.730000  9.790000 38.270000
9679   1  2 0.0000 50.730000  9.790000 45.390000
9680   1  2 0.0000 50.730000  9.790000 52.510000
9681   1  2 0.0000 50.730000 16.910000  2.670000
9682   1  2 0.0000 50.730000 16.910000  9.790000
9683   1  2 0.0000 50.730000 16.910000 16.910000
9684   1  2 0.0000 50.730000 16.910000 24.030000
9685   1  2 0.0000 50.730000 16.910000 31.150000
9686   1  2 0.0000 50.730000 16.910000 38.270000
9687   1  2 0.0000 50.730000 16.910000 45.390000
9688   1  2 0.0000 50.730000 16.910000 52.510000
9689   1  2 0.0000 50.730000 24.030000  2.670000
9690   1  2 0.0000 50.730000 24.030000  9.790000
9691   1  2 0.0000 50.730000 24.030000 16.910000
9692   1  2 0.0000 50.730000 24.030000 24.030000
9693   1  2 0.0000 50.730000 24.030000 31.150000
9694   1  2 0.0000 50.730000 24.030000 38.270000
9695   1  2 0.0000 50.730000 24.030000 45.390000
9696   1  2 0.0000 50.730000 24.030000 52.510000
9697   1  2 0.0000 50.730000 31.150000  2.670000
9698   1  2 0.0000 50.730000 31.150000  9.790000
9699   1  2 0.0000 50.730000 31.150000 16.910000
9700   1  2 0.0000 50.730000 31.150000 24.030000
9701   1  2 0.0000 50.730000 31.150000 31.150000
9702   1  2 0.0000 50.730000 31.150000 38.270000
9703   1  2 0.0000 50.730000 31.150000 45.390000
9704   1  2 0.0000 50.730000 31.150000 52.510000
9705   1  2 0.0000 50.730000 38.270000  2.670000
9706   1  2 0.0000 50.730000 38.270000  9.790000
9707   1  2 0.0000 50.730000 38.270000 16.910000
9708   1  2 0.0000 50.730000 38.270000 24.030000
9709   1  2 0.0000 50.730000 38.270000 31.150000
9710   1  2 0.0000 50.730000 38.270000 38.270000
9711   1  2 0.0000 50.730000 38.270000 45.390000
9712   1  2 0.0000 50.730000 38.270000 52.510000
9713   1  2 0.0000 50.730000 45.390000  2.670000
9714   1  2 0.0000 50.730000 45.390000  9.790000
9715   1  2 0.0000 50.730000 45.390000 16.910000
9716   1  2 0.0000 50.730000 45.390000 24.030000
9717   1  2 0.0000 50.730000 45.390000 31.150000
9718   1  2 0.0000 50.730000 45.390000 38.270000
9719   1  2 0.0000 50.730000 45.390000 45.390000
9720   1  2 0.0000 50.730000 45.390000 52.510000
9721   1  2 0.0000 50.730000 52.510000  2.670000
9722   1  2 0.0000 50.730000 52.510000  9.790000
9723   1  2 0.0000 50.730000 52.510000 16.910000
9724   1  2 0.0000 50.730000 52.510000 24.030000
9725   1  2 0.0000 50.730000 52.510000 31.150000
9726   1  2 0.0000 50.730000 52.510000 38.270000
9727   1  2 0.0000 50.730000 52.510000 45.390000
9728   1  2 0.0000 50.730000 52.510000 52.510000
9729   1  2 0.0000  4.450000  6.230000  2.670000
9730   1  2 0.0000  4.450000  6.230000  9.790000
9731   1  2 0.0000  4.450000  6.230000 16.910000
9732   1  2 0.0000  4.450000  6.230000 24.030000
9733   1  2 0.0000  4.450000  6.230000 31.150000
9734   1  2 0.0000  4.450000  6.230000 38.270000
9735   1  2 0.0000  4.450000  6.230000 45.390000
9736   1  2 0.0000  4.450000  6.230000 52.510000
9737   1  2 0.0000  4.450000 13.350000  2.670000
9738   1  2 0.0000  4.450000 13.350000  9.790000
9739   1  2 0.0000  4.450000 13.350000 16.910000
9740   1  2 0.0000  4.450000 13.350000 24.030000
9741   1  2 0.0000  4.450000 13.350000 31.150000
9742   1  2 0.0000  4.450000 13.350000 38.270000
9743   1  2 0.0000  4.450000 13.350000 45.390000
9744   1  2 0.0000  4.450000 13.350000 52.510000
9745   1  2 0.0000  4.450000 20.470000  2.670000
9746   1  2 0.0000  4.450000 20.470000  9.790000
9747   1  2 0.0000  4.450000 20.470000 16.910000
9748   1  2 0.0000  4.450000 20.470000 24.030000
9749   1  2 0.0000  4.450000 20.470000 31.150000
9750   1  2 0.0000  4.450000 20.470000 38.270000
9751   1  2 0.0000  4.450000 20.470000 45.390000
9752   1  2 0.0000  4.450000 20.470000 52.510000
9753   1  2 0.0000  4.450000 27.590000  2.670000
9754   1  2 0.0000  4.450000 27.590000  9.790000
9755   1  2 0.0000  4.450000 27.590000 16.910000
9756   1  2 0.0000  4.450000 27.590000 24.030000
9757   1  2 0.0000  4.450000 27.590000 31.150000
9758   1  2 0.0000  4.450000 27.590000 38.270000
9759   1  2 0.0000  4.450000 27.590000 45.390000
9760   1  2 0.0000  4.450000 27.590000 52.510000
9761   1  2 0.0000  4.450000 34.710000  2.670000
9762   1  2 0.0000  4.450000 34.710000  9.790000
9763   1  2 0.0000  4.450000 34.710000 16.910000
9764   1  2 0.0000  4.450000 34.710000 24.030000
9765   1  2 0.0000  4.450000 34.710000 31.150000
9766   1  2 0.0000  4.450000 34.710000 38.270000
9767   1  2 0.0000  4.450000 34.710000 45.390000
9768   1  2 0.0000  4.450000 34.710000 52.510000
9769   1  2 0.0000  4.450000 41.830000  2.670000
9770   1  2 0.0000  4.450000 41.830000  9.790000
9771   1  2 0.0000  4.450000 41.830000 16.910000
9772   1  2 0.0000  4.450000 41.830000 24.030000
9773   1  2 0.0000  4.450000 41.830000 31.150000
9774   1  2 0.0000  4.450000 41.830000 38.270000
9775   1  2 0.0000  4.450000 41.830000 45.390000
9776   1  2 0.0000  4.450000 41.830000 52.510000
9777   1  2 0.0000  4.450000 48.950000  2.670000
9778   1  2 0.0000  4.450000 48.950000  9.790000
9779   1  2 0.0000  4.450000 48.950000 16.910000
9780   1  2 0.0000  4.450000 48.950000 24.030000
9781   1  2 0.0000  4.450000 48.950000 31.150000
9782   1  2 0.0000  4.450000 48.950000 38.270000
9783   1  2 0.0000  4.450000 48.950000 45.390000
9784   1  2 0.0000  4.450000 48.950000 52.510000
9785   1  2 0.0000  4.450000 56.070000  2.670000
9786   1  2 0.0000  4.450000 56.070000  9.790000
9787   1  2 0.0000  4.450000 56.070000 16.910000
9788   1  2 0.0000  4.450000 56.070000 24.030000
9789   1  2 0.0000  4.450000 56.070000 31.150000
9790   1  2 0.0000  4.450000 56.070000 38.270000
9791   1  2 0.0000  4.450000 56.070000 45.390000
9792   1  2 0.0000  4.450000 56.070000 52.510000
9793   1  2 0.0000 11.570000  6.230000  2.670000
9794   1  2 0.0000 11.570000  6.230000  9.790000
9795   1  2 0.0000 11.570000  6.230000 16.910000
9796   1  2 0.0000 11.570000  6.230000 24.030000
9797   1  2 0.0000 11.570000  6.230000 31.150000
9798   1  2 0.0000 11.570000  6.230000 38.270000
9799   1  2 0.0000 11.570000  6.230000 45.390000
9800   1  2 0.0000 11.570000  6.230000 52.510000
9801   1  2 0.0000 11.570000 13.350000  2.670000
9802   1  2 0.0000 11.570000 13.350000  9.790000
9803   1  2 0.0000 11.570000 13.350000 16.910000
9804   1  2 0.0000 11.570000 13.350000 24.030000
9805   1  2 0.0000 11.570000 13.350000 31.150000
9806   1  2 0.0000 11.570000 13.350000 38.270000
9807   1  2 0.0000 11.570000 13.350000 45.390000
9808   1  2 0.0000 11.570000 13.350000 52.510000
9809   1  2 0.0000 11.570000 20.470000  2.670000
9810   1  2 0.0000 11.570000 20.470000  9.790000
9811   1  2 0.0000 11.570000 20.470000 16.910000
9812   1  2 0.0000 11.570000 20.470000 24.030000
9813   1  2 0.0000 11.570000 20.470000 31.150000
9814   1  2 0.0000 11.570000 20.470000 38.270000
9815   1  2 0.0000 11.570000 20.470000 45.390000
9816   1  2 0.0000 11.570000 20.470000 52.510000
9817   1  2 0.0000 11.570000 27.590000  2.670000
9818   1  2 0.0000 11.570000 27.590000  9.790000
9819   1  2 0.0000 11.570000 27.590000 16.910000
9820   1  2 0.0000 11.570000 27.590000 24.030000
9821   1  2 0.0000 11.570000 27.590000 31.150000
9822   1  2 0.0000 11.570000 27.590000 38.270000
9823   1  2 0.0000 11.570000 27.590000 45.390000
9824   1  2 0.0000 11.570000 27.590000 52.510000
9825   1  2 0.0000 11.570000 34.710000  2.670000
9826   1  2 0.0000 11.570000 34.710000  9.790000
9827   1  2 0.0000 11.570000 34.710000 16.910000
9828   1  2 0.0000 11.570000 34.710000 24.030000
9829   1  2 0.0000 11.570000 34.710000 31.150000
9830   1  2 0.0000 11.570000 34.710000 38.270000
9831   1  2 0.0000 11.570000 34.710000 45.390000
9832   1  2 0.0000 11.570000 34.710000 52.510000
9833   1  2 0.0000 11.570000 41.830000  2.670000
9834   1  2 0.0000 11.570000 41.830000  9.790000
9835   1  2 0.0000 11.570000 41.830000 16.910000
9836   1  2 0.0000 11.570000 41.830000 24.030000
9837   1  2 0.0000 11.570000 41.830000 31.150000
9838   1  2 0.0000 11.570000 41.830000 38.270000
9839   1  2 0.0000 11.570000 41.830000 45.390000
9840   1  2 0.0000 11.570000 41.830000 52.510000
9841   1  2 0.0000 11.570000 48.950000  2.670000
9842   1  2 0.0000 11.570000 48.950000  9.790000
9843   1  2 0.0000 11.570000 48.950000 16.910000
9844   1  2 0.0000 11.570000 48.950000 24.030000
9845   1  2 0.0000 11.570000 48.950000 31.150000
9846   1  2 0.0000 11.570000 48.950000 38.270000
9847   1  2 0.0000 11.570000 48.950000 45.390000
9848   1  2 0.0000 11.570000 48.950000 52.510000
9849   1  2 0.0000 11.570000 56.070000  2.670000
9850   1  2 0.0000 11.570000 56.070000  9.790000
9851   1  2 0.0000 11.570000 56.070000 16.910000
9852   1  2 0.0000 11.570000 56.070000 24.030000
9853   1  2 0.0000 11.570000 56.070000 31.150000
9854   1  2 0.0000 11.570000 56.070000 38.270000
9855   1  2 0.0000 11.570000 56.070000 45.390000
9856   1  2 0.0000 11.570000 56.070000 52.510000
9857   1  2 0.0000 18.690000  6.230000  2.670000
9858   1  2 0.0000 18.690000  6.230000  9.790000
9859   1  2 0.0000 18.690000  6.230000 16.910000
9860   1  2 0.0000 18.690000  6.230000 24.030000
9861   1  2 0.0000 18.690000  6.230000 31.150000
9862   1  2 0.0000 18.690000  6.230000 38.270000
9863   1  2 0.0000 18.690000  6.230000 45.390000
9864   1  2 0.0000 18.690000  6.230000 52.510000
9865   1  2 0.0000 18.690000 13.350000  2.670000
9866   1  2 0.0000 18.690000 13.350000  9.790000
9867   1  2 0.0000 18.690000 13.350000 16.910000
9868   1  2 0.0000 18.690000 13.350000 24.030000
9869   1  2 0.0000 18.690000 13.350000 31.150000
9870   1  2 0.0000 18.690000 13.350000 38.270000
9871   1  2 0.0000 18.690000 13.350000 45.390000
9872   1  2 0.0000 18.690000 13.350000 52.510000
9873   1  2 0.0000 18.690000 20.470000  2.670000
9874   1  2 0.0000 18.690000 20.470000  9.790000
9875   1  2 0.0000 18.690000 20.470000 16.910000
9876   1  2 0.0000 18.690000 20.470000 24.030000
9877   1  2 0.0000 18.690000 20.470000 31.150000
9878   1  2 0.0000 18.690000 20.470000 38.270000
9879   1  2 0.0000 18.690000 20.470000 45.390000
9880   1  2 0.0000 18.690000 20.470000 52.510000
9881   1  2 0.0000 18.690000 27.590000  2.670000
9882   1  2 0.0000 18.690000 27.590000  9.790000
9883   1  2 0.0000 18.690000 27.590000 16.910000
9884   1  2 0.0000 18.690000 27.590000 24.030000
9885   1  2 0.0000 18.690000 27.590000 31.150000
9886   1  2 0.0000 18.690000 27.590000 38.270000
9887   1  2 0.0000 18.690000 27.590000 45.390000
9888   1  2 0.0000 18.690000 27.590000 52.510000
9889   1  2 0.0000 18.690000 34.710000  2.670000
9890   1  2 0.0000 18.690000 34.710000  9.790000
9891   1  2 0.0000 18.690000 34.710000 16.910000
9892   1  2 0.0000 18.690000 34.710000 24.030000
9893   1  2 0.0000 18.690000 34.710000 31.150000
9894   1  2 0.0000 18.690000 34.710000 38.270000
9895   1  2 0.0000 18.690000 34.710000 45.390000
9896   1  2 0.0000 18.690000 34.710000 52.510000
9897   1  2 0.0000 18.690000 41.830000  2.670000
9898   1  2 0.0000 18.690000 41.830000  9.790000
9899   1  2 0.0000 18.690000 41.830000 16.910000
9900   1  2 0.0000 18.690000 41.830000 24.030000
9901   1  2 0.0000 18.690000 41.830000 31.150000
9902   1  2 0.0000 18.690000 41.830000 38.270000
9903   1  2 0.0000 18.690000 41.830000 45.390000
9904   1  2 0.0000 18.690000 41.830000 52.510000
9905   1  2 0.0000 18.690000 48.950000  2.670000
9906   1  2 0.0000 18.690000 48.950000  9.790000
9907   1  2 0.0000 18.690000 48.950000 16.910000
9908   1  2 0.0000 18.690000 48.950000 24.030000
9909   1  2 0.0000 18.690000 48.950000 31.150000
9910   1  2 0.0000 18.690000 48.950000 38.270000
9911   1  2 0.0000 18.690000 48.950000 45.390000
9912   1  2 0.0000 18.690000 48.950000 52.510000
9913   1  2 0.0000 18.690000 56.070000  2.670000
9914   1  2 0.0000 18.690000 56.070000  9.790000
9915   1  2 0.0000 18.690000 56.070000 16.910000
9916   1  2 0.0000 18.690000 56.070000 24.030000
9917   1  2 0.0000 18.690000 56.070000 31.150000
9918   1  2 0.0000 18.690000 56.070000 38.270000
9919   1  2 0.0000 18.690000 56.070000 45.390000
9920   1  2 0.0000 18.690000 56.070000 52.510000
9921   1  2 0.0000 25.810000  6.230000  2.670000
9922   1  2 0.0000 25.810000  6.230000  9.790000
9923   1  2 0.0000 25.810000  6.230000 16.910000
9924   1  2 0.0000 25.810000  6.230000 24.030000
9925   1  2 0.0000 25.810000  6.230000 31.150000
9926   1  2 0.0000 25.810000  6.230000 38.270000
9927   1  2 0.0000 25.810000  6.230000 45.390000
9928   1  2 0.0000 25.810000  6.230000 52.510000
9929   1  2 0.0000 25.810000 13.350000  2.670000
9930   1  2 0.0000 25.810000 13.350000  9.790000
9931   1  2 0.0000 25.810000 13.350000 16.910000
9932   1  2 0.0000 25.810000 13.350000 24.030000
9933   1  2 0.0000 25.810000 13.350000 31.150000
9934   1  2 0.0000 25.810000 13.350000 38.270000
9935   1  2 0.0000 25.810000 13.350000 45.390000
9936   1  2 0.0000 25.810000 13.350000 52.510000
9937   1  2 0.0000 25.810000 20.470000  2.670000
9938   1  2 0.0000 25.810000 20.470000  9.790000
9939   1  2 0.0000 25.810000 20.470000 16.910000
9940   1  2 0.0000 25.810000 20.470000 24.030000
9941   1  2 0.0000 25.810000 20.470000 31.150000
9942   1  2 0.0000 25.810000 20.470000 38.270000
9943   1  2 0.0000 25.810000 20.470000 45.390000
9944   1  2 0.0000 25.810000 20.470000 52.510000
9945   1  2 0.0000 25.810000 27.590000  2.670000
9946   1  2 0.0000 25.810000 27.590000  9.790000
9947   1  2 0.0000 25.810000 27.590000 16.910000
9948   1  2 0.0000 25.810000 27.590000 24.030000
9949   1  2 0.0000 25.810000 27.590000 31.150000
9950   1  2 0.0000 25.810000 27.590000 38.270000
9951   1  2 0.0000 25.810000 27.590000 45.390000
9952   1  2 0.0000 25.810000 27.590000 52.510000
9953   1  2 0.0000 25.810000 34.710000  2.670000
9954   1  2 0.0000 25.810000 34.710000  9.790000
9955   1  2 0.0000 25.810000 34.710000 16.910000
9956   1  2 0.0000 25.810000 34.710000 24.030000
9957   1  2 0.0000 25.810000 34.710000 31.150000
9958   1  2 0.0000 25.810000 34.710000 38.270000
9959   1  2 0.0000 25.810000 34.710000 45.390000
9960   1  2 0.0000 25.810000 34.710000 52.510000
9961   1  2 0.0000 25.810000 41.830000  2.670000
9962   1  2 0.0000 25.810000 41.830000  9.790000
9963   1  2 0.0000 25.810000 41.830000 16.910000
9964   1  2 0.0000 25.810000 41.830000 24.030000
9965   1  2 0.0000 25.810000 41.830000 31.150000
9966   1  2 0.0000 25.810000 41.830000 38.270000
9967   1  2 0.0000 25.810000 41.830000 45.390000
9968   1  2 0.0000 25.810000 41.830000 52.510000
9969   1  2 0.0000 25.810000 48.950000  2.670000
9970   1  2 0.0000 25.810000 48.950000  9.790000
9971   1  2 0.0000 25.810000 48.950000 16.910000
9972   1  2 0.0000 25.810000 48.950000 24.030000
9973   1  2 0.0000 25.810000 48.950000 31.150000
9974   1  2 0.0000 25.810000 48.950000 38.270000
9975   1  2 0.0000 25.810000 48.950000 45.390000
9976   1  2 0.0000 25.810000 48.950000 52.510000
9977   1  2 0.0000 25.810000 56.070000  2.670000
9978   1  2 0.0000 25.810000 56.070000  9.790000
9979   1  2 0.0000 25.810000 56.070000 16.910000
9980   1  2 0.0000 25.810000 56.070000 24.030000
9981   1  2 0.0000 25.810000 56.070000 31.150000
9982   1  2 0.0000 25.810000 56.070000 38.270000
9983   1  2 0.0000 25.810000 56.070000 45.390000
9984   1  2 0.0000 25.810000 56.070000 52.510000
9985   1  2 0.0000 32.930000  6.230000  2.670000
9986   1  2 0.0000 32.930000  6.230000  9.790000
9987   1  2 0.0000 32.930000  6.230000 16.910000
9988   1  2 0.0000 32.930000  6.230000 24.030000
9989   1  2 0.0000 32.930000  6.230000 31.150000
9990   1  2 0.0000 32.930000  6.230000 38.270000
9991   1  2 0.0000 32.930000  6.230000 45.390000
9992   1  2 0.0000 32.930000  6.230000 52.510000
9993   1  2 0.0000 32.930000 13.350000  2.670000
9994   1  2 0.0000 32.930000 13.350000  9.790000
9995   1  2 0.0000 32.930000 13.350000 16.910000
9996   1  2 0.0000 32.930000 13.350000 24.030000
9997   1  2 0.0000 32.930000 13.350000 31.150000
9998   1  2 0.0000 32.930000 13.350000 38.270000
9999   1  2 0.0000 32.930000 13.350000 45.390000
10000  1  2 0.0000 32.930000 13.350000 52.510000
10001  1  2 0.0000 32.930000 20.470000  2.670000
10002  1  2 0.0000 32.930000 20.470000  9.790000
10003  1  2 0.0000 32.930000 20.470000 16.910000
10004  1  2 0.0000 32.930000 20.470000 24.030000
10005  1  2 0.0000 32.930000 20.470000 31.150000
10006  1  2 0.0000 32.930000 20.470000 38.270000
10007  1  2 0.0000 32.930000 20.470000 45.390000
10008  1  2 0.0000 32.930000 20.470000 52.510000
10009  1  2 0.0000 32.930000 27.590000  2.670000
10010  1  2 0.0000 32.930000 27.590000  9.790000
10011  1  2 0.0000 32.930000 27.590000 16.910000
10012  1  2 0.0000 32.930000 27.590000 24.030000
10013  1  2 0.0000 32.930000 27.590000 31.150000
10014  1  2 0.0000 32.930000 27.590000 38.270000
10015  1  2 0.0000 32.930000 27.590000 45.390000
10016  1  2 0.0000 32.930000 27.590000 52.510000
10017  1  2 0.0000 32.930000 34.710000  2.670000
10018  1  2 0.0000 32.930000 34.710000  9.790000
10019  1  2 0.0000 32.930000 34.710000 16.910000
10020  1  2 0.0000 32.930000 34.710000 24.030000
10021  1  2 0.0000 32.930000 34.710000 31.150000
10022  1  2 0.0000 32.930000 34.710000 38.270000
10023  1  2 0.0000 32.930000 34.710000 45.390000
10024  1  2 0.0000 32.930000 34.710000 52.510000
10025  1  2 0.0000 32.930000 41.830000  2.670000
10026  1  2 0.0000 32.930000 41.830000  9.790000
10027  1  2 0.0000 32.930000 41.830000 16.910000
10028  1  2 0.0000 32.930000 41.830000 24.030000
10029  1  2 0.0000 32.930000 41.830000 31.150000
10030  1  2 0.0000 32.930000 41.830000 38.270000
10031  1  2 0.0000 32.930000 41.830000 45.390000
10032  1  2 0.0000 32.930000 41.830000 52.510000
10033  1  2 0.0000 32.930000 48.950000  2.670000
10034  1  2 0.0000 32.930000 48.950000  9.790000
10035  1  2 0.0000 32.930000 48.950000 16.910000
10036  1  2 0.0000 32.930000 48.950000 24.030000
10037  1  2 0.0000 32.930000 48.950000 31.150000
10038  1  2 0.0000 32.930000 48.950000 38.270000
10039  1  2 0.0000 32.930000 48.950000 45.390000
10040  1  2 0.0000 32.930000 48.950000 52.510000
10041  1  2 0.0000 32.930000 56.070000  2.670000
10042  1  2 0.0000 32.930000 56.070000  9.790000
10043  1  2 0.0000 32.930000 56.070000 16.910000
10044  1  2 0.0000 32.930000 56.070000 24.030000
10045  1  2 0.0000 32.930000 56.070000 31.150000
10046  1  2 0.0000 32.930000 56.070000 38.270000
10047  1  2 0.0000 32.930000 56.070000 45.390000
10048  1  2 0.0000 32.930000 56.070000 52.510000
10049  1  2 0.0000 40.050000  6.230000  2.670000
10050  1  2 0.0000 40.050000  6.230000  9.790000
10051  1  2 0.0000 40.050000  6.230000 16.910000
10052  1  2 0.0000 40.050000  6.230000 24.030000
10053  1  2 0.0000 40.050000  6.230000 31.150000
10054  1  2 0.0000 40.050000  6.230000 38.270000
10055  1  2 0.0000 40.050000  6.230000 45.390000
10056  1  2 0.0000 40.050000  6.230000 52.510000
10057  1  2 0.0000 40.050000 13.350000  2.670000
10058  1  2 0.0000 40.050000 13.350000  9.790000
10059  1  2 0.0000 40.050000 13.350000 16.910000
10060  1  2 0.0000 40.050000 13.350000 24.030000
10061  1  2 0.0000 40.050000 13.350000 31.150000
10062  1  2 0.0000 40.050000 13.350000 38.270000
10063  1  2 0.0000 40.050000 13.350000 45.390000
10064  1  2 0.0000 40.050000 13.350000 52.510000
10065  1  2 0.0000 40.050000 20.470000  2.670000
10066  1  2 0.0000 40.050000 20.470000  9.790000
10067  1  2 0.0000 40.050000 20.470000 16.910000
10068  1  2 0.0000 40.050000 20.470000 24.030000
10069  1  2 0.0000 40.050000 20.470000 31.150000
10070  1  2 0.0000 40.050000 20.470000 38.270000
10071  1  2 0.0000 40.050000 20.470000 45.390000
10072  1  2 0.0000 40.050000 20.470000 52.510000
10073  1  2 0.0000 40.050000 27.590000  2.670000
10074  1  2 0.0000 40.050000 27.590000  9.790000
10075  1  2 0.0000 40.050000 27.590000 16.910000
10076  1  2 0.0000 40.050000 27.590000 24.030000
10077  1  2 0.0000 40.050000 27.590000 31.150000
10078  1  2 0.0000 40.050000 27.590000 38.270000
10079  1  2 0.0000 40.050000 27.590000 45.390000
10080  1  2 0.0000 40.050000 27.590000 52.510000
10081  1  2 0.0000 40.050000 34.710000  2.670000
10082  1  2 0.0000 40.050000 34.710000  9.790000
10083  1  2 0.0000 40.050000 34.710000 16.910000
10084  1  2 0.0000 40.050000 34.710000 24.030000
10085  1  2 0.0000 40.050000 34.710000 31.150000
10086  1  2 0.0000 40.050000 34.710000 38.270000
10087  1  2 0.0000 40.050000 34.710000 45.390000
10088  1  2 0.0000 40.050000 34.710000 52.510000
10089  1  2 0.0000 40.050000 41.830000  2.670000
10090  1  2 0.0000 40.050000 41.830000  9.790000
10091  1  2 0.0000 40.050000 41.830000 16.910000
10092  1  2 0.0000 40.050000 41.830000 24.030000
10093  1  2 0.0000 40.050000 41.830000 31.150000
10094  1  2 0.0000 40.050000 41.830000 38.270000
10095  1  2 0.0000 40.050000 41.830000 45.390000
10096  1  2 0.0000 40.050000 41.830000 52.510000
10097  1  2 0.0000 40.050000 48.950000  2.670000
10098  1  2 0.0000 40.050000 48.950000  9.790000
10099  1  2 0.0000 40.050000 48.950000 16.910000
10100  1  2 0.0000 40.050000 48.950000 24.030000
10101  1  2 0.0000 40.050000 48.950000 31.150000
10102  1  2 0.0000 40.050000 48.950000 38.270000
10103  1  2 0.0000 40.050000 48.950000 45.390000
10104  1  2 0.0000 40.050000 48.950000 52.510000
10105  1  2 0.0000 40.050000 56.070000  2.670000
10106  1  2 0.0000 40.050000 56.070000  9.790000
10107  1  2 0.0000 40.050000 56.070000 16.910000
10108  1  2 0.0000 40.050000 56.070000 24.030000
10109  1  2 0.0000 40.050000 56.070000 31.150000
10110  1  2 0.0000 40.050000 56.070000 38.270000
10111  1  2 0.0000 40.050000 56.070000 45.390000
10112  1  2 0.0000 40.050000 56.070000 52.510000
10113  1  2 0.0000 47.170000  6.230000  2.670000
10114  1  2 0.0000 47.170000  6.230000  9.790000
10115  1  2 0.0000 47.170000  6.230000 16.910000
10116  1  2 0.0000 47.170000  6.230000 24.030000
10117  1  2 0.0000 47.170000  6.230000 31.150000
10118  1  2 0.0000 47.170000  6.230000 38.270000
10119  1  2 0.0000 47.170000  6.230000 45.390000
10120  1  2 0.0000 47.170000  6.230000 52.510000
10121  1  2 0.0000 47.170000 13.350000  2.670000
10122  1  2 0.0000 47.170000 13.350000  9.790000
10123  1  2 0.0000 47.170000 13.350000 16.910000
10124  1  2 0.0000 47.170000 13.350000 24.030000
10125  1  2 0.0000 47.170000 13.350000 31.150000
10126  1  2 0.0000 47.170000 13.350000 38.270000
10127  1  2 0.0000 47.170000 13.350000 45.390000
10128  1  2 0.0000 47.170000 13.350000 52.510000
10129  1  2 0.0000 47.170000 20.470000  2.670000
10130  1  2 0.0000 47.170000 20.470000  9.790000
10131  1  2 0.0000 47.170000 20.470000 16.910000
10132  1  2 0.0000 47.170000 20.470000 24.030000
10133  1  2 0.0000 47.170000 20.470000 31.150000
10134  1  2 0.0000 47.170000 20.470000 38.270000
10135  1  2 0.0000 47.170000 20.470000 45.390000
10136  1  2 0.0000 47.170000 20.470000 52.510000
10137  1  2 0.0000 47.170000 27.590000  2.670000
10138  1  2 0.0000 47.170000 27.590000  9.790000
10139  1  2 0.0000 47.170000 27.590000 16.910000
10140  1  2 0.0000 47.170000 27.590000 24.030000
10141  1  2 0.0000 47.170000 27.590000 31.150000
10142  1  2 0.0000 47.170000 27.590000 38.270000
10143  1  2 0.0000 47.170000 27.590000 45.390000
10144  1  2 0.0000 47.170000 27.590000 52.510000
10145  1  2 0.0000 47.170000 34.710000  2.670000
10146  1  2 0.0000 47.170000 34.710000  9.790000
10147  1  2 0.0000 47.170000 34.710000 16.910000
10148  1  2 0.0000 47.170000 34.710000 24.030000
10149  1  2 0.0000 47.170000 34.710000 31.150000
10150  1  2 0.0000 47.170000 34.710000 38.270000
10151  1  2 0.0000 47.170000 34.710000 45.390000
10152  1  2 0.0000 47.170000 34.710000 52.510000
10153  1  2 0.0000 47.170000 41.830000  2.670000
10154  1  2 0.0000 47.170000 41.830000  9.790000
10155  1  2 0.0000 47.170000 41.830000 16.910000
10156  1  2 0.0000 47.170000 41.830000 24.030000
10157  1  2 0.0000 47.170000 41.830000 31.150000
10158  1  2 0.0000 47.170000 41.830000 38.270000
10159  1  2 0.0000 47.170000 41.830000 45.390000
10160  1  2 0.0000 47.170000 41.830000 52.510000
10161  1  2 0.0000 47.170000 48.950000  2.670000
10162  1  2 0.0000 47.170000 48.950000  9.790000
10163  1  2 0.0000 47.170000 48.950000 16.910000
10164  1  2 0.0000 47.170000 48.950000 24.030000
10165  1  2 0.0000 47.170000 48.950000 31.150000
10166  1  2 0.0000 47.170000 48.950000 38.270000
10167  1  2 0.0000 47.170000 48.950000 45.390000
10168  1  2 0.0000 47.170000 48.950000 52.510000
10169  1  2 0.0000 47.170000 56.070000  2.670000
10170  1  2 0.0000 47.170000 56.070000  9.790000
10171  1  2 0.0000 47.170000 56.070000 16.910000
10172  1  2 0.0000 47.170000 56.070000 24.030000
10173  1  2 0.0000 47.170000 56.070000 31.150000
10174  1  2 0.0000 47.170000 56.070000 38.270000
10175  1  2 0.0000 47.170000 56.070000 45.390000
10176  1  2 0.0000 47.170000 56.070000 52.510000
10177  1  2 0.0000 54.290000  6.230000  2.670000
10178  1  2 0.0000 54.290000  6.230000  9.790000
10179  1  2 0.0000 54.290000  6.230000 16.910000
10180  1  2 0.0000 54.290000  6.230000 24.030000
10181  1  2 0.0000 54.290000  6.230000 31.150000
10182  1  2 0.0000 54.290000  6.230000 38.270000
10183  1  2 0.0000 54.290000  6.230000 45.390000
10184  1  2 0.0000 54.290000  6.230000 52.510000
10185  1  2 0.0000 54.290000 13.350000  2.670000
10186  1  2 0.0000 54.290000 13.350000  9.790000
10187  1  2 0.0000 54.290000 13.350000 16.910000
10188  1  2 0.0000 54.290000 13.350000 24.030000
10189  1  2 0.0000 54.290000 13.350000 31.150000
10190  1  2 0.0000 54.290000 13.350000 38.270000
10191  1  2 0.0000 54.290000 13.350000 45.390000
10192  1  2 0.0000 54.290000 13.350000 52.510000
10193  1  2 0.0000 54.290000 20.470000  2.670000
10194  1  2 0.0000 54.290000 20.470000  9.790000
10195  1  2 0.0000 54.290000 20.470000 16.910000
10196  1  2 0.0000 54.290000 20.470000 24.030000
10197  1  2 0.0000 54.290000 20.470000 31.150000
10198  1  2 0.0000 54.290000 20.470000 38.270000
10199  1  2 0.0000 54.290000 20.470000 45.390000
10200  1  2 0.0000 54.290000 20.470000 52.510000
10201  1  2 0.0000 54.290000 27.590000  2.670000
10202  1  2 0.0000 54.290000 27.590000  9.790000
10203  1  2 0.0000 54.290000 27.590000 16.910000
10204  1  2 0.0000 54.290000 27.590000 24.030000
10205  1  2 0.0000 54.290000 27.590000 31.150000
10206  1  2 0.0000 54.290000 27.590000 38.270000
10207  1  2 0.0000 54.290000 27.590000 45.390000
10208  1  2 0.0000 54.290000 27.590000 52.510000
10209  1  2 0.0000 54.290000 34.710000  2.670000
10210  1  2 0.0000 54.290000 34.710000  9.790000
10211  1  2 0.0000 54.290000 34.710000 16.910000
10212  1  2 0.0000 54.290000 34.710000 24.030000
10213  1  2 0.0000 54.290000 34.710000 31.150000
10214  1  2 0.0000 54.290000 34.710000 38.270000
10215  1  2 0.0000 54.290000 34.710000 45.390000
10216  1  2 0.0000 54.290000 34.710000 52.510000
10217  1  2 0.0000 54.290000 41.830000  2.670000
10218  1  2 0.0000 54.290000 41.830000  9.790000
10219  1  2 0.0000 54.290000 41.830000 16.910000
10220  1  2 0.0000 54.290000 41.830000 24.030000
10221  1  2 0.0000 54.290000 41.830000 31.150000
10222  1  2 0.0000 54.290000 41.830000 38.270000
10223  1  2 0.0000 54.290000 41.830000 45.390000
10224  1  2 0.0000 54.290000 41.830000 52.510000
10225  1  2 0.0000 54.290000 48.950000  2.670000
10226  1  2 0.0000 54.290000 48.950000  9.790000
10227  1  2 0.0000 54.290000 48.950000 16.910000
10228  1  2 0.0000 54.290000 48.950000 24.030000
10229  1  2 0.0000 54.290000 48.950000 31.150000
10230  1  2 0.0000 54.290000 48.950000 38.270000
10231  1  2 0.0000 54.290000 48.950000 45.390000
10232  1  2 0.0000 54.290000 48.950000 52.510000
10233  1  2 0.0000 54.290000 56.070000  2.670000
10234  1  2 0.0000 54.290000 56.070000  9.790000
10235  1  2 0.0000 54.290000 56.070000 16.910000
10236  1  2 0.0000 54.290000 56.070000 24.030000
10237  1  2 0.0000 54.290000 56.070000 31.150000
10238  1  2 0.0000 54.290000 56.070000 38.270000
10239  1  2 0.0000 54.290000 56.070000 45.390000
10240  1  2 0.0000 54.290000 56.070000 52.510000
10241  1  2 0.0000  4.450000  2.670000  6.230000
10242  1  2 0.0000  4.450000  2.670000 13.350000
10243  1  2 0.0000  4.450000  2.670000 20.470000
10244  1  2 0.0000  4.450000  2.670000 27.590000
10245  1  2 0.0000  4.450000  2.670000 34.710000
10246  1  2 0.0000  4.450000  2.670000 41.830000
10247  1  2 0.0000  4.450000  2.670000 48.950000
10248  1  2 0.0000  4.450000  2.670000 56.070000
10249  1  2 0.0000  4.450000  9.790000  6.230000
10250  1  2 0.0000  4.450000  9.790000 13.350000
10251  1  2 0.0000  4.450000  9.790000 20.470000
10252  1  2 0.0000  4.450000  9.790000 27.590000
10253  1  2 0.0000  4.450000  9.790000 34.710000
10254  1  2 0.0000  4.450000  9.790000 41.830000
10255  1  2 0.0000  4.450000  9.790000 48.950000
10256  1  2 0.0000  4.450000  9.790000 56.070000
10257  1  2 0.0000  4.450000 16.910000  6.230000
10258  1  2 0.0000  4.450000 16.910000 13.350000
10259  1  2 0.0000  4.450000 16.910000 20.470000
10260  1  2 0.0000  4.450000 16.910000 27.590000
10261  1  2 0.0000  4.450000 16.910000 34.710000
10262  1  2 0.0000  4.450000 16.910000 41.830000
10263  1  2 0.0000  4.450000 16.910000 48.950000
10264  1  2 0.0000  4.450000 16.910000 56.070000
10265  1  2 0.0000  4.450000 24.030000  6.230000
10266  1  2 0.0000  4.450000 24.030000 13.350000
10267  1  2 0.0000  4.450000 24.030000 20.470000
10268  1  2 0.0000  4.450000 24.030000 27.590000
10269  1  2 0.0000  4.450000 24.030000 34.710000
10270  1  2 0.0000  4.450000 24.030000 41.830000
10271  1  2 0.0000  4.450000 24.030000 48.950000
10272  1  2 0.0000  4.450000 24.030000 56.070000
10273  1  2 0.0000  4.450000 31.150000  6.230000
10274  1  2 0.0000  4.450000 31.150000 13.350000
10275  1  2 0.0000  4.450000 31.150000 20.470000
10276  1  2 0.0000  4.450000 31.150000 27.590000
10277  1  2 0.0000  4.450000 31.150000 34.710000
10278  1  2 0.0000  4.450000 31.150000 41.830000
10279  1  2 0.0000  4.450000 31.150000 48.950000
10280  1  2 0.0000  4.450000 31.150000 56.070000
10281  1  2 0.0000  4.450000 38.270000  6.230000
10282  1  2 0.0000  4.450000 38.270000 13.350000
10283  1  2 0.0000  4.450000 38.270000 20.470000
10284  1  2 0.0000  4.450000 38.270000 27.590000
10285  1  2 0.0000  4.450000 38.270000 34.710000
10286  1  2 0.0000  4.450000 38.270000 41.830000
10287  1  2 0.0000  4.450000 38.270000 48.950000
10288  1  2 0.0000  4.450000 38.270000 56.070000
10289  1  2 0.0000  4.450000 45.390000  6.230000
10290  1  2 0.0000  4.450000 45.390000 13.350000
10291  1  2 0.0000  4.450000 45.390000 20.470000
10292  1  2 0.0000  4.450000 45.390000 27.590000
10293  1  2 0.0000  4.450000 45.390000 34.710000
10294  1  2 0.0000  4.450000 45.390000 41.830000
10295  1  2 0.0000  4.450000 45.390000 48.950000
10296  1  2 0.0000  4.450000 45.390000 56.070000
10297  1  2 0.0000  4.450000 52.510000  6.230000
10298  1  2 0.0000  4.450000 52.510000 13.350000
10299  1  2 0.0000  4.450000 52.510000 20.470000
10300  1  2 0.0000  4.450000 52.510000 27.590000
10301  1  2 0.0000  4.450000 52.510000 34.710000
10302  1  2 0.0000  4.450000 52.510000 41.830000
10303  1  2 0.0000  4.450000 52.510000 48.950000
10304  1  2 0.0000  4.450000 52.510000 56.070000
10305  1  2 0.0000 11.570000  2.670000  6.230000
10306  1  2 0.0000 11.570000  2.670000 13.350000
10307  1  2 0.0000 11.570000  2.670000 20.470000
10308  1  2 0.0000 11.570000  2.670000 27.590000
10309  1  2 0.0000 11.570000  2.670000 34.710000
10310  1  2 0.0000 11.570000  2.670000 41.830000
10311  1  2 0.0000 11.570000  2.670000 48.950000
10312  1  2 0.0000 11.570000  2.670000 56.070000
10313  1  2 0.0000 11.570000  9.790000  6.230000
10314  1  2 0.0000 11.570000  9.790000 13.350000
10315  1  2 0.0000 11.570000  9.790000 20.470000
10316  1  2 0.0000 11.570000  9.790000 27.590000
10317  1  2 0.0000 11.570000  9.790000 34.710000
10318  1  2 0.0000 11.570000  9.790000 41.830000
10319  1  2 0.0000 11.570000  9.790000 48.950000
10320  1  2 0.0000 11.570000  9.790000 56.070000
10321  1  2 0.0000 11.570000 16.910000  6.230000
10322  1  2 0.0000 11.570000 16.910000 13.350000
10323  1  2 0.0000 11.570000 16.910000 20.470000
10324  1  2 0.0000 11.570000 16.910000 27.590000
10325  1  2 0.0000 11.570000 16.910000 34.710000
10326  1  2 0.0000 11.570000 16.910000 41.830000
10327  1  2 0.0000 11.570000 16.910000 48.950000
10328  1  2 0.0000 11.570000 16.910000 56.070000
10329  1  2 0.0000 11.570000 24.030000  6.230000
10330  1  2 0.0000 11.570000 24.030000 13.350000
10331  1  2 0.0000 11.570000 24.030000 20.470000
10332  1  2 0.0000 11.570000 24.030000 27.590000
10333  1  2 0.0000 11.570000 24.030000 34.710000
10334  1  2 0.0000 11.570000 24.030000 41.830000
10335  1  2 0.0000 11.570000 24.030000 48.950000
10336  1  2 0.0000 11.570000 24.030000 56.070000
10337  1  2 0.0000 11.570000 31.150000  6.230000
10338  1  2 0.0000 11.570000 31.150000 13.350000
10339  1  2 0.0000 11.570000 31.150000 20.470000
10340  1  2 0.0000 11.570000 31.150000 27.590000
10341  1  2 0.0000 11.570000 31.150000 34.710000
10342  1  2 0.0000 11.570000 31.150000 41.830000
10343  1  2 0.0000 11.570000 31.150000 48.950000
10344  1  2 0.0000 11.570000 31.150000 56.070000
10345  1  2 0.0000 11.570000 38.270000  6.230000
10346  1  2 0.0000 11.570000 38.270000 13.350000
10347  1  2 0.0000 11.570000 38.270000 20.470000
10348  1  2 0.0000 11.570000 38.270000 27.590000
10349  1  2 0.0000 11.570000 38.270000 34.710000
10350  1  2 0.0000 11.570000 38.270000 41.830000
10351  1  2 0.0000 11.570000 38.270000 48.950000
10352  1  2 0.0000 11.570000 38.270000 56.070000
10353  1  2 0.0000 11.570000 45.390000  6.230000
10354  1  2 0.0000 11.570000 45.390000 13.350000
10355  1  2 0.0000 11.570000 45.390000 20.470000
10356  1  2 0.0000 11.570000 45.390000 27.590000
10357  1  2 0.0000 11.570000 45.390000 34.710000
10358  1  2 0.0000 11.570000 45.390000 41.830000
10359  1  2 0.0000 11.570000 45.390000 48.950000
10360  1  2 0.0000 11.570000 45.390000 56.070000
10361  1  2 0.0000 11.570000 52.510000  6.230000
10362  1  2 0.0000 11.570000 52.510000 13.350000
10363  1  2 0.0000 11.570000 52.510000 20.470000
10364  1  2 0.0000 11.570000 52.510000 27.590000
10365  1  2 0.0000 11.570000 52.510000 34.710000
10366  1  2 0.0000 11.570000 52.510000 41.830000
10367  1  2 0.0000 11.570000 52.510000 48.950000
10368  1  2 0.0000 11.570000 52.510000 56.070000
10369  1  2 0.0000 18.690000  2.670000  6.230000
10370  1  2 0.0000 18.690000  2.670000 13.350000
10371  1  2 0.0000 18.690000  2.670000 20.470000
10372  1  2 0.0000 18.690000  2.670000 27.590000
10373  1  2 0.0000 18.690000  2.670000 34.710000
10374  1  2 0.0000 18.690000  2.670000 41.830000
10375  1  2 0.0000 18.690000  2.670000 48.950000
10376  1  2 0.0000 18.690000  2.670000 56.070000
10377  1  2 0.0000 18.690000  9.790000  6.230000
10378  1  2 0.0000 18.690000  9.790000 13.350000
10379  1  2 0.0000 18.690000  9.790000 20.470000
10380  1  2 0.0000 18.690000  9.790000 27.590000
10381  1  2 0.0000 18.690000  9.790000 34.710000
10382  1  2 0.0000 18.690000  9.790000 41.830000
10383  1  2 0.0000 18.690000  9.790000 48.950000
10384  1  2 0.0000 18.690000  9.790000 56.070000
10385  1  2 0.0000 18.690000 16.910000  6.230000
10386  1  2 0.0000 18.690000 16.910000 13.350000
10387  1  2 0.0000 18.690000 16.910000 20.470000
10388  1  2 0.0000 18.690000 16.910000 27.590000
10389  1  2 0.0000 18.690000 16.910000 34.710000
10390  1  2 0.0000 18.690000 16.910000 41.830000
10391  1  2 0.0000 18.690000 16.910000 48.950000
10392  1  2 0.0000 18.690000 16.910000 56.070000
10393  1  2 0.0000 18.690000 24.030000  6.230000
10394  1  2 0.0000 18.690000 24.030000 13.350000
10395  1  2 0.0000 18.690000 24.030000 20.470000
10396  1  2 0.0000 18.690000 24.030000 27.590000
10397  1  2 0.0000 18.690000 24.030000 34.710000
10398  1  2 0.0000 18.690000 24.030000 41.830000
10399  1  2 0.0000 18.690000 24.030000 48.950000
10400  1  2 0.0000 18.690000 24.030000 56.070000
10401  1  2 0.0000 18.690000 31.150000  6.230000
10402  1  2 0.0000 18.690000 31.150000 13.350000
10403  1  2 0.0000 18.690000 31.150000 20.470000
10404  1  2 0.0000 18.690000 31.150000 27.590000
10405  1  2 0.0000 18.690000 31.150000 34.710000
10406  1  2 0.0000 18.690000 31.150000 41.830000
10407  1  2 0.0000 18.690000 31.150000 48.950000
10408  1  2 0.0000 18.690000 31.150000 56.070000
10409  1  2 0.0000 18.690000 38.270000  6.230000
10410  1  2 0.0000 18.690000 38.270000 13.350000
10411  1  2 0.0000 18.690000 38.270000 20.470000
10412  1  2 0.0000 18.690000 38.270000 27.590000
10413  1  2 0.0000 18.690000 38.270000 34.710000
10414  1  2 0.0000 18.690000 38.270000 41.830000
10415  1  2 0.0000 18.690000 38.270000 48.950000
10416  1  2 0.0000 18.690000 38.270000 56.070000
10417  1  2 0.0000 18.690000 45.390000  6.230000
10418  1  2 0.0000 18.690000 45.390000 13.350000
10419  1  2 0.0000 18.690000 45.390000 20.470000
10420  1  2 0.0000 18.690000 45.390000 27.590000
10421  1  2 0.0000 18.690000 45.390000 34.710000
10422  1  2 0.0000 18.690000 45.390000 41.830000
10423  1  2 0.0000 18.690000 45.390000 48.950000
10424  1  2 0.0000 18.690000 45.390000 56.070000
10425  1  2 0.0000 18.690000 52.510000  6.230000
10426  1  2 0.0000 18.690000 52.510000 13.350000
10427  1  2 0.0000 18.690000 52.510000 20.470000
10428  1  2 0.0000 18.690000 52.510000 27.590000
10429  1  2 0.0000 18.690000 52.510000 34.710000
10430  1  2 0.0000 18.690000 52.510000 41.830000
10431  1  2 0.0000 18.690000 52.510000 48.950000
10432  1  2 0.0000 18.690000 52.510000 56.070000
10433  1  2 0.0000 25.810000  2.670000  6.230000
10434  1  2 0.0000 25.810000  2.670000 13.350000
10435  1  2 0.0000 25.810000  2.670000 20.470000
10436  1  2 0.0000 25.810000  2.670000 27.590000
10437  1  2 0.0000 25.810000  2.670000 34.710000
10438  1  2 0.0000 25.810000  2.670000 41.830000
10439  1  2 0.0000 25.810000  2.670000 48.950000
10440  1  2 0.0000 25.810000  2.670000 56.070000
10441  1  2 0.0000 25.810000  9.790000  6.230000
10442  1  2 0.0000 25.810000  9.790000 13.350000
10443  1  2 0.0000 25.810000  9.790000 20.470000
10444  1  2 0.0000 25.810000  9.790000 27.590000
10445  1  2 0.0000 25.810000  9.790000 34.710000
10446  1  2 0.0000 25.810000  9.790000 41.830000
10447  1  2 0.0000 25.810000  9.790000 48.950000
10448  1  2 0.0000 25.810000  9.790000 56.070000
10449  1  2 0.0000 25.810000 16.910000  6.230000
10450  1  2 0.0000 25.810000 16.910000 13.350000
10451  1  2 0.0000 25.810000 16.910000 20.470000
10452  1  2 0.0000 25.810000 16.910000 27.590000
10453  1  2 0.0000 25.810000 16.910000 34.710000
10454  1  2 0.0000 25.810000 16.910000 41.830000
10455  1  2 0.0000 25.810000 16.910000 48.950000
10456  1  2 0.0000 25.810000 16.910000 56.070000
10457  1  2 0.0000 25.810000 24.030000  6.230000
10458  1  2 0.0000 25.810000 24.030000 13.350000
10459  1  2 0.0000 25.810000 24.030000 20.470000
10460  1  2 0.0000 25.810000 24.030000 27.590000
10461  1  2 0.0000 25.810000 24.030000 34.710000
10462  1  2 0.0000 25.810000 24.030000 41.830000
10463  1  2 0.0000 25.810000 24.030000 48.950000
10464  1  2 0.0000 25.810000 24.030000 56.070000
10465  1  2 0.0000 25.810000 31.150000  6.230000
10466  1  2 0.0000 25.810000 31.150000 13.350000
10467  1  2 0.0000 25.810000 31.150000 20.470000
10468  1  2 0.0000 25.810000 31.150000 27.590000
10469  1  2 0.0000 25.810000 31.150000 34.710000
10470  1  2 0.0000 25.810000 31.150000 41.830000
10471  1  2 0.0000 25.810000 31.150000 48.950000
10472  1  2 0.0000 25.810000 31.150000 56.070000
10473  1  2 0.0000 25.810000 38.270000  6.230000
10474  1  2 0.0000 25.810000 38.270000 13.350000
10475  1  2 0.0000 25.810000 38.270000 20.470000
10476  1  2 0.0000 25.810000 38.270000 27.590000
10477  1  2 0.0000 25.810000 38.270000 34.710000
10478  1  2 0.0000 25.810000 38.270000 41.830000
10479  1  2 0.0000 25.810000 38.270000 48.950000
10480  1  2 0.0000 25.810000 38.270000 56.070000
10481  1  2 0.0000 25.810000 45.390000  6.230000
10482  1  2 0.0000 25.810000 45.390000 13.350000
10483  1  2 0.0000 25.810000 45.390000 20.470000
10484  1  2 0.0000 25.810000 45.390000 27.590000
10485  1  2 0.0000 25.810000 45.390000 34.710000
10486  1  2 0.0000 25.810000 45.390000 41.830000
10487  1  2 0.0000 25.810000 45.390000 48.950000
10488  1  2 0.0000 25.810000 45.390000 56.070000
10489  1  2 0.0000 25.810000 52.510000  6.230000
10490  1  2 0.0000 25.810000 52.510000 13.350000
10491  1  2 0.0000 25.810000 52.510000 20.470000
10492  1  2 0.0000 25.810000 52.510000 27.590000
10493  1  2 0.0000 25.810000 52.510000 34.710000
10494  1  2 0.0000 25.810000 52.510000 41.830000
10495  1  2 0.0000 25.810000 52.510000 48.950000
10496  1  2 0.0000 25.810000 52.510000 56.070000
10497  1  2 0.0000 32.930000  2.670000  6.230000
10498  1  2 0.0000 32.930000  2.670000 13.350000
10499  1  2 0.0000 32.930000  2.670000 20.470000
10500  1  2 0.0000 32.930000  2.670000 27.590000
10501  1  2 0.0000 32.930000  2.670000 34.710000
10502  1  2 0.0000 32.930000  2.670000 41.830000
10503  1  2 0.0000 32.930000  2.670000 48.950000
10504  1  2 0.0000 32.930000  2.670000 56.070000
10505  1  2 0.0000 32.930000  9.790000  6.230000
10506  1  2 0.0000 32.930000  9.790000 13.350000
10507  1  2 0.0000 32.930000  9.790000 20.470000
10508  1  2 0.0000 32.930000  9.790000 27.590000
10509  1  2 0.0000 32.930000  9.790000 34.710000
10510  1  2 0.0000 32.930000  9.790000 41.830000
10511  1  2 0.0000 32.930000  9.790000 48.950000
10512  1  2 0.0000 32.930000  9.790000 56.070000
10513  1  2 0.0000 32.930000 16.910000  6.230000
10514  1  2 0.0000 32.930000 16.910000 13.350000
10515  1  2 0.0000 32.930000 16.910000 20.470000
10516  1  2 0.0000 32.930000 16.910000 27.590000
10517  1  2 0.0000 32.930000 16.910000 34.710000
10518  1  2 0.0000 32.930000 16.910000 41.830000
10519  1  2 0.0000 32.930000 16.910000 48.950000
10520  1  2 0.0000 32.930000 16.910000 56.070000
10521  1  2 0.0000 32.930000 24.030000  6.230000
10522  1  2 0.0000 32.930000 24.030000 13.350000
10523  1  2 0.0000 32.930000 24.030000 20.470000
10524  1  2 0.0000 32.930000 24.030000 27.590000
10525  1  2 0.0000 32.930000 24.030000 34.710000
10526  1  2 0.0000 32.930000 24.030000 41.830000
10527  1  2 0.0000 32.930000 24.030000 48.950000
10528  1  2 0.0000 32.930000 24.030000 56.070000
10529  1  2 0.0000 32.930000 31.150000  6.230000
10530  1  2 0.0000 32.930000 31.150000 13.350000
10531  1  2 0.0000 32.930000 31.150000 20.470000
10532  1  2 0.0000 32.930000 31.150000 27.590000
10533  1  2 0.0000 32.930000 31.150000 34.710000
10534  1  2 0.0000 32.930000 31.150000 41.830000
10535  1  2 0.0000 32.930000 31.150000 48.950000
10536  1  2 0.0000 32.930000 31.150000 56.070000
10537  1  2 0.0000 32.930000 38.270000  6.230000
10538  1  2 0.0000 32.930000 38.270000 13.350000
10539  1  2 0.0000 32.930000 38.270000 20.470000
10540  1  2 0.0000 32.930000 38.270000 27.590000
10541  1  2 0.0000 32.930000 38.270000 34.710000
10542  1  2 0.0000 32.930000 38.270000 41.830000
10543  1  2 0.0000 32.930000 38.270000 48.950000
10544  1  2 0.0000 32.930000 38.270000 56.070000
10545  1  2 0.0000 32.930000 45.390000  6.230000
10546  1  2 0.0000 32.930000 45.390000 13.350000
10547  1  2 0.0000 32.930000 45.390000 20.470000
10548  1  2 0.0000 32.930000 45.390000 27.590000
10549  1  2 0.0000 32.930000 45.390000 34.710000
10550  1  2 0.0000 32.930000 45.390000 41.830000
10551  1  2 0.0000 32.930000 45.390000 48.950000
10552  1  2 0.0000 32.930000 45.390000 56.070000
10553  1  2 0.0000 32.930000 52.510000  6.230000
10554  1  2 0.0000 32.930000 52.510000 13.350000
10555  1  2 0.0000 32.930000 52.510000 20.470000
10556  1  2 0.0000 32.930000 52.510000 27.590000
10557  1  2 0.0000 32.930000 52.510000 34.710000
10558  1  2 0.0000 32.930000 52.510000 41.830000
10559  1  2 0.0000 32.930000 52.510000 48.950000
10560  1  2 0.0000 32.930000 52.510000 56.070000
10561  1  2 0.0000 40.050000  2.670000  6.230000
10562  1  2 0.0000 40.050000  2.670000 13.350000
10563  1  2 0.0000 40.050000  2.670000 20.470000
10564  1  2 0.0000 40.050000  2.670000 27.590000
10565  1  2 0.0000 40.050000  2.670000 34.710000
10566  1  2 0.0000 40.050000  2.670000 41.830000
10567  1  2 0.0000 40.050000  2.670000 48.950000
10568  1  2 0.0000 40.050000  2.670000 56.070000
10569  1  2 0.0000 40.050000  9.790000  6.230000
10570  1  2 0.0000 40.050000  9.790000 13.350000
10571  1  2 0.0000 40.050000  9.790000 20.470000
10572  1  2 0.0000 40.050000  9.790000 27.590000
10573  1  2 0.0000 40.050000  9.790000 34.710000
10574  1  2 0.0000 40.050000  9.790000 41.830000
10575  1  2 0.0000 40.050000  9.790000 48.950000
10576  1  2 0.0000 40.050000  9.790000 56.070000
10577  1  2 0.0000 40.050000 16.910000  6.230000
10578  1  2 0.0000 40.050000 16.910000 13.350000
10579  1  2 0.0000 40.050000 16.910000 20.470000
10580  1  2 0.0000 40.050000 16.910000 27.590000
10581  1  2 0.0000 40.050000 16.910000 34.710000
10582  1  2 0.0000 40.050000 16.910000 41.830000
10583  1  2 0.0000 40.050000 16.910000 48.950000
10584  1  2 0.0000 40.050000 16.910000 56.070000
10585  1  2 0.0000 40.050000 24.030000  6.230000
10586  1  2 0.0000 40.050000 24.030000 13.350000
10587  1  2 0.0000 40.050000 24.030000 20.470000
10588  1  2 0.0000 40.050000 24.030000 27.590000
10589  1  2 0.0000 40.050000 24.030000 34.710000
10590  1  2 0.0000 40.050000 24.030000 41.830000
10591  1  2 0.0000 40.050000 24.030000 48.950000
10592  1  2 0.0000 40.050000 24.030000 56.070000
10593  1  2 0.0000 40.050000 31.150000  6.230000
10594  1  2 0.0000 40.050000 31.150000 13.350000
10595  1  2 0.0000 40.050000 31.150000 20.470000
10596  1  2 0.0000 40.050000 31.150000 27.590000
10597  1  2 0.0000 40.050000 31.150000 34.710000
10598  1  2 0.0000 40.050000 31.150000 41.830000
10599  1  2 0.0000 40.050000 31.150000 48.950000
10600  1  2 0.0000 40.050000 31.150000 56.070000
10601  1  2 0.0000 40.050000 38.270000  6.230000
10602  1  2 0.0000 40.050000 38.270000 13.350000
10603  1  2 0.0000 40.050000 38.270000 20.470000
10604  1  2 0.0000 40.050000 38.270000 27.590000
10605  1  2 0.0000 40.050000 38.270000 34.710000
10606  1  2 0.0000 40.050000 38.270000 41.830000
10607  1  2 0.0000 40.050000 38.270000 48.950000
10608  1  2 0.0000 40.050000 38.270000 56.070000
10609  1  2 0.0000 40.050000 45.390000  6.230000
10610  1  2 0.0000 40.050000 45.390000 13.350000
10611  1  2 0.0000 40.050000 45.390000 20.470000
10612  1  2 0.0000 40.050000 45.390000 27.590000
10613  1  2 0.0000 40.050000 45.390000 34.710000
10614  1  2 0.0000 40.050000 45.390000 41.830000
10615  1  2 0.0000 40.050000 45.390000 48.950000
10616  1  2 0.0000 40.050000 45.390000 56.070000
10617  1  2 0.0000 40.050000 52.510000  6.230000
10618  1  2 0.0000 40.050000 52.510000 13.350000
10619  1  2 0.0000 40.050000 52.510000 20.470000
10620  1  2 0.0000 40.050000 52.510000 27.590000
10621  1  2 0.0000 40.050000 52.510000 34.710000
10622  1  2 0.0000 40.050000 52.510000 41.830000
10623  1  2 0.0000 40.050000 52.510000 48.950000
10624  1  2 0.0000 40.050000 52.510000 56.070000
10625  1  2 0.0000 47.170000  2.670000  6.230000
10626  1  2 0.0000 47.170000  2.670000 13.350000
10627  1  2 0.0000 47.170000  2.670000 20.470000
10628  1  2 0.0000 47.170000  2.670000 27.590000
10629  1  2 0.0000 47.170000  2.670000 34.710000
10630  1  2 0.0000 47.170000  2.670000 41.830000
10631  1  2 0.0000 47.170000  2.670000 48.950000
10632  1  2 0.0000 47.170000  2.670000 56.070000
10633  1  2 0.0000 47.170000  9.790000  6.230000
10634  1  2 0.0000 47.170000  9.790000 13.350000
10635  1  2 0.0000 47.170000  9.790000 20.470000
10636  1  2 0.0000 47.170000  9.790000 27.590000
10637  1  2 0.0000 47.170000  9.790000 34.710000
10638  1  2 0.0000 47.170000  9.790000 41.830000
10639  1  2 0.0000 47.170000  9.790000 48.950000
10640  1  2 0.0000 47.170000  9.790000 56.070000
10641  1  2 0.0000 47.170000 16.910000  6.230000
10642  1  2 0.0000 47.170000 16.910000 13.350000
10643  1  2 0.0000 47.170000 16.910000 20.470000
10644  1  2 0.0000 47.170000 16.910000 27.590000
10645  1  2 0.0000 47.170000 16.910000 34.710000
10646  1  2 0.0000 47.170000 16.910000 41.830000
10647  1  2 0.0000 47.170000 16.910000 48.950000
10648  1  2 0.0000 47.170000 16.910000 56.070000
10649  1  2 0.0000 47.170000 24.030000  6.230000
10650  1  2 0.0000 47.170000 24.030000 13.350000
10651  1  2 0.0000 47.170000 24.030000 20.470000
10652  1  2 0.0000 47.170000 24.030000 27.590000
10653  1  2 0.0000 47.170000 24.030000 34.710000
10654  1  2 0.0000 47.170000 24.030000 41.830000
10655  1  2 0.0000 47.170000 24.030000 48.950000
10656  1  2 0.0000 47.170000 24.030000 56.070000
10657  1  2 0.0000 47.170000 31.150000  6.230000
10658  1  2 0.0000 47.170000 31.150000 13.350000
10659  1  2 0.0000 47.170000 31.150000 20.470000
10660  1  2 0.0000 47.170000 31.150000 27.590000
10661  1  2 0.0000 47.170000 31.150000 34.710000
10662  1  2 0.0000 47.170000 31.150000 41.830000
10663  1  2 0.0000 47.170000 31.150000 48.950000
10664  1  2 0.0000 47.170000 31.150000 56.070000
10665  1  2 0.0000 47.170000 38.270000  6.230000
10666  1  2 0.0000 47.170000 38.270000 13.350000
10667  1  2 0.0000 47.170000 38.270000 20.470000
10668  1  2 0.0000 47.170000 38.270000 27.590000
10669  1  2 0.0000 47.170000 38.270000 34.710000
10670  1  2 0.0000 47.170000 38.270000 41.830000
10671  1  2 0.0000 47.170000 38.270000 48.950000
10672  1  2 0.0000 47.170000 38.270000 56.070000
10673  1  2 0.0000 47.170000 45.390000  6.230000
10674  1  2 0.0000 47.170000 45.390000 13.350000
10675  1  2 0.0000 47.170000 45.390000 20.470000
10676  1  2 0.0000 47.170000 45.390000 27.590000
10677  1  2 0.0000 47.170000 45.390000 34.710000
10678  1  2 0.0000 47.170000 45.390000 41.830000
10679  1  2 0.0000 47.170000 45.390000 48.950000
10680  1  2 0.0000 47.170000 45.390000 56.070000
10681  1  2 0.0000 47.170000 52.510000  6.230000
10682  1  2 0.0000 47.170000 52.510000 13.350000
10683  1  2 0.0000 47.170000 52.510000 20.470000
10684  1  2 0.0000 47.170000 52.510000 27.590000
10685  1  2 0.0000 47.170000 52.510000 34.710000
10686  1  2 0.0000 47.170000 52.510000 41.830000
10687  1  2 0.0000 47.170000 52.510000 48.950000
10688  1  2 0.0000 47.170000 52.510000 56.070000
10689  1  2 0.0000 54.290000  2.670000  6.230000
10690  1  2 0.0000 54.290000  2.670000 13.350000
10691  1  2 0.0000 54.290000  2.670000 20.470000
10692  1  2 0.0000 54.290000  2.670000 27.590000
10693  1  2 0.0000 54.290000  2.670000 34.710000
10694  1  2 0.0000 54.290000  2.670000 41.830000
10695  1  2 0.0000 54.290000  2.670000 48.950000
10696  1  2 0.0000 54.290000  2.670000 56.070000
10697  1  2 0.0000 54.290000  9.790000  6.230000
10698  1  2 0.0000 54.290000  9.790000 13.350000
10699  1  2 0.0000 54.290000  9.790000 20.470000
10700  1  2 0.0000 54.290000  9.790000 27.590000
10701  1  2 0.0000 54.290000  9.790000 34.710000
10702  1  2 0.0000 54.290000  9.790000 41.830000
10703  1  2 0.0000 54.290000  9.790000 48.950000
10704  1  2 0.0000 54.290000  9.790000 56.070000
10705  1  2 0.0000 54.290000 16.910000  6.230000
10706  1  2 0.0000 54.290000 16.910000 13.350000
10707  1  2 0.0000 54.290000 16.910000 20.470000
10708  1  2 0.0000 54.290000 16.910000 27.590000
10709  1  2 0.0000 54.290000 16.910000 34.710000
10710  1  2 0.0000 54.290000 16.910000 41.830000
10711  1  2 0.0000 54.290000 16.910000 48.950000
10712  1  2 0.0000 54.290000 16.910000 56.070000
10713  1  2 0.0000 54.290000 24.030000  6.230000
10714  1  2 0.0000 54.290000 24.030000 13.350000
10715  1  2 0.0000 54.290000 24.030000 20.470000
10716  1  2 0.0000 54.290000 24.030000 27.590000
10717  1  2 0.0000 54.290000 24.030000 34.710000
10718  1  2 0.0000 54.290000 24.030000 41.830000
10719  1  2 0.0000 54.290000 24.030000 48.950000
10720  1  2 0.0000 54.290000 24.030000 56.070000
10721  1  2 0.0000 54.290000 31.150000  6.230000
10722  1  2 0.0000 54.290000 31.150000 13.350000
10723  1  2 0.0000 54.290000 31.150000 20.470000
10724  1  2 0.0000 54.290000 31.150000 27.590000
10725  1  2 0.0000 54.290000 31.150000 34.710000
10726  1  2 0.0000 54.290000 31.150000 41.830000
10727  1  2 0.0000 54.290000 31.150000 48.950000
10728  1  2 0.0000 54.290000 31.150000 56.070000
10729  1  2 0.0000 54.290000 38.270000  6.230000
10730  1  2 0.0000 54.290000 38.270000 13.350000
10731  1  2 0.0000 54.290000 38.270000 20.470000
10732  1  2 0.0000 54.290000 38.270000 27.590000
10733  1  2 0.0000 54.290000 38.270000 34.710000
10734  1  2 0.0000 54.290000 38.270000 41.830000
10735  1  2 0.0000 54.290000 38.270000 48.950000
10736  1  2 0.0000 54.290000 38.270000 56.070000
10737  1  2 0.0000 54.290000 45.390000  6.230000
10738  1  2 0.0000 54.290000 45.390000 13.350000
10739  1  2 0.0000 54.290000 45.390000 20.470000
10740  1  2 0.0000 54.290000 45.390000 27.590000
10741  1  2 0.0000 54.290000 45.390000 34.710000
10742  1  2 0.0000 54.290000 45.390000 41.830000
10743  1  2 0.0000 54.290000 45.390000 48.950000
10744  1  2 0.0000 54.290000 45.390000 56.070000
10745  1  2 0.0000 54.290000 52.510000  6.230000
10746  1  2 0.0000 54.290000 52.510000 13.350000
10747  1  2 0.0000 54.290000 52.510000 20.470000
10748  1  2 0.0000 54.290000 52.510000 27.590000
10749  1  2 0.0000 54.290000 52.510000 34.710000
10750  1  2 0.0000 54.290000 52.510000 41.830000
10751  1  2 0.0000 54.290000 52.510000 48.950000
10752  1  2 0.0000 54.290000 52.510000 56.070000
10753  1  2 0.0000  6.230000  2.670000  4.450000
10754  1  2 0.0000  6.230000  2.670000 11.570000
10755  1  2 0.0000  6.230000  2.670000 18.690000
10756  1  2 0.0000  6.230000  2.670000 25.810000
10757  1  2 0.0000  6.230000  2.670000 32.930000
10758  1  2 0.0000  6.230000  2.670000 40.050000
10759  1  2 0.0000  6.230000  2.670000 47.170000
10760  1  2 0.0000  6.230000  2.670000 54.290000
10761  1  2 0.0000  6.230000  9.790000  4.450000
10762  1  2 0.0000  6.230000  9.790000 11.570000
10763  1  2 0.0000  6.230000  9.790000 18.690000
10764  1  2 0.0000  6.230000  9.790000 25.810000
10765  1  2 0.0000  6.230000  9.790000 32.930000
10766  1  2 0.0000  6.230000  9.790000 40.050000
10767  1  2 0.0000  6.230000  9.790000 47.170000
10768  1  2 0.0000  6.230000  9.790000 54.290000
10769  1  2 0.0000  6.230000 16.910000  4.450000
10770  1  2 0.0000  6.230000 16.910000 11.570000
10771  1  2 0.0000  6.230000 16.910000 18.690000
10772  1  2 0.0000  6.230000 16.910000 25.810000
10773  1  2 0.0000  6.230000 16.910000 32.930000
10774  1  2 0.0000  6.230000 16.910000 40.050000
10775  1  2 0.0000  6.230000 16.910000 47.170000
10776  1  2 0.0000  6.230000 16.910000 54.290000
10777  1  2 0.0000  6.230000 24.030000  4.450000
10778  1  2 0.0000  6.230000 24.030000 11.570000
10779  1  2 0.0000  6.230000 24.030000 18.690000
10780  1  2 0.0000  6.230000 24.030000 25.810000
10781  1  2 0.0000  6.230000 24.030000 32.930000
10782  1  2 0.0000  6.230000 24.030000 40.050000
10783  1  2 0.0000  6.230000 24.030000 47.170000
10784  1  2 0.0000  6.230000 24.030000 54.290000
10785  1  2 0.0000  6.230000 31.150000  4.450000
10786  1  2 0.0000  6.230000 31.150000 11.570000
10787  1  2 0.0000  6.230000 31.150000 18.690000
10788  1  2 0.0000  6.230000 31.150000 25.810000
10789  1  2 0.0000  6.230000 31.150000 32.930000
10790  1  2 0.0000  6.230000 31.150000 40.050000
10791  1  2 0.0000  6.230000 31.150000 47.170000
10792  1  2 0.0000  6.230000 31.150000 54.290000
10793  1  2 0.0000  6.230000 38.270000  4.450000
10794  1  2 0.0000  6.230000 38.270000 11.570000
10795  1  2 0.0000  6.230000 38.270000 18.690000
10796  1  2 0.0000  6.230000 38.270000 25.810000
10797  1  2 0.0000  6.230000 38.270000 32.930000
10798  1  2 0.0000  6.230000 38.270000 40.050000
10799  1  2 0.0000  6.230000 38.270000 47.170000
10800  1  2 0.0000  6.230000 38.270000 54.290000
10801  1  2 0.0000  6.230000 45.390000  4.450000
10802  1  2 0.0000  6.230000 45.390000 11.570000
10803  1  2 0.0000  6.230000 45.390000 18.690000
10804  1  2 0.0000  6.230000 45.390000 25.810000
10805  1  2 0.0000  6.230000 45.390000 32.930000
10806  1  2 0.0000  6.230000 45.390000 40.050000
10807  1  2 0.0000  6.230000 45.390000 47.170000
10808  1  2 0.0000  6.230000 45.390000 54.290000
10809  1  2 0.0000  6.230000 52.510000  4.450000
10810  1  2 0.0000  6.230000 52.510000 11.570000
10811  1  2 0.0000  6.230000 52.510000 18.690000
10812  1  2 0.0000  6.230000 52.510000 25.810000
10813  1  2 0.0000  6.230000 52.510000 32.930000
10814  1  2 0.0000  6.230000 52.510000 40.050000
10815  1  2 0.0000  6.230000 52.510000 47.170000
10816  1  2 0.0000  6.230000 52.510000 54.290000
10817  1  2 0.0000 13.350000  2.670000  4.450000
10818  1  2 0.0000 13.350000  2.670000 11.570000
10819  1  2 0.0000 13.350000  2.670000 18.690000
10820  1  2 0.0000 13.350000  2.670000 25.810000
10821  1  2 0.0000 13.350000  2.670000 32.930000
10822  1  2 0.0000 13.350000  2.670000 40.050000
10823  1  2 0.0000 13.350000  2.670000 47.170000
10824  1  2 0.0000 13.350000  2.670000 54.290000
10825  1  2 0.0000 13.350000  9.790000  4.450000
10826  1  2 0.0000 13.350000  9.790000 11.570000
10827  1  2 0.0000 13.350000  9.790000 18.690000
10828  1  2 0.0000 13.350000  9.790000 25.810000
10829  1  2 0.0000 13.350000  9.790000 32.930000
10830  1  2 0.0000 13.350000  9.790000 40.050000
10831  1  2 0.0000 13.350000  9.790000 47.170000
10832  1  2 0.0000 13.350000  9.790000 54.290000
10833  1  2 0.0000 13.350000 16.910000  4.450000
10834  1  2 0.0000 13.350000 16.910000 11.570000
10835  1  2 0.0000 13.350000 16.910000 18.690000
10836  1  2 0.0000 13.350000 16.910000 25.810000
10837  1  2 0.0000 13.350000 16.910000 32.930000
10838  1  2 0.0000 13.350000 16.910000 40.050000
10839  1  2 0.0000 13.350000 16.910000 47.170000
10840  1  2 0.0000 13.350000 16.910000 54.290000
10841  1  2 0.0000 13.350000 24.030000  4.450000
10842  1  2 0.0000 13.350000 24.030000 11.570000
10843  1  2 0.0000 13.350000 24.030000 18.690000
10844  1  2 0.0000 13.350000 24.030000 25.810000
10845  1  2 0.0000 13.350000 24.030000 32.930000
10846  1  2 0.0000 13.350000 24.030000 40.050000
10847  1  2 0.0000 13.350000 24.030000 47.170000
10848  1  2 0.0000 13.350000 24.030000 54.290000
10849  1  2 0.0000 13.350000 31.150000  4.450000
10850  1  2 0.0000 13.350000 31.150000 11.570000
10851  1  2 0.0000 13.350000 31.150000 18.690000
10852  1  2 0.0000 13.350000 31.150000 25.810000
10853  1  2 0.0000 13.350000 31.150000 32.930000
10854  1  2 0.0000 13.350000 31.150000 40.050000
10855  1  2 0.0000 13.350000 31.150000 47.170000
10856  1  2 0.0000 13.350000 31.150000 54.290000
10857  1  2 0.0000 13.350000 38.270000  4.450000
10858  1  2 0.0000 13.350000 38.270000 11.570000
10859  1  2 0.0000 13.350000 38.270000 18.690000
10860  1  2 0.0000 13.350000 38.270000 25.810000
10861  1  2 0.0000 13.350000 38.270000 32.930000
10862  1  2 0.0000 13.350000 38.270000 40.050000
10863  1  2 0.0000 13.350000 38.270000 47.170000
10864  1  2 0.0000 13.350000 38.270000 54.290000
10865  1  2 0.0000 13.350000 45.390000  4.450000
10866  1  2 0.0000 13.350000 45.390000 11.570000
10867  1  2 0.0000 13.350000 45.390000 18.690000
10868  1  2 0.0000 13.350000 45.390000 25.810000
10869  1  2 0.0000 13.350000 45.390000 32.930000
10870  1  2 0.0000 13.350000 45.390000 40.050000
10871  1  2 0.0000 13.350000 45.390000 47.170000
10872  1  2 0.0000 13.350000 45.390000 54.290000
10873  1  2 0.0000 13.350000 52.510000  4.450000
10874  1  2 0.0000 13.350000 52.510000 11.570000
10875  1  2 0.0000 13.350000 52.510000 18.690000
10876  1  2 0.0000 13.350000 52.510000 25.810000
10877  1  2 0.0000 13.350000 52.510000 32.930000
10878  1  2 0.0000 13.350000 52.510000 40.050000
10879  1  2 0.0000 13.350000 52.510000 47.170000
10880  1  2 0.0000 13.350000 52.510000 54.290000
10881  1  2 0.0000 20.470000  2.670000  4.450000
10882  1  2 0.0000 20.470000  2.670000 11.570000
10883  1  2 0.0000 20.470000  2.670000 18.690000
10884  1  2 0.0000 20.470000  2.670000 25.810000
10885  1  2 0.0000 20.470000  2.670000 32.930000
10886  1  2 0.0000 20.470000  2.670000 40.050000
10887  1  2 0.0000 20.470000  2.670000 47.170000
10888  1  2 0.0000 20.470000  2.670000 54.290000
10889  1  2 0.0000 20.470000  9.790000  4.450000
10890  1  2 0.0000 20.470000  9.790000 11.570000
10891  1  2 0.0000 20.470000  9.790000 18.690000
10892  1  2 0.0000 20.470000  9.790000 25.810000
10893  1  2 0.0000 20.470000  9.790000 32.930000
10894  1  2 0.0000 20.470000  9.790000 40.050000
10895  1  2 0.0000 20.470000  9.790000 47.170000
10896  1  2 0.0000 20.470000  9.790000 54.290000
10897  1  2 0.0000 20.470000 16.910000  4.450000
10898  1  2 0.0000 20.470000 16.910000 11.570000
10899  1  2 0.0000 20.470000 16.910000 18.690000
10900  1  2 0.0000 20.470000 16.910000 25.810000
10901  1  2 0.0000 20.470000 16.910000 32.930000
10902  1  2 0.0000 20.470000 16.910000 40.050000
10903  1  2 0.0000 20.470000 16.910000 47.170000
10904  1  2 0.0000 20.470000 16.910000 54.290000
10905  1  2 0.0000 20.470000 24.030000  4.450000
10906  1  2 0.0000 20.470000 24.030000 11.570000
10907  1  2 0.0000 20.470000 24.030000 18.690000
10908  1  2 0.0000 20.470000 24.030000 25.810000
10909  1  2 0.0000 20.470000 24.030000 32.930000
10910  1  2 0.0000 20.470000 24.030000 40.050000
10911  1  2 0.0000 20.470000 24.030000 47.170000
10912  1  2 0.0000 20.470000 24.030000 54.290000
10913  1  2 0.0000 20.470000 31.150000  4.450000
10914  1  2 0.0000 20.470000 31.150000 11.570000
10915  1  2 0.0000 20.470000 31.150000 18.690000
10916  1  2 0.0000 20.470000 31.150000 25.810000
10917  1  2 0.0000 20.470000 31.150000 32.930000
10918  1  2 0.0000 20.470000 31.150000 40.050000
10919  1  2 0.0000 20.470000 31.150000 47.170000
10920  1  2 0.0000 20.470000 31.150000 54.290000
10921  1  2 0.0000 20.470000 38.270000  4.450000
10922  1  2 0.0000 20.470000 38.270000 11.570000
10923  1  2 0.0000 20.470000 38.270000 18.690000
10924  1  2 0.0000 20.470000 38.270000 25.810000
10925  1  2 0.0000 20.470000 38.270000 32.930000
10926  1  2 0.0000 20.470000 38.270000 40.050000
10927  1  2 0.0000 20.470000 38.270000 47.170000
10928  1  2 0.0000 20.470000 38.270000 54.290000
10929  1  2 0.0000 20.470000 45.390000  4.450000
10930  1  2 0.0000 20.470000 45.390000 11.570000
10931  1  2 0.0000 20.470000 45.390000 18.690000
10932  1  2 0.0000 20.470000 45.390000 25.810000
10933  1  2 0.0000 20.470000 45.390000 32.930000
10934  1  2 0.0000 20.470000 45.390000 40.050000
10935  1  2 0.0000 20.470000 45.390000 47.170000
10936  1  2 0.0000 20.470000 45.390000 54.290000
10937  1  2 0.0000 20.470000 52.510000  4.450000
10938  1  2 0.0000 20.470000 52.510000 11.570000
10939  1  2 0.0000 20.470000 52.510000 18.690000
10940  1  2 0.0000 20.470000 52.510000 25.810000
10941  1  2 0.0000 20.470000 52.510000 32.930000
10942  1  2 0.0000 20.470000 52.510000 40.050000
10943  1  2 0.0000 20.470000 52.510000 47.170000
10944  1  2 0.0000 20.470000 52.510000 54.290000
10945  1  2 0.0000 27.590000  2.670000  4.450000
10946  1  2 0.0000 27.590000  2.670000 11.570000
10947  1  2 0.0000 27.590000  2.670000 18.690000
10948  1  2 0.0000 27.590000  2.670000 25.810000
10949  1  2 0.0000 27.590000  2.670000 32.930000
10950  1  2 0.0000 27.590000  2.670000 40.050000
10951  1  2 0.0000 27.590000  2.670000 47.170000
10952  1  2 0.0000 27.590000  2.670000 54.290000
10953  1  2 0.0000 27.590000  9.790000  4.450000
10954  1  2 0.0000 27.590000  9.790000 11.570000
10955  1  2 0.0000 27.590000  9.790000 18.690000
10956  1  2 0.0000 27.590000  9.790000 25.810000
10957  1  2 0.0000 27.590000  9.790000 32.930000
10958  1  2 0.0000 27.590000  9.790000 40.050000
10959  1  2 0.0000 27.590000  9.790000 47.170000
10960  1  2 0.0000 27.590000  9.790000 54.290000
10961  1  2 0.0000 27.590000 16.910000  4.450000
10962  1  2 0.0000 27.590000 16.910000 11.570000
10963  1  2 0.0000 27.590000 16.910000 18.690000
10964  1  2 0.0000 27.590000 16.910000 25.810000
10965  1  2 0.0000 27.590000 16.910000 32.930000
10966  1  2 0.0000 27.590000 16.910000 40.050000
10967  1  2 0.0000 27.590000 16.910000 47.170000
10968  1  2 0.0000 27.590000 16.910000 54.290000
10969  1  2 0.0000 27.590000 24.030000  4.450000
10970  1  2 0.0000 27.590000 24.030000 11.570000
10971  1  2 0.0000 27.590000 24.030000 18.690000
10972  1  2 0.0000 27.590000 24.030000 25.810000
10973  1  2 0.0000 27.590000 24.030000 32.930000
10974  1  2 0.0000 27.590000 24.030000 40.050000
10975  1  2 0.0000 27.590000 24.030000 47.170000
10976  1  2 0.0000 27.590000 24.030000 54.290000
10977  1  2 0.0000 27.590000 31.150000  4.450000
10978  1  2 0.0000 27.590000 31.150000 11.570000
10979  1  2 0.0000 27.590000 31.150000 18.690000
10980  1  2 0.0000 27.590000 31.150000 25.810000
10981  1  2 0.0000 27.590000 31.150000 32.930000
10982  1  2 0.0000 27.590000 31.150000 40.050000
10983  1  2 0.0000 27.590000 31.150000 47.170000
10984  1  2 0.0000 27.590000 31.150000 54.290000
10985  1  2 0.0000 27.590000 38.270000  4.450000
10986  1  2 0.0000 27.590000 38.270000 11.570000
10987  1  2 0.0000 27.590000 38.270000 18.690000
10988  1  2 0.0000 27.590000 38.270000 25.810000
10989  1  2 0.0000 27.590000 38.270000 32.930000
10990  1  2 0.0000 27.590000 38.270000 40.050000
10991  1  2 0.0000 27.590000 38.270000 47.170000
10992  1  2 0.0000 27.590000 38.270000 54.290000
10993  1  2 0.0000 27.590000 45.390000  4.450000
10994  1  2 0.0000 27.590000 45.390000 11.570000
10995  1  2 0.0000 27.590000 45.390000 18.690000
10996  1  2 0.0000 27.590000 45.390000 25.810000
10997  1  2 0.0000 27.590000 45.390000 32.930000
10998  1  2 0.0000 27.590000 45.390000 40.050000
10999  1  2 0.0000 27.590000 45.390000 47.170000
11000  1  2 0.0000 27.590000 45.390000 54.290000
11001  1  2 0.0000 27.590000 52.510000  4.450000
11002  1  2 0.0000 27.590000 52.510000 11.570000
11003  1  2 0.0000 27.590000 52.510000 18.690000
11004  1  2 0.0000 27.590000 52.510000 25.810000
11005  1  2 0.0000 27.590000 52.510000 32.930000
11006  1  2 0.0000 27.590000 52.510000 40.050000
11007  1  2 0.0000 27.590000 52.510000 47.170000
11008  1  2 0.0000 27.590000 52.510000 54.290000
11009  1  2 0.0000 34.710000  2.670000  4.450000
11010  1  2 0.0000 34.710000  2.670000 11.570000
11011  1  2 0.0000 34.710000  2.670000 18.690000
11012  1  2 0.0000 34.710000  2.670000 25.810000
11013  1  2 0.0000 34.710000  2.670000 32.930000
11014  1  2 0.0000 34.710000  2.670000 40.050000
11015  1  2 0.0000 34.710000  2.670000 47.170000
11016  1  2 0.0000 34.710000  2.670000 54.290000
11017  1  2 0.0000 34.710000  9.790000  4.450000
11018  1  2 0.0000 34.710000  9.790000 11.570000
11019  1  2 0.0000 34.710000  9.790000 18.690000
11020  1  2 0.0000 34.710000  9.790000 25.810000
11021  1  2 0.0000 34.710000  9.790000 32.930000
11022  1  2 0.0000 34.710000  9.790000 40.050000
11023  1  2 0.0000 34.710000  9.790000 47.170000
11024  1  2 0.0000 34.710000  9.790000 54.290000
11025  1  2 0.0000 34.710000 16.910000  4.450000
11026  1  2 0.0000 34.710000 16.910000 11.570000
11027  1  2 0.0000 34.710000 16.910000 18.690000
11028  1  2 0.0000 34.710000 16.910000 25.810000
11029  1  2 0.0000 34.710000 16.910000 32.930000
11030  1  2 0.0000 34.710000 16.910000 40.050000
11031  1  2 0.0000 34.710000 16.910000 47.170000
11032  1  2 0.0000 34.710000 16.910000 54.290000
11033  1  2 0.0000 34.710000 24.030000  4.450000
11034  1  2 0.0000 34.710000 24.030000 11.570000
11035  1  2 0.0000 34.710000 24.030000 18.690000
11036  1  2 0.0000 34.710000 24.030000 25.810000
11037  1  2 0.0000 34.710000 24.030000 32.930000
11038  1  2 0.0000 34.710000 24.030000 40.050000
11039  1  2 0.0000 34.710000 24.030000 47.170000
11040  1  2 0.0000 34.710000 24.030000 54.290000
11041  1  2 0.0000 34.710000 31.150000  4.450000
11042  1  2 0.0000 34.710000 31.150000 11.570000
11043  1  2 0.0000 34.710000 31.150000 18.690000
11044  1  2 0.0000 34.710000 31.150000 25.810000
11045  1  2 0.0000 34.710000 31.150000 32.930000
11046  1  2 0.0000 34.710000 31.150000 40.050000
11047  1  2 0.0000 34.710000 31.150000 47.170000
11048  1  2 0.0000 34.710000 31.150000 54.290000
11049  1  2 0.0000 34.710000 38.270000  4.450000
11050  1  2 0.0000 34.710000 38.270000 11.570000
11051  1  2 0.0000 34.710000 38.270000 18.690000
11052  1  2 0.0000 34.710000 38.270000 25.810000
11053  1  2 0.0000 34.710000 38.270000 32.930000
11054  1  2 0.0000 34.710000 38.270000 40.050000
11055  1  2 0.0000 34.710000 38.270000 47.170000
11056  1  2 0.0000 34.710000 38.270000 54.290000
11057  1  2 0.0000 34.710000 45.390000  4.450000
11058  1  2 0.0000 34.710000 45.390000 11.570000
11059  1  2 0.0000 34.710000 45.390000 18.690000
11060  1  2 0.0000 34.710000 45.390000 25.810000
11061  1  2 0.0000 34.710000 45.390000 32.930000
11062  1  2 0.0000 34.710000 45.390000 40.050000
11063  1  2 0.0000 34.710000 45.390000 47.170000
11064  1  2 0.0000 34.710000 45.390000 54.290000
11065  1  2 0.0000 34.710000 52.510000  4.450000
11066  1  2 0.0000 34.710000 52.510000 11.570000
11067  1  2 0.0000 34.710000 52.510000 18.690000
11068  1  2 0.0000 34.710000 52.510000 25.810000
11069  1  2 0.0000 34.710000 52.510000 32.930000
11070  1  2 0.0000 34.710000 52.510000 40.050000
11071  1  2 0.0000 34.710000 52.510000 47.170000
11072  1  2 0.0000 34.710000 52.510000 54.290000
11073  1  2 0.0000 41.830000  2.670000  4.450000
11074  1  2 0.0000 41.830000  2.670000 11.570000
11075  1  2 0.0000 41.830000  2.670000 18.690000
11076  1  2 0.0000 41.830000  2.670000 25.810000
11077  1  2 0.0000 41.830000  2.670000 32.930000
11078  1  2 0.0000 41.830000  2.670000 40.050000
11079  1  2 0.0000 41.830000  2.670000 47.170000
11080  1  2 0.0000 41.830000  2.670000 54.290000
11081  1  2 0.0000 41.830000  9.790000  4.450000
11082  1  2 0.0000 41.830000  9.790000 11.570000
11083  1  2 0.0000 41.830000  9.790000 18.690000
11084  1  2 0.0000 41.830000  9.790000 25.810000
11085  1  2 0.0000 41.830000  9.790000 32.930000
11086  1  2 0.0000 41.830000  9.790000 40.050000
11087  1  2 0.0000 41.830000  9.790000 47.170000
11088  1  2 0.0000 41.830000  9.790000 54.290000
11089  1  2 0.0000 41.830000 16.910000  4.450000
11090  1  2 0.0000 41.830000 16.910000 11.570000
11091  1  2 0.0000 41.830000 16.910000 18.690000
11092  1  2 0.0000 41.830000 16.910000 25.810000
11093  1  2 0.0000 41.830000 16.910000 32.930000
11094  1  2 0.0000 41.830000 16.910000 40.050000
11095  1  2 0.0000 41.830000 16.910000 47.170000
11096  1  2 0.0000 41.830000 16.910000 54.290000
11097  1  2 0.0000 41.830000 24.030000  4.450000
11098  1  2 0.0000 41.830000 24.030000 11.570000
11099  1  2 0.0000 41.830000 24.030000 18.690000
11100  1  2 0.0000 41.830000 24.030000 25.810000
11101  1  2 0.0000 41.830000 24.030000 32.930000
11102  1  2 0.0000 41.830000 24.030000 40.050000
11103  1  2 0.0000 41.830000 24.030000 47.170000
11104  1  2 0.0000 41.830000 24.030000 54.290000
11105  1  2 0.0000 41.830000 31.150000  4.450000
11106  1  2 0.0000 41.830000 31.150000 11.570000
11107  1  2 0.0000 41.830000 31.150000 18.690000
11108  1  2 0.0000 41.830000 31.150000 25.810000
11109  1  2 0.0000 41.830000 31.150000 32.930000
11110  1  2 0.0000 41.830000 31.150000 40.050000
11111  1  2 0.0000 41.830000 31.150000 47.170000
11112  1  2 0.0000 41.830000 31.150000 54.290000
11113  1  2 0.0000 41.830000 38.270000  4.450000
11114  1  2 0.0000 41.830000 38.270000 11.570000
11115  1  2 0.0000 41.830000 38.270000 18.690000
11116  1  2 0.0000 41.830000 38.270000 25.810000
11117  1  2 0.0000 41.830000 38.270000 32.930000
11118  1  2 0.0000 41.830000 38.270000 40.050000
11119  1  2 0.0000 41.830000 38.270000 47.170000
11120  1  2 0.0000 41.830000 38.270000 54.290000
11121  1  2 0.0000 41.830000 45.390000  4.450000
11122  1  2 0.0000 41.830000 45.390000 11.570000
11123  1  2 0.0000 41.830000 45.390000 18.690000
11124  1  2 0.0000 41.830000 45.390000 25.810000
11125  1  2 0.0000 41.830000 45.390000 32.930000
11126  1  2 0.0000 41.830000 45.390000 40.050000
11127  1  2 0.0000 41.830000 45.390000 47.170000
11128  1  2 0.0000 41.830000 45.390000 54.290000
11129  1  2 0.0000 41.830000 52.510000  4.450000
11130  1  2 0.0000 41.830000 52.510000 11.570000
11131  1  2 0.0000 41.830000 52.510000 18.690000
11132  1  2 0.0000 41.830000 52.510000 25.810000
11133  1  2 0.0000 41.830000 52.510000 32.930000
11134  1  2 0.0000 41.830000 52.510000 40.050000
11135  1  2 0.0000 41.830000 52.510000 47.170000
11136  1  2 0.0000 41.830000 52.510000 54.290000
11137  1  2 0.0000 48.950000  2.670000  4.450000
11138  1  2 0.0000 48.950000  2.670000 11.570000
11139  1  2 0.0000 48.950000  2.670000 18.690000
11140  1  2 0.0000 48.950000  2.670000 25.810000
11141  1  2 0.0000 48.950000  2.670000 32.930000
11142  1  2 0.0000 48.950000  2.670000 40.050000
11143  1  2 0.0000 48.950000  2.670000 47.170000
11144  1  2 0.0000 48.950000  2.670000 54.290000
11145  1  2 0.0000 48.950000  9.790000  4.450000
11146  1  2 0.0000 48.950000  9.790000 11.570000
11147  1  2 0.0000 48.950000  9.790000 18.690000
11148  1  2 0.0000 48.950000  9.790000 25.810000
11149  1  2 0.0000 48.950000  9.790000 32.930000
11150  1  2 0.0000 48.950000  9.790000 40.050000
11151  1  2 0.0000 48.950000  9.790000 47.170000
11152  1  2 0.0000 48.950000  9.790000 54.290000
11153  1  2 0.0000 48.950000 16.910000  4.450000
11154  1  2 0.0000 48.950000 16.910000 11.570000
11155  1  2 0.0000 48.950000 16.910000 18.690000
11156  1  2 0.0000 48.950000 16.910000 25.810000
11157  1  2 0.0000 48.950000 16.910000 32.930000
11158  1  2 0.0000 48.950000 16.910000 40.050000
11159  1  2 0.0000 48.950000 16.910000 47.170000
11160  1  2 0.0000 48.950000 16.910000 54.290000
11161  1  2 0.0000 48.950000 24.030000  4.450000
11162  1  2 0.0000 48.950000 24.030000 11.570000
11163  1  2 0.0000 48.950000 24.030000 18.690000
11164  1  2 0.0000 48.950000 24.030000 25.810000
11165  1  2 0.0000 48.950000 24.030000 32.930000
11166  1  2 0.0000 48.950000 24.030000 40.050000
11167  1  2 0.0000 48.950000 24.030000 47.170000
11168  1  2 0.0000 48.950000 24.030000 54.290000
11169  1  2 0.0000 48.950000 31.150000  4.450000
11170  1  2 0.0000 48.950000 31.150000 11.570000
11171  1  2 0.0000 48.950000 31.150000 18.690000
11172  1  2 0.0000 48.950000 31.150000 25.810000
11173  1  2 0.0000 48.950000 31.150000 32.930000
11174  1  2 0.0000 48.950000 31.150000 40.050000
11175  1  2 0.0000 48.950000 31.150000 47.170000
11176  1  2 0.0000 48.950000 31.150000 54.290000
11177  1  2 0.0000 48.950000 38.270000  4.450000
11178  1  2 0.0000 48.950000 38.270000 11.570000
11179  1  2 0.0000 48.950000 38.270000 18.690000
11180  1  2 0.0000 48.950000 38.270000 25.810000
11181  1  2 0.0000 48.950000 38.270000 32.930000
11182  1  2 0.0000 48.950000 38.270000 40.050000
11183  1  2 0.0000 48.950000 38.270000 47.170000
11184  1  2 0.0000 48.950000 38.270000 54.290000
11185  1  2 0.0000 48.950000 45.390000  4.450000
11186  1  2 0.0000 48.950000 45.390000 11.570000
11187  1  2 0.0000 48.950000 45.390000 18.690000
11188  1  2 0.0000 48.950000 45.390000 25.810000
11189  1  2 0.0000 48.950000 45.390000 32.930000
11190  1  2 0.0000 48.950000 45.390000 40.050000
11191  1  2 0.0000 48.950000 45.390000 47.170000
11192  1  2 0.0000 48.950000 45.390000 54.290000
11193  1  2 0.0000 48.950000 52.510000  4.450000
11194  1  2 0.0000 48.950000 52.510000 11.570000
11195  1  2 0.0000 48.950000 52.510000 18.690000
11196  1  2 0.0000 48.950000 52.510000 25.810000
11197  1  2 0.0000 48.950000 52.510000 32.930000
11198  1  2 0.0000 48.950000 52.510000 40.050000
11199  1  2 0.0000 48.950000 52.510000 47.170000
11200  1  2 0.0000 48.950000 52.510000 54.290000
11201  1  2 0.0000 56.070000  2.670000  4.450000
11202  1  2 0.0000 56.070000  2.670000 11.570000
11203  1  2 0.0000 56.070000  2.670000 18.690000
11204  1  2 0.0000 56.070000  2.670000 25.810000
11205  1  2 0.0000 56.070000  2.670000 32.930000
11206  1  2 0.0000 56.070000  2.670000 40.050000
11207  1  2 0.0000 56.070000  2.670000 47.170000
11208  1  2 0.0000 56.070000  2.670000 54.290000
11209  1  2 0.0000 56.070000  9.790000  4.450000
11210  1  2 0.0000 56.070000  9.790000 11.570000
11211  1  2 0.0000 56.070000  9.790000 18.690000
11212  1  2 0.0000 56.070000  9.790000 25.810000
11213  1  2 0.0000 56.070000  9.790000 32.930000
11214  1  2 0.0000 56.070000  9.790000 40.050000
11215  1  2 0.0000 56.070000  9.790000 47.170000
11216  1  2 0.0000 56.070000  9.790000 54.290000
11217  1  2 0.0000 56.070000 16.910000  4.450000
11218  1  2 0.0000 56.070000 16.910000 11.570000
11219  1  2 0.0000 56.070000 16.910000 18.690000
11220  1  2 0.0000 56.070000 16.910000 25.810000
11221  1  2 0.0000 56.070000 16.910000 32.930000
11222  1  2 0.0000 56.070000 16.910000 40.050000
11223  1  2 0.0000 56.070000 16.910000 47.170000
11224  1  2 0.0000 56.070000 16.910000 54.290000
11225  1  2 0.0000 56.070000 24.030000  4.450000
11226  1  2 0.0000 56.070000 24.030000 11.570000
11227  1  2 0.0000 56.070000 24.030000 18.690000
11228  1  2 0.0000 56.070000 24.030000 25.810000
11229  1  2 0.0000 56.070000 24.030000 32.930000
11230  1  2 0.0000 56.070000 24.030000 40.050000
11231  1  2 0.0000 56.070000 24.030000 47.170000
11232  1  2 0.0000 56.070000 24.030000 54.290000
11233  1  2 0.0000 56.070000 31.150000  4.450000
11234  1  2 0.0000 56.070000 31.150000 11.570000
11235  1  2 0.0000 56.070000 31.150000 18.690000
11236  1  2 0.0000 56.070000 31.150000 25.810000
11237  1  2 0.0000 56.070000 31.150000 32.930000
11238  1  2 0.0000 56.070000 31.150000 40.050000
11239  1  2 0.0000 56.070000 31.150000 47.170000
11240  1  2 0.0000 56.070000 31.150000 54.290000
11241  1  2 0.0000 56.070000 38.270000  4.450000
11242  1  2 0.0000 56.070000 38.270000 11.570000
11243  1  2 0.0000 56.070000 38.270000 18.690000
11244  1  2 0.0000 56.070000 38.270000 25.810000
11245  1  2 0.0000 56.070000 38.270000 32.930000
11246  1  2 0.0000 56.070000 38.270000 40.050000
11247  1  2 0.0000 56.070000 38.270000 47.170000
11248  1  2 0.0000 56.070000 38.270000 54.290000
11249  1  2 0.0000 56.070000 45.390000  4.450000
11250  1  2 0.0000 56.070000 45.390000 11.570000
11251  1  2 0.0000 56.070000 45.390000 18.690000
11252  1  2 0.0000 56.070000 45.390000 25.810000
11253  1  2 0.0000 56.070000 45.390000 32.930000
11254  1  2 0.0000 56.070000 45.390000 40.050000
11255  1  2 0.0000 56.070000 45.390000 47.170000
11256  1  2 0.0000 56.070000 45.390000 54.290000
11257  1  2 0.0000 56.070000 52.510000  4.450000
11258  1  2 0.0000 56.070000 52.510000 11.570000
11259  1  2 0.0000 56.070000 52.510000 18.690000
11260  1  2 0.0000 56.070000 52.510000 25.810000
11261  1  2 0.0000 56.070000 52.510000 32.930000
11262  1  2 0.0000 56.070000 52.510000 40.050000
11263  1  2 0.0000 56.070000 52.510000 47.170000
11264  1  2 0.0000 56.070000 52.510000 54.290000
11265  1  2 0.0000  2.670000  6.230000  4.450000
11266  1  2 0.0000  2.670000  6.230000 11.570000
11267  1  2 0.0000  2.670000  6.230000 18.690000
11268  1  2 0.0000  2.670000  6.230000 25.810000
11269  1  2 0.0000  2.670000  6.230000 32.930000
11270  1  2 0.0000  2.670000  6.230000 40.050000
11271  1  2 0.0000  2.670000  6.230000 47.170000
11272  1  2 0.0000  2.670000  6.230000 54.290000
11273  1  2 0.0000  2.670000 13.350000  4.450000
11274  1  2 0.0000  2.670000 13.350000 11.570000
11275  1  2 0.0000  2.670000 13.350000 18.690000
11276  1  2 0.0000  2.670000 13.350000 25.810000
11277  1  2 0.0000  2.670000 13.350000 32.930000
11278  1  2 0.0000  2.670000 13.350000 40.050000
11279  1  2 0.0000  2.670000 13.350000 47.170000
11280  1  2 0.0000  2.670000 13.350000 54.290000
11281  1  2 0.0000  2.670000 20.470000  4.450000
11282  1  2 0.0000  2.670000 20.470000 11.570000
11283  1  2 0.0000  2.670000 20.470000 18.690000
11284  1  2 0.0000  2.670000 20.470000 25.810000
11285  1  2 0.0000  2.670000 20.470000 32.930000
11286  1  2 0.0000  2.670000 20.470000 40.050000
11287  1  2 0.0000  2.670000 20.470000 47.170000
11288  1  2 0.0000  2.670000 20.470000 54.290000
11289  1  2 0.0000  2.670000 27.590000  4.450000
11290  1  2 0.0000  2.670000 27.590000 11.570000
11291  1  2 0.0000  2.670000 27.590000 18.690000
11292  1  2 0.0000  2.670000 27.590000 25.810000
11293  1  2 0.0000  2.670000 27.590000 32.930000
11294  1  2 0.0000  2.670000 27.590000 40.050000
11295  1  2 0.0000  2.670000 27.590000 47.170000
11296  1  2 0.0000  2.670000 27.590000 54.290000
11297  1  2 0.0000  2.670000 34.710000  4.450000
11298  1  2 0.0000  2.670000 34.710000 11.570000
11299  1  2 0.0000  2.670000 34.710000 18.690000
11300  1  2 0.0000  2.670000 34.710000 25.810000
11301  1  2 0.0000  2.670000 34.710000 32.930000
11302  1  2 0.0000  2.670000 34.710000 40.050000
11303  1  2 0.0000  2.670000 34.710000 47.170000
11304  1  2 0.0000  2.670000 34.710000 54.290000
11305  1  2 0.0000  2.670000 41.830000  4.450000
11306  1  2 0.0000  2.670000 41.830000 11.570000
11307  1  2 0.0000  2.670000 41.830000 18.690000
11308  1  2 0.0000  2.670000 41.830000 25.810000
11309  1  2 0.0000  2.670000 41.830000 32.930000
11310  1  2 0.0000  2.670000 41.830000 40.050000
11311  1  2 0.0000  2.670000 41.830000 47.170000
11312  1  2 0.0000  2.670000 41.830000 54.290000
11313  1  2 0.0000  2.670000 48.950000  4.450000
11314  1  2 0.0000  2.670000 48.950000 11.570000
11315  1  2 0.0000  2.670000 48.950000 18.690000
11316  1  2 0.0000  2.670000 48.950000 25.810000
11317  1  2 0.0000  2.670000 48.950000 32.930000
11318  1  2 0.0000  2.670000 48.950000 40.050000
11319  1  2 0.0000  2.670000 48.950000 47.170000
11320  1  2 0.0000  2.670000 48.950000 54.290000
11321  1  2 0.0000  2.670000 56.070000  4.450000
11322  1  2 0.0000  2.670000 56.070000 11.570000
11323  1  2 0.0000  2.670000 56.070000 18.690000
11324  1  2 0.0000  2.670000 56.070000 25.810000
11325  1  2 0.0000  2.670000 56.070000 32.930000
11326  1  2 0.0000  2.670000 56.070000 40.050000
11327  1  2 0.0000  2.670000 56.070000 47.170000
11328  1  2 0.0000  2.670000 56.070000 54.290000
11329  1  2 0.0000  9.790000  6.230000  4.450000
11330  1  2 0.0000  9.790000  6.230000 11.570000
11331  1  2 0.0000  9.790000  6.230000 18.690000
11332  1  2 0.0000  9.790000  6.230000 25.810000
11333  1  2 0.0000  9.790000  6.230000 32.930000
11334  1  2 0.0000  9.790000  6.230000 40.050000
11335  1  2 0.0000  9.790000  6.230000 47.170000
11336  1  2 0.0000  9.790000  6.230000 54.290000
11337  1  2 0.0000  9.790000 13.350000  4.450000
11338  1  2 0.0000  9.790000 13.350000 11.570000
11339  1  2 0.0000  9.790000 13.350000 18.690000
11340  1  2 0.0000  9.790000 13.350000 25.810000
11341  1  2 0.0000  9.790000 13.350000 32.930000
11342  1  2 0.0000  9.790000 13.350000 40.050000
11343  1  2 0.0000  9.790000 13.350000 47.170000
11344  1  2 0.0000  9.790000 13.350000 54.290000
11345  1  2 0.0000  9.790000 20.470000  4.450000
11346  1  2 0.0000  9.790000 20.470000 11.570000
11347  1  2 0.0000  9.790000 20.470000 18.690000
11348  1  2 0.0000  9.790000 20.470000 25.810000
11349  1  2 0.0000  9.790000 20.470000 32.930000
11350  1  2 0.0000  9.790000 20.470000 40.050000
11351  1  2 0.0000  9.790000 20.470000 47.170000
11352  1  2 0.0000  9.790000 20.470000 54.290000
11353  1  2 0.0000  9.790000 27.590000  4.450000
11354  1  2 0.0000  9.790000 27.590000 11.570000
11355  1  2 0.0000  9.790000 27.590000 18.690000
11356  1  2 0.0000  9.790000 27.590000 25.810000
11357  1  2 0.0000  9.790000 27.590000 32.930000
11358  1  2 0.0000  9.790000 27.590000 40.050000
11359  1  2 0.0000  9.790000 27.590000 47.170000
11360  1  2 0.0000  9.790000 27.590000 54.290000
11361  1  2 0.0000  9.790000 34.710000  4.450000
11362  1  2 0.0000  9.790000 34.710000 11.570000
11363  1  2 0.0000  9.790000 34.710000 18.690000
11364  1  2 0.0000  9.790000 34.710000 25.810000
11365  1  2 0.0000  9.790000 34.710000 32.930000
11366  1  2 0.0000  9.790000 34.710000 40.050000
11367  1  2 0.0000  9.790000 34.710000 47.170000
11368  1  2 0.0000  9.790000 34.710000 54.290000
11369  1  2 0.0000  9.790000 41.830000  4.450000
11370  1  2 0.0000  9.790000 41.830000 11.570000
11371  1  2 0.0000  9.790000 41.830000 18.690000
11372  1  2 0.0000  9.790000 41.830000 25.810000
11373  1  2 0.0000  9.790000 41.830000 32.930000
11374  1  2 0.0000  9.790000 41.830000 40.050000
11375  1  2 0.0000  9.790000 41.830000 47.170000
11376  1  2 0.0000  9.790000 41.830000 54.290000
11377  1  2 0.0000  9.790000 48.950000  4.450000
11378  1  2 0.0000  9.790000 48.950000 11.570000
11379  1  2 0.0000  9.790000 48.950000 18.690000
11380  1  2 0.0000  9.790000 48.950000 25.810000
11381  1  2 0.0000  9.790000 48.950000 32.930000
11382  1  2 0.0000  9.790000 48.950000 40.050000
11383  1  2 0.0000  9.790000 48.950000 47.170000
11384  1  2 0.0000  9.790000 48.950000 54.290000
11385  1  2 0.0000  9.790000 56.070000  4.450000
11386  1  2 0.0000  9.790000 56.070000 11.570000
11387  1  2 0.0000  9.790000 56.070000 18.690000
11388  1  2 0.0000  9.790000 56.070000 25.810000
11389  1  2 0.0000  9.790000 56.070000 32.930000
11390  1  2 0.0000  9.790000 56.070000 40.050000
11391  1  2 0.0000  9.790000 56.070000 47.170000
11392  1  2 0.0000  9.790000 56.070000 54.290000
11393  1  2 0.0000 16.910000  6.230000  4.450000
11394  1  2 0.0000 16.910000  6.230000 11.570000
11395  1  2 0.0000 16.910000  6.230000 18.690000
11396  1  2 0.0000 16.910000  6.230000 25.810000
11397  1  2 0.0000 16.910000  6.230000 32.930000
11398  1  2 0.0000 16.910000  6.230000 40.050000
11399  1  2 0.0000 16.910000  6.230000 47.170000
11400  1  2 0.0000 16.910000  6.230000 54.290000
11401  1  2 0.0000 16.910000 13.350000  4.450000
11402  1  2 0.0000 16.910000 13.350000 11.570000
11403  1  2 0.0000 16.910000 13.350000 18.690000
11404  1  2 0.0000 16.910000 13.350000 25.810000
11405  1  2 0.0000 16.910000 13.350000 32.930000
11406  1  2 0.0000 16.910000 13.350000 40.050000
11407  1  2 0.0000 16.910000 13.350000 47.170000
11408  1  2 0.0000 16.910000 13.350000 54.290000
11409  1  2 0.0000 16.910000 20.470000  4.450000
11410  1  2 0.0000 16.910000 20.470000 11.570000
11411  1  2 0.0000 16.910000 20.470000 18.690000
11412  1  2 0.0000 16.910000 20.470000 25.810000
11413  1  2 0.0000 16.910000 20.470000 32.930000
11414  1  2 0.0000 16.910000 20.470000 40.050000
11415  1  2 0.0000 16.910000 20.470000 47.170000
11416  1  2 0.0000 16.910000 20.470000 54.290000
11417  1  2 0.0000 16.910000 27.590000  4.450000
11418  1  2 0.0000 16.910000 27.590000 11.570000
11419  1  2 0.0000 16.910000 27.590000 18.690000
11420  1  2 0.0000 16.910000 27.590000 25.810000
11421  1  2 0.0000 16.910000 27.590000 32.930000
11422  1  2 0.0000 16.910000 27.590000 40.050000
11423  1  2 0.0000 16.910000 27.590000 47.170000
11424  1  2 0.0000 16.910000 27.590000 54.290000
11425  1  2 0.0000 16.910000 34.710000  4.450000
11426  1  2 0.0000 16.910000 34.710000 11.570000
11427  1  2 0.0000 16.910000 34.710000 18.690000
11428  1  2 0.0000 16.910000 34.710000 25.810000
11429  1  2 0.0000 16.910000 34.710000 32.930000
11430  1  2 0.0000 16.910000 34.710000 40.050000
11431  1  2 0.0000 16.910000 34.710000 47.170000
11432  1  2 0.0000 16.910000 34.710000 54.290000
11433  1  2 0.0000 16.910000 41.830000  4.450000
11434  1  2 0.0000 16.910000 41.830000 11.570000
11435  1  2 0.0000 16.910000 41.830000 18.690000
11436  1  2 0.0000 16.910000 41.830000 25.810000
11437  1  2 0.0000 16.910000 41.830000 32.930000
11438  1  2 0.0000 16.910000 41.830000 40.050000
11439  1  2 0.0000 16.910000 41.830000 47.170000
11440  1  2 0.0000 16.910000 41.830000 54.290000
11441  1  2 0.0000 16.910000 48.950000  4.450000
11442  1  2 0.0000 16.910000 48.950000 11.570000
11443  1  2 0.0000 16.910000 48.950000 18.690000
11444  1  2 0.0000 16.910000 48.950000 25.810000
11445  1  2 0.0000 16.910000 48.950000 32.930000
11446  1  2 0.0000 16.910000 48.950000 40.050000
11447  1  2 0.0000 16.910000 48.950000 47.170000
11448  1  2 0.0000 16.910000 48.950000 54.290000
11449  1  2 0.0000 16.910000 56.070000  4.450000
11450  1  2 0.0000 16.910000 56.070000 11.570000
11451  1  2 0.0000 16.910000 56.070000 18.690000
11452  1  2 0.0000 16.910000 56.070000 25.810000
11453  1  2 0.0000 16.910000 56.070000 32.930000
11454  1  2 0.0000 16.910000 56.070000 40.050000
11455  1  2 0.0000 16.910000 56.070000 47.170000
11456  1  2 0.0000 16.910000 56.070000 54.290000
11457  1  2 0.0000 24.030000  6.230000  4.450000
11458  1  2 0.0000 24.030000  6.230000 11.570000
11459  1  2 0.0000 24.030000  6.230000 18.690000
11460  1  2 0.0000 24.030000  6.230000 25.810000
11461  1  2 0.0000 24.030000  6.230000 32.930000
11462  1  2 0.0000 24.030000  6.230000 40.050000
11463  1  2 0.0000 24.030000  6.230000 47.170000
11464  1  2 0.0000 24.030000  6.230000 54.290000
11465  1  2 0.0000 24.030000 13.350000  4.450000
11466  1  2 0.0000 24.030000 13.350000 11.570000
11467  1  2 0.0000 24.030000 13.350000 18.690000
11468  1  2 0.0000 24.030000 13.350000 25.810000
11469  1  2 0.0000 24.030000 13.350000 32.930000
11470  1  2 0.0000 24.030000 13.350000 40.050000
11471  1  2 0.0000 24.030000 13.350000 47.170000
11472  1  2 0.0000 24.030000 13.350000 54.290000
11473  1  2 0.0000 24.030000 20.470000  4.450000
11474  1  2 0.0000 24.030000 20.470000 11.570000
11475  1  2 0.0000 24.030000 20.470000 18.690000
11476  1  2 0.0000 24.030000 20.470000 25.810000
11477  1  2 0.0000 24.030000 20.470000 32.930000
11478  1  2 0.0000 24.030000 20.470000 40.050000
11479  1  2 0.0000 24.030000 20.470000 47.170000
11480  1  2 0.0000 24.030000 20.470000 54.290000
11481  1  2 0.0000 24.030000 27.590000  4.450000
11482  1  2 0.0000 24.030000 27.590000 11.570000
11483  1  2 0.0000 24.030000 27.590000 18.690000
11484  1  2 0.0000 24.030000 27.590000 25.810000
11485  1  2 0.0000 24.030000 27.590000 32.930000
11486  1  2 0.0000 24.030000 27.590000 40.050000
11487  1  2 0.0000 24.030000 27.590000 47.170000
11488  1  2 0.0000 24.030000 27.590000 54.290000
11489  1  2 0.0000 24.030000 34.710000  4.450000
11490  1  2 0.0000 24.030000 34.710000 11.570000
11491  1  2 0.0000 24.030000 34.710000 18.690000
11492  1  2 0.0000 24.030000 34.710000 25.810000
11493  1  2 0.0000 24.030000 34.710000 32.930000
11494  1  2 0.0000 24.030000 34.710000 40.050000
11495  1  2 0.0000 24.030000 34.710000 47.170000
11496  1  2 0.0000 24.030000 34.710000 54.290000
11497  1  2 0.0000 24.030000 41.830000  4.450000
11498  1  2 0.0000 24.030000 41.830000 11.570000
11499  1  2 0.0000 24.030000 41.830000 18.690000
11500  1  2 0.0000 24.030000 41.830000 25.810000
11501  1  2 0.0000 24.030000 41.830000 32.930000
11502  1  2 0.0000 24.030000 41.830000 40.050000
11503  1  2 0.0000 24.030000 41.830000 47.170000
11504  1  2 0.0000 24.030000 41.830000 54.290000
11505  1  2 0.0000 24.030000 48.950000  4.450000
11506  1  2 0.0000 24.030000 48.950000 11.570000
11507  1  2 0.0000 24.030000 48.950000 18.690000
11508  1  2 0.0000 24.030000 48.950000 25.810000
11509  1  2 0.0000 24.030000 48.950000 32.930000
11510  1  2 0.0000 24.030000 48.950000 40.050000
11511  1  2 0.0000 24.030000 48.950000 47.170000
11512  1  2 0.0000 24.030000 48.950000 54.290000
11513  1  2 0.0000 24.030000 56.070000  4.450000
11514  1  2 0.0000 24.030000 56.070000 11.570000
11515  1  2 0.0000 24.030000 56.070000 18.690000
11516  1  2 0.0000 24.030000 56.070000 25.810000
11517  1  2 0.0000 24.030000 56.070000 32.930000
11518  1  2 0.0000 24.030000 56.070000 40.050000
11519  1  2 0.0000 24.030000 56.070000 47.170000
11520  1  2 0.0000 24.030000 56.070000 54.290000
11521  1  2 0.0000 31.150000  6.230000  4.450000
11522  1  2 0.0000 31.150000  6.230000 11.570000
11523  1  2 0.0000 31.150000  6.230000 18.690000
11524  1  2 0.0000 31.150000  6.230000 25.810000
11525  1  2 0.0000 31.150000  6.230000 32.930000
11526  1  2 0.0000 31.150000  6.230000 40.050000
11527  1  2 0.0000 31.150000  6.230000 47.170000
11528  1  2 0.0000 31.150000  6.230000 54.290000
11529  1  2 0.0000 31.150000 13.350000  4.450000
11530  1  2 0.0000 31.150000 13.350000 11.570000
11531  1  2 0.0000 31.150000 13.350000 18.690000
11532  1  2 0.0000 31.150000 13.350000 25.810000
11533  1  2 0.0000 31.150000 13.350000 32.930000
11534  1  2 0.0000 31.150000 13.350000 40.050000
11535  1  2 0.0000 31.150000 13.350000 47.170000
11536  1  2 0.0000 31.150000 13.350000 54.290000
11537  1  2 0.0000 31.150000 20.470000  4.450000
11538  1  2 0.0000 31.150000 20.470000 11.570000
11539  1  2 0.0000 31.150000 20.470000 18.690000
11540  1  2 0.0000 31.150000 20.470000 25.810000
11541  1  2 0.0000 31.150000 20.470000 32.930000
11542  1  2 0.0000 31.150000 20.470000 40.050000
11543  1  2 0.0000 31.150000 20.470000 47.170000
11544  1  2 0.0000 31.150000 20.470000 54.290000
11545  1  2 0.0000 31.150000 27.590000  4.450000
11546  1  2 0.0000 31.150000 27.590000 11.570000
11547  1  2 0.0000 31.150000 27.590000 18.690000
11548  1  2 0.0000 31.150000 27.590000 25.810000
11549  1  2 0.0000 31.150000 27.590000 32.930000
11550  1  2 0.0000 31.150000 27.590000 40.050000
11551  1  2 0.0000 31.150000 27.590000 47.170000
11552  1  2 0.0000 31.150000 27.590000 54.290000
11553  1  2 0.0000 31.150000 34.710000  4.450000
11554  1  2 0.0000 31.150000 34.710000 11.570000
11555  1  2 0.0000 31.150000 34.710000 18.690000
11556  1  2 0.0000 31.150000 34.710000 25.810000
11557  1  2 0.0000 31.150000 34.710000 32.930000
11558  1  2 0.0000 31.150000 34.710000 40.050000
11559  1  2 0.0000 31.150000 34.710000 47.170000
11560  1  2 0.0000 31.150000 34.710000 54.290000
11561  1  2 0.0000 31.150000 41.830000  4.450000
11562  1  2 0.0000 31.150000 41.830000 11.570000
11563  1  2 0.0000 31.150000 41.830000 18.690000
11564  1  2 0.0000 31.150000 41.830000 25.810000
11565  1  2 0.0000 31.150000 41.830000 32.930000
11566  1  2 0.0000 31.150000 41.830000 40.050000
11567  1  2 0.0000 31.150000 41.830000 47.170000
11568  1  2 0.0000 31.150000 41.830000 54.290000
11569  1  2 0.0000 31.150000 48.950000  4.450000
11570  1  2 0.0000 31.150000 48.950000 11.570000
11571  1  2 0.0000 31.150000 48.950000 18.690000
11572  1  2 0.0000 31.150000 48.950000 25.810000
11573  1  2 0.0000 31.150000 48.950000 32.930000
11574  1  2 0.0000 31.150000 48.950000 40.050000
11575  1  2 0.0000 31.150000 48.950000 47.170000
11576  1  2 0.0000 31.150000 48.950000 54.290000
11577  1  2 0.0000 31.150000 56.070000  4.450000
11578  1  2 0.0000 31.150000 56.070000 11.570000
11579  1  2 0.0000 31.150000 56.070000 18.690000
11580  1  2 0.0000 31.150000 56.070000 25.810000
11581  1  2 0.0000 31.150000 56.070000 32.930000
11582  1  2 0.0000 31.150000 56.070000 40.050000
11583  1  2 0.0000 31.150000 56.070000 47.170000
11584  1  2 0.0000 31.150000 56.070000 54.290000
11585  1  2 0.0000 38.270000  6.230000  4.450000
11586  1  2 0.0000 38.270000  6.230000 11.570000
11587  1  2 0.0000 38.270000  6.230000 18.690000
11588  1  2 0.0000 38.270000  6.230000 25.810000
11589  1  2 0.0000 38.270000  6.230000 32.930000
11590  1  2 0.0000 38.270000  6.230000 40.050000
11591  1  2 0.0000 38.270000  6.230000 47.170000
11592  1  2 0.0000 38.270000  6.230000 54.290000
11593  1  2 0.0000 38.270000 13.350000  4.450000
11594  1  2 0.0000 38.270000 13.350000 11.570000
11595  1  2 0.0000 38.270000 13.350000 18.690000
11596  1  2 0.0000 38.270000 13.350000 25.810000
11597  1  2 0.0000 38.270000 13.350000 32.930000
11598  1  2 0.0000 38.270000 13.350000 40.050000
11599  1  2 0.0000 38.270000 13.350000 47.170000
11600  1  2 0.0000 38.270000 13.350000 54.290000
11601  1  2 0.0000 38.270000 20.470000  4.450000
11602  1  2 0.0000 38.270000 20.470000 11.570000
11603  1  2 0.0000 38.270000 20.470000 18.690000
11604  1  2 0.0000 38.270000 20.470000 25.810000
11605  1  2 0.0000 38.270000 20.470000 32.930000
11606  1  2 0.0000 38.270000 20.470000 40.050000
11607  1  2 0.0000 38.270000 20.470000 47.170000
11608  1  2 0.0000 38.270000 20.470000 54.290000
11609  1  2 0.0000 38.270000 27.590000  4.450000
11610  1  2 0.0000 38.270000 27.590000 11.570000
11611  1  2 0.0000 38.270000 27.590000 18.690000
11612  1  2 0.0000 38.270000 27.590000 25.810000
11613  1  2 0.0000 38.270000 27.590000 32.930000
11614  1  2 0.0000 38.270000 27.590000 40.050000
11615  1  2 0.0000 38.270000 27.590000 47.170000
11616  1  2 0.0000 38.270000 27.590000 54.290000
11617  1  2 0.0000 38.270000 34.710000  4.450000
11618  1  2 0.0000 38.270000 34.710000 11.570000
11619  1  2 0.0000 38.270000 34.710000 18.690000
11620  1  2 0.0000 38.270000 34.710000 25.810000
11621  1  2 0.0000 38.270000 34.710000 32.930000
11622  1  2 0.0000 38.270000 34.710000 40.050000
11623  1  2 0.0000 38.270000 34.710000 47.170000
11624  1  2 0.0000 38.270000 34.710000 54.290000
11625  1  2 0.0000 38.270000 41.830000  4.450000
11626  1  2 0.0000 38.270000 41.830000 11.570000
11627  1  2 0.0000 38.270000 41.830000 18.690000
11628  1  2 0.0000 38.270000 41.830000 25.810000
11629  1  2 0.0000 38.270000 41.830000 32.930000
11630  1  2 0.0000 38.270000 41.830000 40.050000
11631  1  2 0.0000 38.270000 41.830000 47.170000
11632  1  2 0.0000 38.270000 41.830000 54.290000
11633  1  2 0.0000 38.270000 48.950000  4.450000
11634  1  2 0.0000 38.270000 48.950000 11.570000
11635  1  2 0.0000 38.270000 48.950000 18.690000
11636  1  2 0.0000 38.270000 48.950000 25.810000
11637  1  2 0.0000 38.270000 48.950000 32.930000
11638  1  2 0.0000 38.270000 48.950000 40.050000
11639  1  2 0.0000 38.270000 48.950000 47.170000
11640  1  2 0.0000 38.270000 48.950000 54.290000
11641  1  2 0.0000 38.270000 56.070000  4.450000
11642  1  2 0.0000 38.270000 56.070000 11.570000
11643  1  2 0.0000 38.270000 56.070000 18.690000
11644  1  2 0.0000 38.270000 56.070000 25.810000
11645  1  2 0.0000 38.270000 56.070000 32.930000
11646  1  2 0.0000 38.270000 56.070000 40.050000
11647  1  2 0.0000 38.270000 56.070000 47.170000
11648  1  2 0.0000 38.270000 56.070000 54.290000
11649  1  2 0.0000 45.390000  6.230000  4.450000
11650  1  2 0.0000 45.390000  6.230000 11.570000
11651  1  2 0.0000 45.390000  6.230000 18.690000
11652  1  2 0.0000 45.390000  6.230000 25.810000
11653  1  2 0.0000 45.390000  6.230000 32.930000
11654  1  2 0.0000 45.390000  6.230000 40.050000
11655  1  2 0.0000 45.390000  6.230000 47.170000
11656  1  2 0.0000 45.390000  6.230000 54.290000
11657  1  2 0.0000 45.390000 13.350000  4.450000
11658  1  2 0.0000 45.390000 13.350000 11.570000
11659  1  2 0.0000 45.390000 13.350000 18.690000
11660  1  2 0.0000 45.390000 13.350000 25.810000
11661  1  2 0.0000 45.390000 13.350000 32.930000
11662  1  2 0.0000 45.390000 13.350000 40.050000
11663  1  2 0.0000 45.390000 13.350000 47.170000
11664  1  2 0.0000 45.390000 13.350000 54.290000
11665  1  2 0.0000 45.390000 20.470000  4.450000
11666  1  2 0.0000 45.390000 20.470000 11.570000
11667  1  2 0.0000 45.390000 20.470000 18.690000
11668  1  2 0.0000 45.390000 20.470000 25.810000
11669  1  2 0.0000 45.390000 20.470000 32.930000
11670  1  2 0.0000 45.390000 20.470000 40.050000
11671  1  2 0.0000 45.390000 20.470000 47.170000
11672  1  2 0.0000 45.390000 20.470000 54.290000
11673  1  2 0.0000 45.390000 27.590000  4.450000
11674  1  2 0.0000 45.390000 27.590000 11.570000
11675  1  2 0.0000 45.390000 27.590000 18.690000
11676  1  2 0.0000 45.390000 27.590000 25.810000
11677  1  2 0.0000 45.390000 27.590000 32.930000
11678  1  2 0.0000 45.390000 27.590000 40.050000
11679  1  2 0.0000 45.390000 27.590000 47.170000
11680  1  2 0.0000 45.390000 27.590000 54.290000
11681  1  2 0.0000 45.390000 34.710000  4.450000
11682  1  2 0.0000 45.390000 34.710000 11.570000
11683  1  2 0.0000 45.390000 34.710000 18.690000
11684  1  2 0.0000 45.390000 34.710000 25.810000
11685  1  2 0.0000 45.390000 34.710000 32.930000
11686  1  2 0.0000 45.390000 34.710000 40.050000
11687  1  2 0.0000 45.390000 34.710000 47.170000
11688  1  2 0.0000 45.390000 34.710000 54.290000
11689  1  2 0.0000 45.390000 41.830000  4.450000
11690  1  2 0.0000 45.390000 41.830000 11.570000
11691  1  2 0.0000 45.390000 41.830000 18.690000
11692  1  2 0.0000 45.390000 41.830000 25.810000
11693  1  2 0.0000 45.390000 41.830000 32.930000
11694  1  2 0.0000 45.390000 41.830000 40.050000
11695  1  2 0.0000 45.390000 41.830000 47.170000
11696  1  2 0.0000 45.390000 41.830000 54.290000
11697  1  2 0.0000 45.390000 48.950000  4.450000
11698  1  2 0.0000 45.390000 48.950000 11.570000
11699  1  2 0.0000 45.390000 48.950000 18.690000
11700  1  2 0.0000 45.390000 48.950000 25.810000
11701  1  2 0.0000 45.390000 48.950000 32.930000
11702  1  2 0.0000 45.390000 48.950000 40.050000
11703  1  2 0.0000 45.390000 48.950000 47.170000
11704  1  2 0.0000 45.390000 48.950000 54.290000
11705  1  2 0.0000 45.390000 56.070000  4.450000
11706  1  2 0.0000 45.390000 56.070000 11.570000
11707  1  2 0.0000 45.390000 56.070000 18.690000
11708  1  2 0.0000 45.390000 56.070000 25.810000
11709  1  2 0.0000 45.390000 56.070000 32.930000
11710  1  2 0.0000 45.390000 56.070000 40.050000
11711  1  2 0.0000 45.390000 56.070000 47.170000
11712  1  2 0.0000 45.390000 56.070000 54.290000
11713  1  2 0.0000 52.510000  6.230000  4.450000
11714  1  2 0.0000 52.510000  6.230000 11.570000
11715  1  2 0.0000 52.510000  6.230000 18.690000
11716  1  2 0.0000 52.510000  6.230000 25.810000
11717  1  2 0.0000 52.510000  6.230000 32.930000
11718  1  2 0.0000 52.510000  6.230000 40.050000
11719  1  2 0.0000 52.510000  6.230000 47.170000
11720  1  2 0.0000 52.510000  6.230000 54.290000
11721  1  2 0.0000 52.510000 13.350000  4.450000
11722  1  2 0.0000 52.510000 13.350000 11.570000
11723  1  2 0.0000 52.510000 13.350000 18.690000
11724  1  2 0.0000 52.510000 13.350000 25.810000
11725  1  2 0.0000 52.510000 13.350000 32.930000
11726  1  2 0.0000 52.510000 13.350000 40.050000
11727  1  2 0.0000 52.510000 13.350000 47.170000
11728  1  2 0.0000 52.510000 13.350000 54.290000
11729  1  2 0.0000 52.510000 20.470000  4.450000
11730  1  2 0.0000 52.510000 20.470000 11.570000
11731  1  2 0.0000 52.510000 20.470000 18.690000
11732  1  2 0.0000 52.510000 20.470000 25.810000
11733  1  2 0.0000 52.510000 20.470000 32.930000
11734  1  2 0.0000 52.510000 20.470000 40.050000
11735  1  2 0.0000 52.510000 20.470000 47.170000
11736  1  2 0.0000 52.510000 20.470000 54.290000
11737  1  2 0.0000 52.510000 27.590000  4.450000
11738  1  2 0.0000 52.510000 27.590000 11.570000
11739  1  2 0.0000 52.510000 27.590000 18.690000
11740  1  2 0.0000 52.510000 27.590000 25.810000
11741  1  2 0.0000 52.510000 27.590000 32.930000
11742  1  2 0.0000 52.510000 27.590000 40.050000
11743  1  2 0.0000 52.510000 27.590000 47.170000
11744  1  2 0.0000 52.510000 27.590000 54.290000
11745  1  2 0.0000 52.510000 34.710000  4.450000
11746  1  2 0.0000 52.510000 34.710000 11.570000
11747  1  2 0.0000 52.510000 34.710000 18.690000
11748  1  2 0.0000 52.510000 34.710000 25.810000
11749  1  2 0.0000 52.510000 34.710000 32.930000
11750  1  2 0.0000 52.510000 34.710000 40.050000
11751  1  2 0.0000 52.510000 34.710000 47.170000
11752  1  2 0.0000 52.510000 34.710000 54.290000
11753  1  2 0.0000 52.510000 41.830000  4.450000
11754  1  2 0.0000 52.510000 41.830000 11.570000
11755  1  2 0.0000 52.510000 41.830000 18.690000
11756  1  2 0.0000 52.510000 41.830000 25.810000
11757  1  2 0.0000 52.510000 41.830000 32.930000
11758  1  2 0.0000 52.510000 41.830000 40.050000
11759  1  2 0.0000 52.510000 41.830000 47.170000
11760  1  2 0.0000 52.510000 41.830000 54.290000
11761  1  2 0.0000 52.510000 48.950000  4.450000
11762  1  2 0.0000 52.510000 48.950000 11.570000
11763  1  2 0.0000 52.510000 48.950000 18.690000
11764  1  2 0.0000 52.510000 48.950000 25.810000
11765  1  2 0.0000 52.510000 48.950000 32.930000
11766  1  2 0.0000 52.510000 48.950000 40.050000
11767  1  2 0.0000 52.510000 48.950000 47.170000
11768  1  2 0.0000 52.510000 48.950000 54.290000
11769  1  2 0.0000 52.510000 56.070000  4.450000
11770  1  2 0.0000 52.510000 56.070000 11.570000
11771  1  2 0.0000 52.510000 56.070000 18.690000
11772  1  2 0.0000 52.510000 56.070000 25.810000
11773  1  2 0.0000 52.510000 56.070000 32.930000
11774  1  2 0.0000 52.510000 56.070000 40.050000
11775  1  2 0.0000 52.510000 56.070000 47.170000
11776  1  2 0.0000 52.510000 56.070000 54.290000
11777  1  2 0.0000  2.670000  2.670000  0.890000
11778  1  2 0.0000  2.670000  2.670000  8.010000
11779  1  2 0.0000  2.670000  2.670000 15.130000
11780  1  2 0.0000  2.670000  2.670000 22.250000
11781  1  2 0.0000  2.670000  2.670000 29.370000
11782  1  2 0.0000  2.670000  2.670000 36.490000
11783  1  2 0.0000  2.670000  2.670000 43.610000
11784  1  2 0.0000  2.670000  2.670000 50.730000
11785  1  2 0.0000  2.670000  9.790000  0.890000
11786  1  2 0.0000  2.670000  9.790000  8.010000
11787  1  2 0.0000  2.670000  9.790000 15.130000
11788  1  2 0.0000  2.670000  9.790000 22.250000
11789  1  2 0.0000  2.670000  9.790000 29.370000
11790  1  2 0.0000  2.670000  9.790000 36.490000
11791  1  2 0.0000  2.670000  9.790000 43.610000
11792  1  2 0.0000  2.670000  9.790000 50.730000
11793  1  2 0.0000  2.670000 16.910000  0.890000
11794  1  2 0.0000  2.670000 16.910000  8.010000
11795  1  2 0.0000  2.670000 16.910000 15.130000
11796  1  2 0.0000  2.670000 16.910000 22.250000
11797  1  2 0.0000  2.670000 16.910000 29.370000
11798  1  2 0.0000  2.670000 16.910000 36.490000
11799  1  2 0.0000  2.670000 16.910000 43.610000
11800  1  2 0.0000  2.670000 16.910000 50.730000
11801  1  2 0.0000  2.670000 24.030000  0.890000
11802  1  2 0.0000  2.670000 24.030000  8.010000
11803  1  2 0.0000  2.670000 24.030000 15.130000
11804  1  2 0.0000  2.670000 24.030000 22.250000
11805  1  2 0.0000  2.670000 24.030000 29.370000
11806  1  2 0.0000  2.670000 24.030000 36.490000
11807  1  2 0.0000  2.670000 24.030000 43.610000
11808  1  2 0.0000  2.670000 24.030000 50.730000
11809  1  2 0.0000  2.670000 31.150000  0.890000
11810  1  2 0.0000  2.670000 31.150000  8.010000
11811  1  2 0.0000  2.670000 31.150000 15.130000
11812  1  2 0.0000  2.670000 31.150000 22.250000
11813  1  2 0.0000  2.670000 31.150000 29.370000
11814  1  2 0.0000  2.670000 31.150000 36.490000
11815  1  2 0.0000  2.670000 31.150000 43.610000
11816  1  2 0.0000  2.670000 31.150000 50.730000
11817  1  2 0.0000  2.670000 38.270000  0.890000
11818  1  2 0.0000  2.670000 38.270000  8.010000
11819  1  2 0.0000  2.670000 38.270000 15.130000
11820  1  2 0.0000  2.670000 38.270000 22.250000
11821  1  2 0.0000  2.670000 38.270000 29.370000
11822  1  2 0.0000  2.670000 38.270000 36.490000
11823  1  2 0.0000  2.670000 38.270000 43.610000
11824  1  2 0.0000  2.670000 38.270000 50.730000
11825  1  2 0.0000  2.670000 45.390000  0.890000
11826  1  2 0.0000  2.670000 45.390000  8.010000
11827  1  2 0.0000  2.670000 45.390000 15.130000
11828  1  2 0.0000  2.670000 45.390000 22.250000
11829  1  2 0.0000  2.670000 45.390000 29.370000
11830  1  2 0.0000  2.670000 45.390000 36.490000
11831  1  2 0.0000  2.670000 45.390000 43.610000
11832  1  2 0.0000  2.670000 45.390000 50.730000
11833  1  2 0.0000  2.670000 52.510000  0.890000
11834  1  2 0.0000  2.670000 52.510000  8.010000
11835  1  2 0.0000  2.670000 52.510000 15.130000
11836  1  2 0.0000  2.670000 52.510000 22.250000
11837  1  2 0.0000  2.670000 52.510000 29.370000
11838  1  2 0.0000  2.670000 52.510000 36.490000
11839  1  2 0.0000  2.670000 52.510000 43.610000
11840  1  2 0.0000  2.670000 52.510000 50.730000
11841  1  2 0.0000  9.790000  2.670000  0.890000
11842  1  2 0.0000  9.790000  2.670000  8.010000
11843  1  2 0.0000  9.790000  2.670000 15.130000
11844  1  2 0.0000  9.790000  2.670000 22.250000
11845  1  2 0.0000  9.790000  2.670000 29.370000
11846  1  2 0.0000  9.790000  2.670000 36.490000
11847  1  2 0.0000  9.790000  2.670000 43.610000
11848  1  2 0.0000  9.790000  2.670000 50.730000
11849  1  2 0.0000  9.790000  9.790000  0.890000
11850  1  2 0.0000  9.790000  9.790000  8.010000
11851  1  2 0.0000  9.790000  9.790000 15.130000
11852  1  2 0.0000  9.790000  9.790000 22.250000
11853  1  2 0.0000  9.790000  9.790000 29.370000
11854  1  2 0.0000  9.790000  9.790000 36.490000
11855  1  2 0.0000  9.790000  9.790000 43.610000
11856  1  2 0.0000  9.790000  9.790000 50.730000
11857  1  2 0.0000  9.790000 16.910000  0.890000
11858  1  2 0.0000  9.790000 16.910000  8.010000
11859  1  2 0.0000  9.790000 16.910000 15.130000
11860  1  2 0.0000  9.790000 16.910000 22.250000
11861  1  2 0.0000  9.790000 16.910000 29.370000
11862  1  2 0.0000  9.790000 16.910000 36.490000
11863  1  2 0.0000  9.790000 16.910000 43.610000
11864  1  2 0.0000  9.790000 16.910000 50.730000
11865  1  2 0.0000  9.790000 24.030000  0.890000
11866  1  2 0.0000  9.790000 24.030000  8.010000
11867  1  2 0.0000  9.790000 24.030000 15.130000
11868  1  2 0.0000  9.790000 24.030000 22.250000
11869  1  2 0.0000  9.790000 24.030000 29.370000
11870  1  2 0.0000  9.790000 24.030000 36.490000
11871  1  2 0.0000  9.790000 24.030000 43.610000
11872  1  2 0.0000  9.790000 24.030000 50.730000
11873  1  2 0.0000  9.790000 31.150000  0.890000
11874  1  2 0.0000  9.790000 31.150000  8.010000
11875  1  2 0.0000  9.790000 31.150000 15.130000
11876  1  2 0.0000  9.790000 31.150000 22.250000
11877  1  2 0.0000  9.790000 31.150000 29.370000
11878  1  2 0.0000  9.790000 31.150000 36.490000
11879  1  2 0.0000  9.790000 31.150000 43.610000
11880  1  2 0.0000  9.790000 31.150000 50.730000
11881  1  2 0.0000  9.790000 38.270000  0.890000
11882  1  2 0.0000  9.790000 38.270000  8.010000
11883  1  2 0.0000  9.790000 38.270000 15.130000
11884  1  2 0.0000  9.790000 38.270000 22.250000
11885  1  2 0.0000  9.790000 38.270000 29.370000
11886  1  2 0.0000  9.790000 38.270000 36.490000
11887  1  2 0.0000  9.790000 38.270000 43.610000
11888  1  2 0.0000  9.790000 38.270000 50.730000
11889  1  2 0.0000  9.790000 45.390000  0.890000
11890  1  2 0.0000  9.790000 45.390000  8.010000
11891  1  2 0.0000  9.790000 45.390000 15.130000
11892  1  2 0.0000  9.790000 45.390000 22.250000
11893  1  2 0.0000  9.790000 45.390000 29.370000
11894  1  2 0.0000  9.790000 45.390000 36.490000
11895  1  2 0.0000  9.790000 45.390000 43.610000
11896  1  2 0.0000  9.790000 45.390000 50.730000
11897  1  2 0.0000  9.790000 52.510000  0.890000
11898  1  2 0.0000  9.790000 52.510000  8.010000
11899  1  2 0.0000  9.790000 52.510000 15.130000
11900  1  2 0.0000  9.790000 52.510000 22.250000
11901  1  2 0.0000  9.790000 52.510000 29.370000
11902  1  2 0.0000  9.790000 52.510000 36.490000
11903  1  2 0.0000  9.790000 52.510000 43.610000
11904  1  2 0.0000  9.790000 52.510000 50.730000
11905  1  2 0.0000 16.910000  2.670000  0.890000
11906  1  2 0.0000 16.910000  2.670000  8.010000
11907  1  2 0.0000 16.910000  2.670000 15.130000
11908  1  2 0.0000 16.910000  2.670000 22.250000
11909  1  2 0.0000 16.910000  2.670000 29.370000
11910  1  2 0.0000 16.910000  2.670000 36.490000
11911  1  2 0.0000 16.910000  2.670000 43.610000
11912  1  2 0.0000 16.910000  2.670000 50.730000
11913  1  2 0.0000 16.910000  9.790000  0.890000
11914  1  2 0.0000 16.910000  9.790000  8.010000
11915  1  2 0.0000 16.910000  9.790000 15.130000
11916  1  2 0.0000 16.910000  9.790000 22.250000
11917  1  2 0.0000 16.910000  9.790000 29.370000
11918  1  2 0.0000 16.910000  9.790000 36.490000
11919  1  2 0.0000 16.910000  9.790000 43.610000
11920  1  2 0.0000 16.910000  9.790000 50.730000
11921  1  2 0.0000 16.910000 16.910000  0.890000
11922  1  2 0.0000 16.910000 16.910000  8.010000
11923  1  2 0.0000 16.910000 16.910000 15.130000
11924  1  2 0.0000 16.910000 16.910000 22.250000
11925  1  2 0.0000 16.910000 16.910000 29.370000
11926  1  2 0.0000 16.910000 16.910000 36.490000
11927  1  2 0.0000 16.910000 16.910000 43.610000
11928  1  2 0.0000 16.910000 16.910000 50.730000
11929  1  2 0.0000 16.910000 24.030000  0.890000
11930  1  2 0.0000 16.910000 24.030000  8.010000
11931  1  2 0.0000 16.910000 24.030000 15.130000
11932  1  2 0.0000 16.910000 24.030000 22.250000
11933  1  2 0.0000 16.910000 24.030000 29.370000
11934  1  2 0.0000 16.910000 24.030000 36.490000
11935  1  2 0.0000 16.910000 24.030000 43.610000
11936  1  2 0.0000 16.910000 24.030000 50.730000
11937  1  2 0.0000 16.910000 31.150000  0.890000
11938  1  2 0.0000 16.910000 31.150000  8.010000
11939  1  2 0.0000 16.910000 31.150000 15.130000
11940  1  2 0.0000 16.910000 31.150000 22.250000
11941  1  2 0.0000 16.910000 31.150000 29.370000
11942  1  2 0.0000 16.910000 31.150000 36.490000
11943  1  2 0.0000 16.910000 31.150000 43.610000
11944  1  2 0.0000 16.910000 31.150000 50.730000
11945  1  2 0.0000 16.910000 38.270000  0.890000
11946  1  2 0.0000 16.910000 38.270000  8.010000
11947  1  2 0.0000 16.910000 38.270000 15.130000
11948  1  2 0.0000 16.910000 38.270000 22.250000
11949  1  2 0.0000 16.910000 38.270000 29.370000
11950  1  2 0.0000 16.910000 38.270000 36.490000
11951  1  2 0.0000 16.910000 38.270000 43.610000
11952  1  2 0.0000 16.910000 38.270000 50.730000
11953  1  2 0.0000 16.910000 45.390000  0.890000
11954  1  2 0.0000 16.910000 45.390000  8.010000
11955  1  2 0.0000 16.910000 45.390000 15.130000
11956  1  2 0.0000 16.910000 45.390000 22.250000
11957  1  2 0.0000 16.910000 45.390000 29.370000
11958  1  2 0.0000 16.910000 45.390000 36.490000
11959  1  2 0.0000 16.910000 45.390000 43.610000
11960  1  2 0.0000 16.910000 45.390000 50.730000
11961  1  2 0.0000 16.910000 52.510000  0.890000
11962  1  2 0.0000 16.910000 52.510000  8.010000
11963  1  2 0.0000 16.910000 52.510000 15.130000
11964  1  2 0.0000 16.910000 52.510000 22.250000
11965  1  2 0.0000 16.910000 52.510000 29.370000
11966  1  2 0.0000 16.910000 52.510000 36.490000
11967  1  2 0.0000 16.910000 52.510000 43.610000
11968  1  2 0.0000 16.910000 52.510000 50.730000
11969  1  2 0.0000 24.030000  2.670000  0.890000
11970  1  2 0.0000 24.030000  2.670000  8.010000
11971  1  2 0.0000 24.030000  2.670000 15.130000
11972  1  2 0.0000 24.030000  2.670000 22.250000
11973  1  2 0.0000 24.030000  2.670000 29.370000
11974  1  2 0.0000 24.030000  2.670000 36.490000
11975  1  2 0.0000 24.030000  2.670000 43.610000
11976  1  2 0.0000 24.030000  2.670000 50.730000
11977  1  2 0.0000 24.030000  9.790000  0.890000
11978  1  2 0.0000 24.030000  9.790000  8.010000
11979  1  2 0.0000 24.030000  9.790000 15.130000
11980  1  2 0.0000 24.030000  9.790000 22.250000
11981  1  2 0.0000 24.030000  9.790000 29.370000
11982  1  2 0.0000 24.030000  9.790000 36.490000
11983  1  2 0.0000 24.030000  9.790000 43.610000
11984  1  2 0.0000 24.030000  9.790000 50.730000
11985  1  2 0.0000 24.030000 16.910000  0.890000
11986  1  2 0.0000 24.030000 16.910000  8.010000
11987  1  2 0.0000 24.030000 16.910000 15.130000
11988  1  2 0.0000 24.030000 16.910000 22.250000
11989  1  2 0.0000 24.030000 16.910000 29.370000
11990  1  2 0.0000 24.030000 16.910000 36.490000
11991  1  2 0.0000 24.030000 16.910000 43.610000
11992  1  2 0.0000 24.030000 16.910000 50.730000
11993  1  2 0.0000 24.030000 24.030000  0.890000
11994  1  2 0.0000 24.030000 24.030000  8.010000
11995  1  2 0.0000 24.030000 24.030000 15.130000
11996  1  2 0.0000 24.030000 24.030000 22.250000
11997  1  2 0.0000 24.030000 24.030000 29.370000
11998  1  2 0.0000 24.030000 24.030000 36.490000
11999  1  2 0.0000 24.030000 24.030000 43.610000
12000  1  2 0.0000 24.030000 24.030000 50.730000
12001  1  2 0.0000 24.030000 31.150000  0.890000
12002  1  2 0.0000 24.030000 31.150000  8.010000
12003  1  2 0.0000 24.030000 31.150000 15.130000
12004  1  2 0.0000 24.030000 31.150000 22.250000
12005  1  2 0.0000 24.030000 31.150000 29.370000
12006  1  2 0.0000 24.030000 31.150000 36.490000
12007  1  2 0.0000 24.030000 31.150000 43.610000
12008  1  2 0.0000 24.030000 31.150000 50.730000
12009  1  2 0.0000 24.030000 38.270000  0.890000
12010  1  2 0.0000 24.030000 38.270000  8.010000
12011  1  2 0.0000 24.030000 38.270000 15.130000
12012  1  2 0.0000 24.030000 38.270000 22.250000
12013  1  2 0.0000 24.030000 38.270000 29.370000
12014  1  2 0.0000 24.030000 38.270000 36.490000
12015  1  2 0.0000 24.030000 38.270000 43.610000
12016  1  2 0.0000 24.030000 38.270000 50.730000
12017  1  2 0.0000 24.030000 45.390000  0.890000
12018  1  2 0.0000 24.030000 45.390000  8.010000
12019  1  2 0.0000 24.030000 45.390000 15.130000
12020  1  2 0.0000 24.030000 45.390000 22.250000
12021  1  2 0.0000 24.030000 45.390000 29.370000
12022  1  2 0.0000 24.030000 45.390000 36.490000
12023  1  2 0.0000 24.030000 45.390000 43.610000
12024  1  2 0.0000 24.030000 45.390000 50.730000
12025  1  2 0.0000 24.030000 52.510000  0.890000
12026  1  2 0.0000 24.030000 52.510000  8.010000
12027  1  2 0.0000 24.030000 52.510000 15.130000
12028  1  2 0.0000 24.030000 52.510000 22.250000
12029  1  2 0.0000 24.030000 52.510000 29.370000
12030  1  2 0.0000 24.030000 52.510000 36.490000
12031  1  2 0.0000 24.030000 52.510000 43.610000
12032  1  2 0.0000 24.030000 52.510000 50.730000
12033  1  2 0.0000 31.150000  2.670000  0.890000
12034  1  2 0.0000 31.150000  2.670000  8.010000
12035  1  2 0.0000 31.150000  2.670000 15.130000
12036  1  2 0.0000 31.150000  2.670000 22.250000
12037  1  2 0.0000 31.150000  2.670000 29.370000
12038  1  2 0.0000 31.150000  2.670000 36.490000
12039  1  2 0.0000 31.150000  2.670000 43.610000
12040  1  2 0.0000 31.150000  2.670000 50.730000
12041  1  2 0.0000 31.150000  9.790000  0.890000
12042  1  2 0.0000 31.150000  9.790000  8.010000
12043  1  2 0.0000 31.150000  9.790000 15.130000
12044  1  2 0.0000 31.150000  9.790000 22.250000
12045  1  2 0.0000 31.150000  9.790000 29.370000
12046  1  2 0.0000 31.150000  9.790000 36.490000
12047  1  2 0.0000 31.150000  9.790000 43.610000
12048  1  2 0.0000 31.150000  9.790000 50.730000
12049  1  2 0.0000 31.150000 16.910000  0.890000
12050  1  2 0.0000 31.150000 16.910000  8.010000
12051  1  2 0.0000 31.150000 16.910000 15.130000
12052  1  2 0.0000 31.150000 16.910000 22.250000
12053  1  2 0.0000 31.150000 16.910000 29.370000
12054  1  2 0.0000 31.150000 16.910000 36.490000
12055  1  2 0.0000 31.150000 16.910000 43.610000
12056  1  2 0.0000 31.150000 16.910000 50.730000
12057  1  2 0.0000 31.150000 24.030000  0.890000
12058  1  2 0.0000 31.150000 24.030000  8.010000
12059  1  2 0.0000 31.150000 24.030000 15.130000
12060  1  2 0.0000 31.150000 24.030000 22.250000
12061  1  2 0.0000 31.150000 24.030000 29.370000
12062  1  2 0.0000 31.150000 24.030000 36.490000
12063  1  2 0.0000 31.150000 24.030000 43.610000
12064  1  2 0.0000 31.150000 24.030000 50.730000
12065  1  2 0.0000 31.150000 31.150000  0.890000
12066  1  2 0.0000 31.150000 31.150000  8.010000
12067  1  2 0.0000 31.150000 31.150000 15.130000
12068  1  2 0.0000 31.150000 31.150000 22.250000
12069  1  2 0.0000 31.150000 31.150000 29.370000
12070  1  2 0.0000 31.150000 31.150000 36.490000
12071  1  2 0.0000 31.150000 31.150000 43.610000
12072  1  2 0.0000 31.150000 31.150000 50.730000
12073  1  2 0.0000 31.150000 38.270000  0.890000
12074  1  2 0.0000 31.150000 38.270000  8.010000
12075  1  2 0.0000 31.150000 38.270000 15.130000
12076  1  2 0.0000 31.150000 38.270000 22.250000
12077  1  2 0.0000 31.150000 38.270000 29.370000
12078  1  2 0.0000 31.150000 38.270000 36.490000
12079  1  2 0.0000 31.150000 38.270000 43.610000
12080  1  2 0.0000 31.150000 38.270000 50.730000
12081  1  2 0.0000 31.150000 45.390000  0.890000
12082  1  2 0.0000 31.150000 45.390000  8.010000
12083  1  2 0.0000 31.150000 45.390000 15.130000
12084  1  2 0.0000 31.150000 45.390000 22.250000
12085  1  2 0.0000 31.150000 45.390000 29.370000
12086  1  2 0.0000 31.150000 45.390000 36.490000
12087  1  2 0.0000 31.150000 45.390000 43.610000
12088  1  2 0.0000 31.150000 45.390000 50.730000
12089  1  2 0.0000 31.150000 52.510000  0.890000
12090  1  2 0.0000 31.150000 52.510000  8.010000
12091  1  2 0.0000 31.150000 52.510000 15.130000
12092  1  2 0.0000 31.150000 52.510000 22.250000
12093  1  2 0.0000 31.150000 52.510000 29.370000
12094  1  2 0.0000 31.150000 52.510000 36.490000
12095  1  2 0.0000 31.150000 52.510000 43.610000
12096  1  2 0.0000 31.150000 52.510000 50.730000
12097  1  2 0.0000 38.270000  2.670000  0.890000
12098  1  2 0.0000 38.270000  2.670000  8.010000
12099  1  2 0.0000 38.270000  2.670000 15.130000
12100  1  2 0.0000 38.270000  2.670000 22.250000
12101  1  2 0.0000 38.270000  2.670000 29.370000
12102  1  2 0.0000 38.270000  2.670000 36.490000
12103  1  2 0.0000 38.270000  2.670000 43.610000
12104  1  2 0.0000 38.270000  2.670000 50.730000
12105  1  2 0.0000 38.270000  9.790000  0.890000
12106  1  2 0.0000 38.270000  9.790000  8.010000
12107  1  2 0.0000 38.270000  9.790000 15.130000
12108  1  2 0.0000 38.270000  9.790000 22.250000
12109  1  2 0.0000 38.270000  9.790000 29.370000
12110  1  2 0.0000 38.270000  9.790000 36.490000
12111  1  2 0.0000 38.270000  9.790000 43.610000
12112  1  2 0.0000 38.270000  9.790000 50.730000
12113  1  2 0.0000 38.270000 16.910000  0.890000
12114  1  2 0.0000 38.270000 16.910000  8.010000
12115  1  2 0.0000 38.270000 16.910000 15.130000
12116  1  2 0.0000 38.270000 16.910000 22.250000
12117  1  2 0.0000 38.270000 16.910000 29.370000
12118  1  2 0.0000 38.270000 16.910000 36.490000
12119  1  2 0.0000 38.270000 16.910000 43.610000
12120  1  2 0.0000 38.270000 16.910000 50.730000
12121  1  2 0.0000 38.270000 24.030000  0.890000
12122  1  2 0.0000 38.270000 24.030000  8.010000
12123  1  2 0.0000 38.270000 24.030000 15.130000
12124  1  2 0.0000 38.270000 24.030000 22.250000
12125  1  2 0.0000 38.270000 24.030000 29.370000
12126  1  2 0.0000 38.270000 24.030000 36.490000
12127  1  2 0.0000 38.270000 24.030000 43.610000
12128  1  2 0.0000 38.270000 24.030000 50.730000
12129  1  2 0.0000 38.270000 31.150000  0.890000
12130  1  2 0.0000 38.270000 31.150000  8.010000
12131  1  2 0.0000 38.270000 31.150000 15.130000
12132  1  2 0.0000 38.270000 31.150000 22.250000
12133  1  2 0.0000 38.270000 31.150000 29.370000
12134  1  2 0.0000 38.270000 31.150000 36.490000
12135  1  2 0.0000 38.270000 31.150000 43.610000
12136  1  2 0.0000 38.270000 31.150000 50.730000
12137  1  2 0.0000 38.270000 38.270000  0.890000
12138  1  2 0.0000 38.270000 38.270000  8.010000
12139  1  2 0.0000 38.270000 38.270000 15.130000
12140  1  2 0.0000 38.270000 38.270000 22.250000
12141  1  2 0.0000 38.270000 38.270000 29.370000
12142  1  2 0.0000 38.270000 38.270000 36.490000
12143  1  2 0.0000 38.270000 38.270000 43.610000
12144  1  2 0.0000 38.270000 38.270000 50.730000
12145  1  2 0.0000 38.270000 45.390000  0.890000
12146  1  2 0.0000 38.270000 45.390000  8.010000
12147  1  2 0.0000 38.270000 45.390000 15.130000
12148  1  2 0.0000 38.270000 45.390000 22.250000
12149  1  2 0.0000 38.270000 45.390000 29.370000
12150  1  2 0.0000 38.270000 45.390000 36.490000
12151  1  2 0.0000 38.270000 45.390000 43.610000
12152  1  2 0.0000 38.270000 45.390000 50.730000
12153  1  2 0.0000 38.270000 52.510000  0.890000
12154  1  2 0.0000 38.270000 52.510000  8.010000
12155  1  2 0.0000 38.270000 52.510000 15.130000
12156  1  2 0.0000 38.270000 52.510000 22.250000
12157  1  2 0.0000 38.270000 52.510000 29.370000
12158  1  2 0.0000 38.270000 52.510000 36.490000
12159  1  2 0.0000 38.270000 52.510000 43.610000
12160  1  2 0.0000 38.270000 52.510000 50.730000
12161  1  2 0.0000 45.390000  2.670000  0.890000
12162  1  2 0.0000 45.390000  2.670000  8.010000
12163  1  2 0.0000 45.390000  2.670000 15.130000
12164  1  2 0.0000 45.390000  2.670000 22.250000
12165  1  2 0.0000 45.390000  2.670000 29.370000
12166  1  2 0.0000 45.390000  2.670000 36.490000
12167  1  2 0.0000 45.390000  2.670000 43.610000
12168  1  2 0.0000 45.390000  2.670000 50.730000
12169  1  2 0.0000 45.390000  9.790000  0.890000
12170  1  2 0.0000 45.390000  9.790000  8.010000
12171  1  2 0.0000 45.390000  9.790000 15.130000
12172  1  2 0.0000 45.390000  9.790000 22.250000
12173  1  2 0.0000 45.390000  9.790000 29.370000
12174  1  2 0.0000 45.390000  9.790000 36.490000
12175  1  2 0.0000 45.390000  9.790000 43.610000
12176  1  2 0.0000 45.390000  9.790000 50.730000
12177  1  2 0.0000 45.390000 16.910000  0.890000
12178  1  2 0.0000 45.390000 16.910000  8.010000
12179  1  2 0.0000 45.390000 16.910000 15.130000
12180  1  2 0.0000 45.390000 16.910000 22.250000
12181  1  2 0.0000 45.390000 16.910000 29.370000
12182  1  2 0.0000 45.390000 16.910000 36.490000
12183  1  2 0.0000 45.390000 16.910000 43.610000
12184  1  2 0.0000 45.390000 16.910000 50.730000
12185  1  2 0.0000 45.390000 24.030000  0.890000
12186  1  2 0.0000 45.390000 24.030000  8.010000
12187  1  2 0.0000 45.390000 24.030000 15.130000
12188  1  2 0.0000 45.390000 24.030000 22.250000
12189  1  2 0.0000 45.390000 24.030000 29.370000
12190  1  2 0.0000 45.390000 24.030000 36.490000
12191  1  2 0.0000 45.390000 24.030000 43.610000
12192  1  2 0.0000 45.390000 24.030000 50.730000
12193  1  2 0.0000 45.390000 31.150000  0.890000
12194  1  2 0.0000 45.390000 31.150000  8.010000
12195  1  2 0.0000 45.390000 31.150000 15.130000
12196  1  2 0.0000 45.390000 31.150000 22.250000
12197  1  2 0.0000 45.390000 31.150000 29.370000
12198  1  2 0.0000 45.390000 31.150000 36.490000
12199  1  2 0.0000 45.390000 31.150000 43.610000
12200  1  2 0.0000 45.390000 31.150000 50.730000
12201  1  2 0.0000 45.390000 38.270000  0.890000
12202  1  2 0.0000 45.390000 38.270000  8.010000
12203  1  2 0.0000 45.390000 38.270000 15.130000
12204  1  2 0.0000 45.390000 38.270000 22.250000
12205  1  2 0.0000 45.390000 38.270000 29.370000
12206  1  2 0.0000 45.390000 38.270000 36.490000
12207  1  2 0.0000 45.390000 38.270000 43.610000
12208  1  2 0.0000 45.390000 38.270000 50.730000
12209  1  2 0.0000 45.390000 45.390000  0.890000
12210  1  2 0.0000 45.390000 45.390000  8.010000
12211  1  2 0.0000 45.390000 45.390000 15.130000
12212  1  2 0.0000 45.390000 45.390000 22.250000
12213  1  2 0.0000 45.390000 45.390000 29.370000
12214  1  2 0.0000 45.390000 45.390000 36.490000
12215  1  2 0.0000 45.390000 45.390000 43.610000
12216  1  2 0.0000 45.390000 45.390000 50.730000
12217  1  2 0.0000 45.390000 52.510000  0.890000
12218  1  2 0.0000 45.390000 52.510000  8.010000
12219  1  2 0.0000 45.390000 52.510000 15.130000
12220  1  2 0.0000 45.390000 52.510000 22.250000
12221  1  2 0.0000 45.390000 52.510000 29.370000
12222  1  2 0.0000 45.390000 52.510000 36.490000
12223  1  2 0.0000 45.390000 52.510000 43.610000
12224  1  2 0.0000 45.390000 52.510000 50.730000
12225  1  2 0.0000 52.510000  2.670000  0.890000
12226  1  2 0.0000 52.510000  2.670000  8.010000
12227  1  2 0.0000 52.510000  2.670000 15.130000
12228  1  2 0.0000 52.510000  2.670000 22.250000
12229  1  2 0.0000 52.510000  2.670000 29.370000
12230  1  2 0.0000 52.510000  2.670000 36.490000
12231  1  2 0.0000 52.510000  2.670000 43.610000
12232  1  2 0.0000 52.510000  2.670000 50.730000
12233  1  2 0.0000 52.510000  9.790000  0.890000
12234  1  2 0.0000 52.510000  9.790000  8.010000
12235  1  2 0.0000 52.510000  9.790000 15.130000
12236  1  2 0.0000 52.510000  9.790000 22.250000
12237  1  2 0.0000 52.510000  9.790000 29.370000
12238  1  2 0.0000 52.510000  9.790000 36.490000
12239  1  2 0.0000 52.510000  9.790000 43.610000
12240  1  2 0.0000 52.510000  9.790000 50.730000
12241  1  2 0.0000 52.510000 16.910000  0.890000
12242  1  2 0.0000 52.510000 16.910000  8.010000
12243  1  2 0.0000 52.510000 16.910000 15.130000
12244  1  2 0.0000 52.510000 16.910000 22.250000
12245  1  2 0.0000 52.510000 16.910000 29.370000
12246  1  2 0.0000 52.510000 16.910000 36.490000
12247  1  2 0.0000 52.510000 16.910000 43.610000
12248  1  2 0.0000 52.510000 16.910000 50.730000
12249  1  2 0.0000 52.510000 24.030000  0.890000
12250  1  2 0.0000 52.510000 24.030000  8.010000
12251  1  2 0.0000 52.510000 24.030000 15.130000
12252  1  2 0.0000 52.510000 24.030000 22.250000
12253  1  2 0.0000 52.510000 24.030000 29.370000
12254  1  2 0.0000 52.510000 24.030000 36.490000
12255  1  2 0.0000 52.510000 24.030000 43.610000
12256  1  2 0.0000 52.510000 24.030000 50.730000
12257  1  2 0.0000 52.510000 31.150000  0.890000
12258  1  2 0.0000 52.510000 31.150000  8.010000
12259  1  2 0.0000 52.510000 31.150000 15.130000
12260  1  2 0.0000 52.510000 31.150000 22.250000
12261  1  2 0.0000 52.510000 31.150000 29.370000
12262  1  2 0.0000 52.510000 31.150000 36.490000
12263  1  2 0.0000 52.510000 31.150000 43.610000
12264  1  2 0.0000 52.510000 31.150000 50.730000
12265  1  2 0.0000 52.510000 38.270000  0.890000
12266  1  2 0.0000 52.510000 38.270000  8.010000
12267  1  2 0.0000 52.510000 38.270000 15.130000
12268  1  2 0.0000 52.510000 38.270000 22.250000
12269  1  2 0.0000 52.510000 38.270000 29.370000
12270  1  2 0.0000 52.510000 38.270000 36.490000
12271  1  2 0.0000 52.510000 38.270000 43.610000
12272  1  2 0.0000 52.510000 38.270000 50.730000
12273  1  2 0.0000 52.510000 45.390000  0.890000
12274  1  2 0.0000 52.510000 45.390000  8.010000
12275  1  2 0.0000 52.510000 45.390000 15.130000
12276  1  2 0.0000 52.510000 45.390000 22.250000
12277  1  2 0.0000 52.510000 45.390000 29.370000
12278  1  2 0.0000 52.510000 45.390000 36.490000
12279  1  2 0.0000 52.510000 45.390000 43.610000
12280  1  2 0.0000 52.510000 45.390000 50.730000
12281  1  2 0.0000 52.510000 52.510000  0.890000
12282  1  2 0.0000 52.510000 52.510000  8.010000
12283  1  2 0.0000 52.510000 52.510000 15.130000
12284  1  2 0.0000 52.510000 52.510000 22.250000
12285  1  2 0.0000 52.510000 52.510000 29.370000
12286  1  2 0.0000 52.510000 52.510000 36.490000
12287  1  2 0.0000 52.510000 52.510000 43.610000
12288  1  2 0.0000 52.510000 52.510000 50.730000

