Generated by pymatgen.io.lammps.data.LammpsData

8046  atoms

   3  atom types

0.000000 58.822800  xlo xhi
0.000000 50.942039  ylo yhi
0.000000 48.589200  zlo zhi

Masses

1  28.08550
2   1.00794
3  15.99940

Atoms

1     1  1 0.0000  2.290658  0.000000  1.799600
2     1  1 0.0000  2.290658  0.000000 17.996000
3     1  1 0.0000  2.290658  0.000000 34.192400
4     1  1 0.0000  2.290658 16.980680  1.799600
5     1  1 0.0000  2.290658 16.980680 17.996000
6     1  1 0.0000  2.290658 16.980680 34.192400
7     1  1 0.0000  2.290658 33.961359  1.799600
8     1  1 0.0000  2.290658 33.961359 17.996000
9     1  1 0.0000  2.290658 33.961359 34.192400
10    1  1 0.0000 21.898258  0.000000  1.799600
11    1  1 0.0000 21.898258  0.000000 17.996000
12    1  1 0.0000 21.898258  0.000000 34.192400
13    1  1 0.0000 41.505858  0.000000  1.799600
14    1  1 0.0000 41.505858  0.000000 17.996000
15    1  1 0.0000 41.505858  0.000000 34.192400
16    1  1 0.0000  2.290658  0.000000  7.198400
17    1  1 0.0000  2.290658  0.000000 23.394800
18    1  1 0.0000  2.290658  0.000000 39.591200
19    1  1 0.0000  2.290658 16.980680  7.198400
20    1  1 0.0000  2.290658 16.980680 23.394800
21    1  1 0.0000  2.290658 16.980680 39.591200
22    1  1 0.0000  2.290658 33.961359  7.198400
23    1  1 0.0000  2.290658 33.961359 23.394800
24    1  1 0.0000  2.290658 33.961359 39.591200
25    1  1 0.0000 21.898258  0.000000  7.198400
26    1  1 0.0000 21.898258  0.000000 23.394800
27    1  1 0.0000 21.898258  0.000000 39.591200
28    1  1 0.0000 41.505858  0.000000  7.198400
29    1  1 0.0000 41.505858  0.000000 23.394800
30    1  1 0.0000 41.505858  0.000000 39.591200
31    1  1 0.0000  2.290658  0.000000 12.597200
32    1  1 0.0000  2.290658  0.000000 28.793600
33    1  1 0.0000  2.290658  0.000000 44.990000
34    1  1 0.0000  2.290658 16.980680 12.597200
35    1  1 0.0000  2.290658 16.980680 28.793600
36    1  1 0.0000  2.290658 16.980680 44.990000
37    1  1 0.0000  2.290658 33.961359 12.597200
38    1  1 0.0000  2.290658 33.961359 28.793600
39    1  1 0.0000  2.290658 33.961359 44.990000
40    1  1 0.0000 21.898258  0.000000 12.597200
41    1  1 0.0000 21.898258  0.000000 28.793600
42    1  1 0.0000 21.898258  0.000000 44.990000
43    1  1 0.0000 41.505858  0.000000 12.597200
44    1  1 0.0000 41.505858  0.000000 28.793600
45    1  1 0.0000 41.505858  0.000000 44.990000
46    1  1 0.0000  7.192558  0.000000  1.799600
47    1  1 0.0000  7.192558  0.000000 17.996000
48    1  1 0.0000  7.192558  0.000000 34.192400
49    1  1 0.0000  7.192558 16.980680  1.799600
50    1  1 0.0000  7.192558 16.980680 17.996000
51    1  1 0.0000  7.192558 16.980680 34.192400
52    1  1 0.0000  7.192558 33.961359  1.799600
53    1  1 0.0000  7.192558 33.961359 17.996000
54    1  1 0.0000  7.192558 33.961359 34.192400
55    1  1 0.0000 26.800158  0.000000  1.799600
56    1  1 0.0000 26.800158  0.000000 17.996000
57    1  1 0.0000 26.800158  0.000000 34.192400
58    1  1 0.0000 46.407758  0.000000  1.799600
59    1  1 0.0000 46.407758  0.000000 17.996000
60    1  1 0.0000 46.407758  0.000000 34.192400
61    1  1 0.0000  7.192558  0.000000  7.198400
62    1  1 0.0000  7.192558  0.000000 23.394800
63    1  1 0.0000  7.192558  0.000000 39.591200
64    1  1 0.0000  7.192558 16.980680  7.198400
65    1  1 0.0000  7.192558 16.980680 23.394800
66    1  1 0.0000  7.192558 16.980680 39.591200
67    1  1 0.0000  7.192558 33.961359  7.198400
68    1  1 0.0000  7.192558 33.961359 23.394800
69    1  1 0.0000  7.192558 33.961359 39.591200
70    1  1 0.0000 26.800158  0.000000  7.198400
71    1  1 0.0000 26.800158  0.000000 23.394800
72    1  1 0.0000 26.800158  0.000000 39.591200
73    1  1 0.0000 46.407758  0.000000  7.198400
74    1  1 0.0000 46.407758  0.000000 23.394800
75    1  1 0.0000 46.407758  0.000000 39.591200
76    1  1 0.0000  7.192558  0.000000 12.597200
77    1  1 0.0000  7.192558  0.000000 28.793600
78    1  1 0.0000  7.192558  0.000000 44.990000
79    1  1 0.0000  7.192558 16.980680 12.597200
80    1  1 0.0000  7.192558 16.980680 28.793600
81    1  1 0.0000  7.192558 16.980680 44.990000
82    1  1 0.0000  7.192558 33.961359 12.597200
83    1  1 0.0000  7.192558 33.961359 28.793600
84    1  1 0.0000  7.192558 33.961359 44.990000
85    1  1 0.0000 26.800158  0.000000 12.597200
86    1  1 0.0000 26.800158  0.000000 28.793600
87    1  1 0.0000 26.800158  0.000000 44.990000
88    1  1 0.0000 46.407758  0.000000 12.597200
89    1  1 0.0000 46.407758  0.000000 28.793600
90    1  1 0.0000 46.407758  0.000000 44.990000
91    1  1 0.0000  4.741608  4.245170  1.799600
92    1  1 0.0000  4.741608  4.245170 17.996000
93    1  1 0.0000  4.741608  4.245170 34.192400
94    1  1 0.0000  4.741608 21.225850  1.799600
95    1  1 0.0000  4.741608 21.225850 17.996000
96    1  1 0.0000  4.741608 21.225850 34.192400
97    1  1 0.0000  4.741608 38.206529  1.799600
98    1  1 0.0000  4.741608 38.206529 17.996000
99    1  1 0.0000  4.741608 38.206529 34.192400
100   1  1 0.0000 24.349208  4.245170  1.799600
101   1  1 0.0000 24.349208  4.245170 17.996000
102   1  1 0.0000 24.349208  4.245170 34.192400
103   1  1 0.0000 43.956808  4.245170  1.799600
104   1  1 0.0000 43.956808  4.245170 17.996000
105   1  1 0.0000 43.956808  4.245170 34.192400
106   1  1 0.0000  4.741608  4.245170  7.198400
107   1  1 0.0000  4.741608  4.245170 23.394800
108   1  1 0.0000  4.741608  4.245170 39.591200
109   1  1 0.0000  4.741608 21.225850  7.198400
110   1  1 0.0000  4.741608 21.225850 23.394800
111   1  1 0.0000  4.741608 21.225850 39.591200
112   1  1 0.0000  4.741608 38.206529  7.198400
113   1  1 0.0000  4.741608 38.206529 23.394800
114   1  1 0.0000  4.741608 38.206529 39.591200
115   1  1 0.0000 24.349208  4.245170  7.198400
116   1  1 0.0000 24.349208  4.245170 23.394800
117   1  1 0.0000 24.349208  4.245170 39.591200
118   1  1 0.0000 43.956808  4.245170  7.198400
119   1  1 0.0000 43.956808  4.245170 23.394800
120   1  1 0.0000 43.956808  4.245170 39.591200
121   1  1 0.0000  4.741608  4.245170 12.597200
122   1  1 0.0000  4.741608  4.245170 28.793600
123   1  1 0.0000  4.741608  4.245170 44.990000
124   1  1 0.0000  4.741608 21.225850 12.597200
125   1  1 0.0000  4.741608 21.225850 28.793600
126   1  1 0.0000  4.741608 21.225850 44.990000
127   1  1 0.0000  4.741608 38.206529 12.597200
128   1  1 0.0000  4.741608 38.206529 28.793600
129   1  1 0.0000  4.741608 38.206529 44.990000
130   1  1 0.0000 24.349208  4.245170 12.597200
131   1  1 0.0000 24.349208  4.245170 28.793600
132   1  1 0.0000 24.349208  4.245170 44.990000
133   1  1 0.0000 43.956808  4.245170 12.597200
134   1  1 0.0000 43.956808  4.245170 28.793600
135   1  1 0.0000 43.956808  4.245170 44.990000
136   1  1 0.0000  2.290658  8.490340  1.799600
137   1  1 0.0000  2.290658  8.490340 17.996000
138   1  1 0.0000  2.290658  8.490340 34.192400
139   1  1 0.0000  2.290658 25.471020  1.799600
140   1  1 0.0000  2.290658 25.471020 17.996000
141   1  1 0.0000  2.290658 25.471020 34.192400
142   1  1 0.0000  2.290658 42.451699  1.799600
143   1  1 0.0000  2.290658 42.451699 17.996000
144   1  1 0.0000  2.290658 42.451699 34.192400
145   1  1 0.0000 41.505858  8.490340  1.799600
146   1  1 0.0000 41.505858  8.490340 17.996000
147   1  1 0.0000 41.505858  8.490340 34.192400
148   1  1 0.0000 41.505858 42.451699  1.799600
149   1  1 0.0000 41.505858 42.451699 17.996000
150   1  1 0.0000 41.505858 42.451699 34.192400
151   1  1 0.0000  2.290658  8.490340  7.198400
152   1  1 0.0000  2.290658  8.490340 23.394800
153   1  1 0.0000  2.290658  8.490340 39.591200
154   1  1 0.0000  2.290658 25.471020  7.198400
155   1  1 0.0000  2.290658 25.471020 23.394800
156   1  1 0.0000  2.290658 25.471020 39.591200
157   1  1 0.0000  2.290658 42.451699  7.198400
158   1  1 0.0000  2.290658 42.451699 23.394800
159   1  1 0.0000  2.290658 42.451699 39.591200
160   1  1 0.0000 41.505858  8.490340  7.198400
161   1  1 0.0000 41.505858  8.490340 23.394800
162   1  1 0.0000 41.505858  8.490340 39.591200
163   1  1 0.0000 41.505858 42.451699  7.198400
164   1  1 0.0000 41.505858 42.451699 23.394800
165   1  1 0.0000 41.505858 42.451699 39.591200
166   1  1 0.0000  2.290658  8.490340 12.597200
167   1  1 0.0000  2.290658  8.490340 28.793600
168   1  1 0.0000  2.290658  8.490340 44.990000
169   1  1 0.0000  2.290658 25.471020 12.597200
170   1  1 0.0000  2.290658 25.471020 28.793600
171   1  1 0.0000  2.290658 25.471020 44.990000
172   1  1 0.0000  2.290658 42.451699 12.597200
173   1  1 0.0000  2.290658 42.451699 28.793600
174   1  1 0.0000  2.290658 42.451699 44.990000
175   1  1 0.0000 41.505858  8.490340 12.597200
176   1  1 0.0000 41.505858  8.490340 28.793600
177   1  1 0.0000 41.505858  8.490340 44.990000
178   1  1 0.0000 41.505858 42.451699 12.597200
179   1  1 0.0000 41.505858 42.451699 28.793600
180   1  1 0.0000 41.505858 42.451699 44.990000
181   1  1 0.0000 12.094458  0.000000  1.799600
182   1  1 0.0000 12.094458  0.000000 17.996000
183   1  1 0.0000 12.094458  0.000000 34.192400
184   1  1 0.0000 31.702058  0.000000  1.799600
185   1  1 0.0000 31.702058  0.000000 17.996000
186   1  1 0.0000 31.702058  0.000000 34.192400
187   1  1 0.0000 51.309658  0.000000  1.799600
188   1  1 0.0000 51.309658  0.000000 17.996000
189   1  1 0.0000 51.309658  0.000000 34.192400
190   1  1 0.0000 51.309658 16.980680  1.799600
191   1  1 0.0000 51.309658 16.980680 17.996000
192   1  1 0.0000 51.309658 16.980680 34.192400
193   1  1 0.0000 51.309658 33.961359  1.799600
194   1  1 0.0000 51.309658 33.961359 17.996000
195   1  1 0.0000 51.309658 33.961359 34.192400
196   1  1 0.0000 12.094458  0.000000  7.198400
197   1  1 0.0000 12.094458  0.000000 23.394800
198   1  1 0.0000 12.094458  0.000000 39.591200
199   1  1 0.0000 31.702058  0.000000  7.198400
200   1  1 0.0000 31.702058  0.000000 23.394800
201   1  1 0.0000 31.702058  0.000000 39.591200
202   1  1 0.0000 51.309658  0.000000  7.198400
203   1  1 0.0000 51.309658  0.000000 23.394800
204   1  1 0.0000 51.309658  0.000000 39.591200
205   1  1 0.0000 51.309658 16.980680  7.198400
206   1  1 0.0000 51.309658 16.980680 23.394800
207   1  1 0.0000 51.309658 16.980680 39.591200
208   1  1 0.0000 51.309658 33.961359  7.198400
209   1  1 0.0000 51.309658 33.961359 23.394800
210   1  1 0.0000 51.309658 33.961359 39.591200
211   1  1 0.0000 12.094458  0.000000 12.597200
212   1  1 0.0000 12.094458  0.000000 28.793600
213   1  1 0.0000 12.094458  0.000000 44.990000
214   1  1 0.0000 31.702058  0.000000 12.597200
215   1  1 0.0000 31.702058  0.000000 28.793600
216   1  1 0.0000 31.702058  0.000000 44.990000
217   1  1 0.0000 51.309658  0.000000 12.597200
218   1  1 0.0000 51.309658  0.000000 28.793600
219   1  1 0.0000 51.309658  0.000000 44.990000
220   1  1 0.0000 51.309658 16.980680 12.597200
221   1  1 0.0000 51.309658 16.980680 28.793600
222   1  1 0.0000 51.309658 16.980680 44.990000
223   1  1 0.0000 51.309658 33.961359 12.597200
224   1  1 0.0000 51.309658 33.961359 28.793600
225   1  1 0.0000 51.309658 33.961359 44.990000
226   1  1 0.0000  9.643508  4.245170  1.799600
227   1  1 0.0000  9.643508  4.245170 17.996000
228   1  1 0.0000  9.643508  4.245170 34.192400
229   1  1 0.0000  9.643508 21.225850  1.799600
230   1  1 0.0000  9.643508 21.225850 17.996000
231   1  1 0.0000  9.643508 21.225850 34.192400
232   1  1 0.0000  9.643508 38.206529  1.799600
233   1  1 0.0000  9.643508 38.206529 17.996000
234   1  1 0.0000  9.643508 38.206529 34.192400
235   1  1 0.0000 29.251108  4.245170  1.799600
236   1  1 0.0000 29.251108  4.245170 17.996000
237   1  1 0.0000 29.251108  4.245170 34.192400
238   1  1 0.0000 48.858708  4.245170  1.799600
239   1  1 0.0000 48.858708  4.245170 17.996000
240   1  1 0.0000 48.858708  4.245170 34.192400
241   1  1 0.0000 48.858708 38.206529  1.799600
242   1  1 0.0000 48.858708 38.206529 17.996000
243   1  1 0.0000 48.858708 38.206529 34.192400
244   1  1 0.0000  9.643508  4.245170  7.198400
245   1  1 0.0000  9.643508  4.245170 23.394800
246   1  1 0.0000  9.643508  4.245170 39.591200
247   1  1 0.0000  9.643508 21.225850  7.198400
248   1  1 0.0000  9.643508 21.225850 23.394800
249   1  1 0.0000  9.643508 21.225850 39.591200
250   1  1 0.0000  9.643508 38.206529  7.198400
251   1  1 0.0000  9.643508 38.206529 23.394800
252   1  1 0.0000  9.643508 38.206529 39.591200
253   1  1 0.0000 29.251108  4.245170  7.198400
254   1  1 0.0000 29.251108  4.245170 23.394800
255   1  1 0.0000 29.251108  4.245170 39.591200
256   1  1 0.0000 48.858708  4.245170  7.198400
257   1  1 0.0000 48.858708  4.245170 23.394800
258   1  1 0.0000 48.858708  4.245170 39.591200
259   1  1 0.0000 48.858708 38.206529  7.198400
260   1  1 0.0000 48.858708 38.206529 23.394800
261   1  1 0.0000 48.858708 38.206529 39.591200
262   1  1 0.0000  9.643508  4.245170 12.597200
263   1  1 0.0000  9.643508  4.245170 28.793600
264   1  1 0.0000  9.643508  4.245170 44.990000
265   1  1 0.0000  9.643508 21.225850 12.597200
266   1  1 0.0000  9.643508 21.225850 28.793600
267   1  1 0.0000  9.643508 21.225850 44.990000
268   1  1 0.0000  9.643508 38.206529 12.597200
269   1  1 0.0000  9.643508 38.206529 28.793600
270   1  1 0.0000  9.643508 38.206529 44.990000
271   1  1 0.0000 29.251108  4.245170 12.597200
272   1  1 0.0000 29.251108  4.245170 28.793600
273   1  1 0.0000 29.251108  4.245170 44.990000
274   1  1 0.0000 48.858708  4.245170 12.597200
275   1  1 0.0000 48.858708  4.245170 28.793600
276   1  1 0.0000 48.858708  4.245170 44.990000
277   1  1 0.0000 48.858708 38.206529 12.597200
278   1  1 0.0000 48.858708 38.206529 28.793600
279   1  1 0.0000 48.858708 38.206529 44.990000
280   1  1 0.0000  7.192558  8.490340  1.799600
281   1  1 0.0000  7.192558  8.490340 17.996000
282   1  1 0.0000  7.192558  8.490340 34.192400
283   1  1 0.0000  7.192558 25.471020  1.799600
284   1  1 0.0000  7.192558 25.471020 17.996000
285   1  1 0.0000  7.192558 25.471020 34.192400
286   1  1 0.0000  7.192558 42.451699  1.799600
287   1  1 0.0000  7.192558 42.451699 17.996000
288   1  1 0.0000  7.192558 42.451699 34.192400
289   1  1 0.0000 46.407758  8.490340  1.799600
290   1  1 0.0000 46.407758  8.490340 17.996000
291   1  1 0.0000 46.407758  8.490340 34.192400
292   1  1 0.0000 46.407758 42.451699  1.799600
293   1  1 0.0000 46.407758 42.451699 17.996000
294   1  1 0.0000 46.407758 42.451699 34.192400
295   1  1 0.0000  7.192558  8.490340  7.198400
296   1  1 0.0000  7.192558  8.490340 23.394800
297   1  1 0.0000  7.192558  8.490340 39.591200
298   1  1 0.0000  7.192558 25.471020  7.198400
299   1  1 0.0000  7.192558 25.471020 23.394800
300   1  1 0.0000  7.192558 25.471020 39.591200
301   1  1 0.0000  7.192558 42.451699  7.198400
302   1  1 0.0000  7.192558 42.451699 23.394800
303   1  1 0.0000  7.192558 42.451699 39.591200
304   1  1 0.0000 46.407758  8.490340  7.198400
305   1  1 0.0000 46.407758  8.490340 23.394800
306   1  1 0.0000 46.407758  8.490340 39.591200
307   1  1 0.0000 46.407758 42.451699  7.198400
308   1  1 0.0000 46.407758 42.451699 23.394800
309   1  1 0.0000 46.407758 42.451699 39.591200
310   1  1 0.0000  7.192558  8.490340 12.597200
311   1  1 0.0000  7.192558  8.490340 28.793600
312   1  1 0.0000  7.192558  8.490340 44.990000
313   1  1 0.0000  7.192558 25.471020 12.597200
314   1  1 0.0000  7.192558 25.471020 28.793600
315   1  1 0.0000  7.192558 25.471020 44.990000
316   1  1 0.0000  7.192558 42.451699 12.597200
317   1  1 0.0000  7.192558 42.451699 28.793600
318   1  1 0.0000  7.192558 42.451699 44.990000
319   1  1 0.0000 46.407758  8.490340 12.597200
320   1  1 0.0000 46.407758  8.490340 28.793600
321   1  1 0.0000 46.407758  8.490340 44.990000
322   1  1 0.0000 46.407758 42.451699 12.597200
323   1  1 0.0000 46.407758 42.451699 28.793600
324   1  1 0.0000 46.407758 42.451699 44.990000
325   1  1 0.0000  4.741608 12.735510  1.799600
326   1  1 0.0000  4.741608 12.735510 17.996000
327   1  1 0.0000  4.741608 12.735510 34.192400
328   1  1 0.0000  4.741608 29.716189  1.799600
329   1  1 0.0000  4.741608 29.716189 17.996000
330   1  1 0.0000  4.741608 29.716189 34.192400
331   1  1 0.0000  4.741608 46.696869  1.799600
332   1  1 0.0000  4.741608 46.696869 17.996000
333   1  1 0.0000  4.741608 46.696869 34.192400
334   1  1 0.0000 24.349208 46.696869  1.799600
335   1  1 0.0000 24.349208 46.696869 17.996000
336   1  1 0.0000 24.349208 46.696869 34.192400
337   1  1 0.0000 43.956808 46.696869  1.799600
338   1  1 0.0000 43.956808 46.696869 17.996000
339   1  1 0.0000 43.956808 46.696869 34.192400
340   1  1 0.0000  4.741608 12.735510  7.198400
341   1  1 0.0000  4.741608 12.735510 23.394800
342   1  1 0.0000  4.741608 12.735510 39.591200
343   1  1 0.0000  4.741608 29.716189  7.198400
344   1  1 0.0000  4.741608 29.716189 23.394800
345   1  1 0.0000  4.741608 29.716189 39.591200
346   1  1 0.0000  4.741608 46.696869  7.198400
347   1  1 0.0000  4.741608 46.696869 23.394800
348   1  1 0.0000  4.741608 46.696869 39.591200
349   1  1 0.0000 24.349208 46.696869  7.198400
350   1  1 0.0000 24.349208 46.696869 23.394800
351   1  1 0.0000 24.349208 46.696869 39.591200
352   1  1 0.0000 43.956808 46.696869  7.198400
353   1  1 0.0000 43.956808 46.696869 23.394800
354   1  1 0.0000 43.956808 46.696869 39.591200
355   1  1 0.0000  4.741608 12.735510 12.597200
356   1  1 0.0000  4.741608 12.735510 28.793600
357   1  1 0.0000  4.741608 12.735510 44.990000
358   1  1 0.0000  4.741608 29.716189 12.597200
359   1  1 0.0000  4.741608 29.716189 28.793600
360   1  1 0.0000  4.741608 29.716189 44.990000
361   1  1 0.0000  4.741608 46.696869 12.597200
362   1  1 0.0000  4.741608 46.696869 28.793600
363   1  1 0.0000  4.741608 46.696869 44.990000
364   1  1 0.0000 24.349208 46.696869 12.597200
365   1  1 0.0000 24.349208 46.696869 28.793600
366   1  1 0.0000 24.349208 46.696869 44.990000
367   1  1 0.0000 43.956808 46.696869 12.597200
368   1  1 0.0000 43.956808 46.696869 28.793600
369   1  1 0.0000 43.956808 46.696869 44.990000
370   1  1 0.0000 16.996358  0.000000  1.799600
371   1  1 0.0000 16.996358  0.000000 17.996000
372   1  1 0.0000 16.996358  0.000000 34.192400
373   1  1 0.0000 36.603958  0.000000  1.799600
374   1  1 0.0000 36.603958  0.000000 17.996000
375   1  1 0.0000 36.603958  0.000000 34.192400
376   1  1 0.0000 56.211558  0.000000  1.799600
377   1  1 0.0000 56.211558  0.000000 17.996000
378   1  1 0.0000 56.211558  0.000000 34.192400
379   1  1 0.0000 56.211558 16.980680  1.799600
380   1  1 0.0000 56.211558 16.980680 17.996000
381   1  1 0.0000 56.211558 16.980680 34.192400
382   1  1 0.0000 56.211558 33.961359  1.799600
383   1  1 0.0000 56.211558 33.961359 17.996000
384   1  1 0.0000 56.211558 33.961359 34.192400
385   1  1 0.0000 16.996358  0.000000  7.198400
386   1  1 0.0000 16.996358  0.000000 23.394800
387   1  1 0.0000 16.996358  0.000000 39.591200
388   1  1 0.0000 36.603958  0.000000  7.198400
389   1  1 0.0000 36.603958  0.000000 23.394800
390   1  1 0.0000 36.603958  0.000000 39.591200
391   1  1 0.0000 56.211558  0.000000  7.198400
392   1  1 0.0000 56.211558  0.000000 23.394800
393   1  1 0.0000 56.211558  0.000000 39.591200
394   1  1 0.0000 56.211558 16.980680  7.198400
395   1  1 0.0000 56.211558 16.980680 23.394800
396   1  1 0.0000 56.211558 16.980680 39.591200
397   1  1 0.0000 56.211558 33.961359  7.198400
398   1  1 0.0000 56.211558 33.961359 23.394800
399   1  1 0.0000 56.211558 33.961359 39.591200
400   1  1 0.0000 16.996358  0.000000 12.597200
401   1  1 0.0000 16.996358  0.000000 28.793600
402   1  1 0.0000 16.996358  0.000000 44.990000
403   1  1 0.0000 36.603958  0.000000 12.597200
404   1  1 0.0000 36.603958  0.000000 28.793600
405   1  1 0.0000 36.603958  0.000000 44.990000
406   1  1 0.0000 56.211558  0.000000 12.597200
407   1  1 0.0000 56.211558  0.000000 28.793600
408   1  1 0.0000 56.211558  0.000000 44.990000
409   1  1 0.0000 56.211558 16.980680 12.597200
410   1  1 0.0000 56.211558 16.980680 28.793600
411   1  1 0.0000 56.211558 16.980680 44.990000
412   1  1 0.0000 56.211558 33.961359 12.597200
413   1  1 0.0000 56.211558 33.961359 28.793600
414   1  1 0.0000 56.211558 33.961359 44.990000
415   1  1 0.0000 14.545408  4.245170  1.799600
416   1  1 0.0000 14.545408  4.245170 17.996000
417   1  1 0.0000 14.545408  4.245170 34.192400
418   1  1 0.0000 34.153008  4.245170  1.799600
419   1  1 0.0000 34.153008  4.245170 17.996000
420   1  1 0.0000 34.153008  4.245170 34.192400
421   1  1 0.0000 53.760608  4.245170  1.799600
422   1  1 0.0000 53.760608  4.245170 17.996000
423   1  1 0.0000 53.760608  4.245170 34.192400
424   1  1 0.0000 53.760608 21.225850  1.799600
425   1  1 0.0000 53.760608 21.225850 17.996000
426   1  1 0.0000 53.760608 21.225850 34.192400
427   1  1 0.0000 53.760608 38.206529  1.799600
428   1  1 0.0000 53.760608 38.206529 17.996000
429   1  1 0.0000 53.760608 38.206529 34.192400
430   1  1 0.0000 14.545408  4.245170  7.198400
431   1  1 0.0000 14.545408  4.245170 23.394800
432   1  1 0.0000 14.545408  4.245170 39.591200
433   1  1 0.0000 34.153008  4.245170  7.198400
434   1  1 0.0000 34.153008  4.245170 23.394800
435   1  1 0.0000 34.153008  4.245170 39.591200
436   1  1 0.0000 53.760608  4.245170  7.198400
437   1  1 0.0000 53.760608  4.245170 23.394800
438   1  1 0.0000 53.760608  4.245170 39.591200
439   1  1 0.0000 53.760608 21.225850  7.198400
440   1  1 0.0000 53.760608 21.225850 23.394800
441   1  1 0.0000 53.760608 21.225850 39.591200
442   1  1 0.0000 53.760608 38.206529  7.198400
443   1  1 0.0000 53.760608 38.206529 23.394800
444   1  1 0.0000 53.760608 38.206529 39.591200
445   1  1 0.0000 14.545408  4.245170 12.597200
446   1  1 0.0000 14.545408  4.245170 28.793600
447   1  1 0.0000 14.545408  4.245170 44.990000
448   1  1 0.0000 34.153008  4.245170 12.597200
449   1  1 0.0000 34.153008  4.245170 28.793600
450   1  1 0.0000 34.153008  4.245170 44.990000
451   1  1 0.0000 53.760608  4.245170 12.597200
452   1  1 0.0000 53.760608  4.245170 28.793600
453   1  1 0.0000 53.760608  4.245170 44.990000
454   1  1 0.0000 53.760608 21.225850 12.597200
455   1  1 0.0000 53.760608 21.225850 28.793600
456   1  1 0.0000 53.760608 21.225850 44.990000
457   1  1 0.0000 53.760608 38.206529 12.597200
458   1  1 0.0000 53.760608 38.206529 28.793600
459   1  1 0.0000 53.760608 38.206529 44.990000
460   1  1 0.0000 12.094458  8.490340  1.799600
461   1  1 0.0000 12.094458  8.490340 17.996000
462   1  1 0.0000 12.094458  8.490340 34.192400
463   1  1 0.0000 12.094458 42.451699  1.799600
464   1  1 0.0000 12.094458 42.451699 17.996000
465   1  1 0.0000 12.094458 42.451699 34.192400
466   1  1 0.0000 51.309658  8.490340  1.799600
467   1  1 0.0000 51.309658  8.490340 17.996000
468   1  1 0.0000 51.309658  8.490340 34.192400
469   1  1 0.0000 51.309658 25.471020  1.799600
470   1  1 0.0000 51.309658 25.471020 17.996000
471   1  1 0.0000 51.309658 25.471020 34.192400
472   1  1 0.0000 51.309658 42.451699  1.799600
473   1  1 0.0000 51.309658 42.451699 17.996000
474   1  1 0.0000 51.309658 42.451699 34.192400
475   1  1 0.0000 12.094458  8.490340  7.198400
476   1  1 0.0000 12.094458  8.490340 23.394800
477   1  1 0.0000 12.094458  8.490340 39.591200
478   1  1 0.0000 12.094458 42.451699  7.198400
479   1  1 0.0000 12.094458 42.451699 23.394800
480   1  1 0.0000 12.094458 42.451699 39.591200
481   1  1 0.0000 51.309658  8.490340  7.198400
482   1  1 0.0000 51.309658  8.490340 23.394800
483   1  1 0.0000 51.309658  8.490340 39.591200
484   1  1 0.0000 51.309658 25.471020  7.198400
485   1  1 0.0000 51.309658 25.471020 23.394800
486   1  1 0.0000 51.309658 25.471020 39.591200
487   1  1 0.0000 51.309658 42.451699  7.198400
488   1  1 0.0000 51.309658 42.451699 23.394800
489   1  1 0.0000 51.309658 42.451699 39.591200
490   1  1 0.0000 12.094458  8.490340 12.597200
491   1  1 0.0000 12.094458  8.490340 28.793600
492   1  1 0.0000 12.094458  8.490340 44.990000
493   1  1 0.0000 12.094458 42.451699 12.597200
494   1  1 0.0000 12.094458 42.451699 28.793600
495   1  1 0.0000 12.094458 42.451699 44.990000
496   1  1 0.0000 51.309658  8.490340 12.597200
497   1  1 0.0000 51.309658  8.490340 28.793600
498   1  1 0.0000 51.309658  8.490340 44.990000
499   1  1 0.0000 51.309658 25.471020 12.597200
500   1  1 0.0000 51.309658 25.471020 28.793600
501   1  1 0.0000 51.309658 25.471020 44.990000
502   1  1 0.0000 51.309658 42.451699 12.597200
503   1  1 0.0000 51.309658 42.451699 28.793600
504   1  1 0.0000 51.309658 42.451699 44.990000
505   1  1 0.0000  9.643508 12.735510  1.799600
506   1  1 0.0000  9.643508 12.735510 17.996000
507   1  1 0.0000  9.643508 12.735510 34.192400
508   1  1 0.0000  9.643508 29.716189  1.799600
509   1  1 0.0000  9.643508 29.716189 17.996000
510   1  1 0.0000  9.643508 29.716189 34.192400
511   1  1 0.0000  9.643508 46.696869  1.799600
512   1  1 0.0000  9.643508 46.696869 17.996000
513   1  1 0.0000  9.643508 46.696869 34.192400
514   1  1 0.0000 29.251108 46.696869  1.799600
515   1  1 0.0000 29.251108 46.696869 17.996000
516   1  1 0.0000 29.251108 46.696869 34.192400
517   1  1 0.0000 48.858708 12.735510  1.799600
518   1  1 0.0000 48.858708 12.735510 17.996000
519   1  1 0.0000 48.858708 12.735510 34.192400
520   1  1 0.0000 48.858708 46.696869  1.799600
521   1  1 0.0000 48.858708 46.696869 17.996000
522   1  1 0.0000 48.858708 46.696869 34.192400
523   1  1 0.0000  9.643508 12.735510  7.198400
524   1  1 0.0000  9.643508 12.735510 23.394800
525   1  1 0.0000  9.643508 12.735510 39.591200
526   1  1 0.0000  9.643508 29.716189  7.198400
527   1  1 0.0000  9.643508 29.716189 23.394800
528   1  1 0.0000  9.643508 29.716189 39.591200
529   1  1 0.0000  9.643508 46.696869  7.198400
530   1  1 0.0000  9.643508 46.696869 23.394800
531   1  1 0.0000  9.643508 46.696869 39.591200
532   1  1 0.0000 29.251108 46.696869  7.198400
533   1  1 0.0000 29.251108 46.696869 23.394800
534   1  1 0.0000 29.251108 46.696869 39.591200
535   1  1 0.0000 48.858708 12.735510  7.198400
536   1  1 0.0000 48.858708 12.735510 23.394800
537   1  1 0.0000 48.858708 12.735510 39.591200
538   1  1 0.0000 48.858708 46.696869  7.198400
539   1  1 0.0000 48.858708 46.696869 23.394800
540   1  1 0.0000 48.858708 46.696869 39.591200
541   1  1 0.0000  9.643508 12.735510 12.597200
542   1  1 0.0000  9.643508 12.735510 28.793600
543   1  1 0.0000  9.643508 12.735510 44.990000
544   1  1 0.0000  9.643508 29.716189 12.597200
545   1  1 0.0000  9.643508 29.716189 28.793600
546   1  1 0.0000  9.643508 29.716189 44.990000
547   1  1 0.0000  9.643508 46.696869 12.597200
548   1  1 0.0000  9.643508 46.696869 28.793600
549   1  1 0.0000  9.643508 46.696869 44.990000
550   1  1 0.0000 29.251108 46.696869 12.597200
551   1  1 0.0000 29.251108 46.696869 28.793600
552   1  1 0.0000 29.251108 46.696869 44.990000
553   1  1 0.0000 48.858708 12.735510 12.597200
554   1  1 0.0000 48.858708 12.735510 28.793600
555   1  1 0.0000 48.858708 12.735510 44.990000
556   1  1 0.0000 48.858708 46.696869 12.597200
557   1  1 0.0000 48.858708 46.696869 28.793600
558   1  1 0.0000 48.858708 46.696869 44.990000
559   1  1 0.0000 19.447308  4.245170  1.799600
560   1  1 0.0000 19.447308  4.245170 17.996000
561   1  1 0.0000 19.447308  4.245170 34.192400
562   1  1 0.0000 39.054908  4.245170  1.799600
563   1  1 0.0000 39.054908  4.245170 17.996000
564   1  1 0.0000 39.054908  4.245170 34.192400
565   1  1 0.0000 58.662508  4.245170  1.799600
566   1  1 0.0000 58.662508  4.245170 17.996000
567   1  1 0.0000 58.662508  4.245170 34.192400
568   1  1 0.0000 58.662508 21.225850  1.799600
569   1  1 0.0000 58.662508 21.225850 17.996000
570   1  1 0.0000 58.662508 21.225850 34.192400
571   1  1 0.0000 58.662508 38.206529  1.799600
572   1  1 0.0000 58.662508 38.206529 17.996000
573   1  1 0.0000 58.662508 38.206529 34.192400
574   1  1 0.0000 19.447308  4.245170  7.198400
575   1  1 0.0000 19.447308  4.245170 23.394800
576   1  1 0.0000 19.447308  4.245170 39.591200
577   1  1 0.0000 39.054908  4.245170  7.198400
578   1  1 0.0000 39.054908  4.245170 23.394800
579   1  1 0.0000 39.054908  4.245170 39.591200
580   1  1 0.0000 58.662508  4.245170  7.198400
581   1  1 0.0000 58.662508  4.245170 23.394800
582   1  1 0.0000 58.662508  4.245170 39.591200
583   1  1 0.0000 58.662508 21.225850  7.198400
584   1  1 0.0000 58.662508 21.225850 23.394800
585   1  1 0.0000 58.662508 21.225850 39.591200
586   1  1 0.0000 58.662508 38.206529  7.198400
587   1  1 0.0000 58.662508 38.206529 23.394800
588   1  1 0.0000 58.662508 38.206529 39.591200
589   1  1 0.0000 19.447308  4.245170 12.597200
590   1  1 0.0000 19.447308  4.245170 28.793600
591   1  1 0.0000 19.447308  4.245170 44.990000
592   1  1 0.0000 39.054908  4.245170 12.597200
593   1  1 0.0000 39.054908  4.245170 28.793600
594   1  1 0.0000 39.054908  4.245170 44.990000
595   1  1 0.0000 58.662508  4.245170 12.597200
596   1  1 0.0000 58.662508  4.245170 28.793600
597   1  1 0.0000 58.662508  4.245170 44.990000
598   1  1 0.0000 58.662508 21.225850 12.597200
599   1  1 0.0000 58.662508 21.225850 28.793600
600   1  1 0.0000 58.662508 21.225850 44.990000
601   1  1 0.0000 58.662508 38.206529 12.597200
602   1  1 0.0000 58.662508 38.206529 28.793600
603   1  1 0.0000 58.662508 38.206529 44.990000
604   1  1 0.0000 16.996358  8.490340  1.799600
605   1  1 0.0000 16.996358  8.490340 17.996000
606   1  1 0.0000 16.996358  8.490340 34.192400
607   1  1 0.0000 16.996358 42.451699  1.799600
608   1  1 0.0000 16.996358 42.451699 17.996000
609   1  1 0.0000 16.996358 42.451699 34.192400
610   1  1 0.0000 56.211558  8.490340  1.799600
611   1  1 0.0000 56.211558  8.490340 17.996000
612   1  1 0.0000 56.211558  8.490340 34.192400
613   1  1 0.0000 56.211558 25.471020  1.799600
614   1  1 0.0000 56.211558 25.471020 17.996000
615   1  1 0.0000 56.211558 25.471020 34.192400
616   1  1 0.0000 56.211558 42.451699  1.799600
617   1  1 0.0000 56.211558 42.451699 17.996000
618   1  1 0.0000 56.211558 42.451699 34.192400
619   1  1 0.0000 16.996358  8.490340  7.198400
620   1  1 0.0000 16.996358  8.490340 23.394800
621   1  1 0.0000 16.996358  8.490340 39.591200
622   1  1 0.0000 16.996358 42.451699  7.198400
623   1  1 0.0000 16.996358 42.451699 23.394800
624   1  1 0.0000 16.996358 42.451699 39.591200
625   1  1 0.0000 56.211558  8.490340  7.198400
626   1  1 0.0000 56.211558  8.490340 23.394800
627   1  1 0.0000 56.211558  8.490340 39.591200
628   1  1 0.0000 56.211558 25.471020  7.198400
629   1  1 0.0000 56.211558 25.471020 23.394800
630   1  1 0.0000 56.211558 25.471020 39.591200
631   1  1 0.0000 56.211558 42.451699  7.198400
632   1  1 0.0000 56.211558 42.451699 23.394800
633   1  1 0.0000 56.211558 42.451699 39.591200
634   1  1 0.0000 16.996358  8.490340 12.597200
635   1  1 0.0000 16.996358  8.490340 28.793600
636   1  1 0.0000 16.996358  8.490340 44.990000
637   1  1 0.0000 16.996358 42.451699 12.597200
638   1  1 0.0000 16.996358 42.451699 28.793600
639   1  1 0.0000 16.996358 42.451699 44.990000
640   1  1 0.0000 56.211558  8.490340 12.597200
641   1  1 0.0000 56.211558  8.490340 28.793600
642   1  1 0.0000 56.211558  8.490340 44.990000
643   1  1 0.0000 56.211558 25.471020 12.597200
644   1  1 0.0000 56.211558 25.471020 28.793600
645   1  1 0.0000 56.211558 25.471020 44.990000
646   1  1 0.0000 56.211558 42.451699 12.597200
647   1  1 0.0000 56.211558 42.451699 28.793600
648   1  1 0.0000 56.211558 42.451699 44.990000
649   1  1 0.0000 14.545408 46.696869  1.799600
650   1  1 0.0000 14.545408 46.696869 17.996000
651   1  1 0.0000 14.545408 46.696869 34.192400
652   1  1 0.0000 34.153008 46.696869  1.799600
653   1  1 0.0000 34.153008 46.696869 17.996000
654   1  1 0.0000 34.153008 46.696869 34.192400
655   1  1 0.0000 53.760608 12.735510  1.799600
656   1  1 0.0000 53.760608 12.735510 17.996000
657   1  1 0.0000 53.760608 12.735510 34.192400
658   1  1 0.0000 53.760608 29.716189  1.799600
659   1  1 0.0000 53.760608 29.716189 17.996000
660   1  1 0.0000 53.760608 29.716189 34.192400
661   1  1 0.0000 53.760608 46.696869  1.799600
662   1  1 0.0000 53.760608 46.696869 17.996000
663   1  1 0.0000 53.760608 46.696869 34.192400
664   1  1 0.0000 14.545408 46.696869  7.198400
665   1  1 0.0000 14.545408 46.696869 23.394800
666   1  1 0.0000 14.545408 46.696869 39.591200
667   1  1 0.0000 34.153008 46.696869  7.198400
668   1  1 0.0000 34.153008 46.696869 23.394800
669   1  1 0.0000 34.153008 46.696869 39.591200
670   1  1 0.0000 53.760608 12.735510  7.198400
671   1  1 0.0000 53.760608 12.735510 23.394800
672   1  1 0.0000 53.760608 12.735510 39.591200
673   1  1 0.0000 53.760608 29.716189  7.198400
674   1  1 0.0000 53.760608 29.716189 23.394800
675   1  1 0.0000 53.760608 29.716189 39.591200
676   1  1 0.0000 53.760608 46.696869  7.198400
677   1  1 0.0000 53.760608 46.696869 23.394800
678   1  1 0.0000 53.760608 46.696869 39.591200
679   1  1 0.0000 14.545408 46.696869 12.597200
680   1  1 0.0000 14.545408 46.696869 28.793600
681   1  1 0.0000 14.545408 46.696869 44.990000
682   1  1 0.0000 34.153008 46.696869 12.597200
683   1  1 0.0000 34.153008 46.696869 28.793600
684   1  1 0.0000 34.153008 46.696869 44.990000
685   1  1 0.0000 53.760608 12.735510 12.597200
686   1  1 0.0000 53.760608 12.735510 28.793600
687   1  1 0.0000 53.760608 12.735510 44.990000
688   1  1 0.0000 53.760608 29.716189 12.597200
689   1  1 0.0000 53.760608 29.716189 28.793600
690   1  1 0.0000 53.760608 29.716189 44.990000
691   1  1 0.0000 53.760608 46.696869 12.597200
692   1  1 0.0000 53.760608 46.696869 28.793600
693   1  1 0.0000 53.760608 46.696869 44.990000
694   1  1 0.0000 19.447308 46.696869  1.799600
695   1  1 0.0000 19.447308 46.696869 17.996000
696   1  1 0.0000 19.447308 46.696869 34.192400
697   1  1 0.0000 39.054908 46.696869  1.799600
698   1  1 0.0000 39.054908 46.696869 17.996000
699   1  1 0.0000 39.054908 46.696869 34.192400
700   1  1 0.0000 58.662508 12.735510  1.799600
701   1  1 0.0000 58.662508 12.735510 17.996000
702   1  1 0.0000 58.662508 12.735510 34.192400
703   1  1 0.0000 58.662508 29.716189  1.799600
704   1  1 0.0000 58.662508 29.716189 17.996000
705   1  1 0.0000 58.662508 29.716189 34.192400
706   1  1 0.0000 58.662508 46.696869  1.799600
707   1  1 0.0000 58.662508 46.696869 17.996000
708   1  1 0.0000 58.662508 46.696869 34.192400
709   1  1 0.0000 19.447308 46.696869  7.198400
710   1  1 0.0000 19.447308 46.696869 23.394800
711   1  1 0.0000 19.447308 46.696869 39.591200
712   1  1 0.0000 39.054908 46.696869  7.198400
713   1  1 0.0000 39.054908 46.696869 23.394800
714   1  1 0.0000 39.054908 46.696869 39.591200
715   1  1 0.0000 58.662508 12.735510  7.198400
716   1  1 0.0000 58.662508 12.735510 23.394800
717   1  1 0.0000 58.662508 12.735510 39.591200
718   1  1 0.0000 58.662508 29.716189  7.198400
719   1  1 0.0000 58.662508 29.716189 23.394800
720   1  1 0.0000 58.662508 29.716189 39.591200
721   1  1 0.0000 58.662508 46.696869  7.198400
722   1  1 0.0000 58.662508 46.696869 23.394800
723   1  1 0.0000 58.662508 46.696869 39.591200
724   1  1 0.0000 19.447308 46.696869 12.597200
725   1  1 0.0000 19.447308 46.696869 28.793600
726   1  1 0.0000 19.447308 46.696869 44.990000
727   1  1 0.0000 39.054908 46.696869 12.597200
728   1  1 0.0000 39.054908 46.696869 28.793600
729   1  1 0.0000 39.054908 46.696869 44.990000
730   1  1 0.0000 58.662508 12.735510 12.597200
731   1  1 0.0000 58.662508 12.735510 28.793600
732   1  1 0.0000 58.662508 12.735510 44.990000
733   1  1 0.0000 58.662508 29.716189 12.597200
734   1  1 0.0000 58.662508 29.716189 28.793600
735   1  1 0.0000 58.662508 29.716189 44.990000
736   1  1 0.0000 58.662508 46.696869 12.597200
737   1  1 0.0000 58.662508 46.696869 28.793600
738   1  1 0.0000 58.662508 46.696869 44.990000
739   1  1 0.0000 18.462271  1.983768  3.599200
740   1  1 0.0000 18.462271  1.983768 19.795600
741   1  1 0.0000 18.462271  1.983768 35.992000
742   1  1 0.0000 38.069871  1.983768  3.599200
743   1  1 0.0000 38.069871  1.983768 19.795600
744   1  1 0.0000 38.069871  1.983768 35.992000
745   1  1 0.0000 57.677471  1.983768  3.599200
746   1  1 0.0000 57.677471  1.983768 19.795600
747   1  1 0.0000 57.677471  1.983768 35.992000
748   1  1 0.0000 57.677471 18.964448  3.599200
749   1  1 0.0000 57.677471 18.964448 19.795600
750   1  1 0.0000 57.677471 18.964448 35.992000
751   1  1 0.0000 57.677471 35.945127  3.599200
752   1  1 0.0000 57.677471 35.945127 19.795600
753   1  1 0.0000 57.677471 35.945127 35.992000
754   1  1 0.0000 18.462271  1.983768  8.998000
755   1  1 0.0000 18.462271  1.983768 25.194400
756   1  1 0.0000 18.462271  1.983768 41.390800
757   1  1 0.0000 38.069871  1.983768  8.998000
758   1  1 0.0000 38.069871  1.983768 25.194400
759   1  1 0.0000 38.069871  1.983768 41.390800
760   1  1 0.0000 57.677471  1.983768  8.998000
761   1  1 0.0000 57.677471  1.983768 25.194400
762   1  1 0.0000 57.677471  1.983768 41.390800
763   1  1 0.0000 57.677471 18.964448  8.998000
764   1  1 0.0000 57.677471 18.964448 25.194400
765   1  1 0.0000 57.677471 18.964448 41.390800
766   1  1 0.0000 57.677471 35.945127  8.998000
767   1  1 0.0000 57.677471 35.945127 25.194400
768   1  1 0.0000 57.677471 35.945127 41.390800
769   1  1 0.0000 18.462271  1.983768 14.396800
770   1  1 0.0000 18.462271  1.983768 30.593200
771   1  1 0.0000 18.462271  1.983768 46.789600
772   1  1 0.0000 38.069871  1.983768 14.396800
773   1  1 0.0000 38.069871  1.983768 30.593200
774   1  1 0.0000 38.069871  1.983768 46.789600
775   1  1 0.0000 57.677471  1.983768 14.396800
776   1  1 0.0000 57.677471  1.983768 30.593200
777   1  1 0.0000 57.677471  1.983768 46.789600
778   1  1 0.0000 57.677471 18.964448 14.396800
779   1  1 0.0000 57.677471 18.964448 30.593200
780   1  1 0.0000 57.677471 18.964448 46.789600
781   1  1 0.0000 57.677471 35.945127 14.396800
782   1  1 0.0000 57.677471 35.945127 30.593200
783   1  1 0.0000 57.677471 35.945127 46.789600
784   1  1 0.0000  3.756571  1.983768  3.599200
785   1  1 0.0000  3.756571  1.983768 19.795600
786   1  1 0.0000  3.756571  1.983768 35.992000
787   1  1 0.0000  3.756571 18.964448  3.599200
788   1  1 0.0000  3.756571 18.964448 19.795600
789   1  1 0.0000  3.756571 18.964448 35.992000
790   1  1 0.0000  3.756571 35.945127  3.599200
791   1  1 0.0000  3.756571 35.945127 19.795600
792   1  1 0.0000  3.756571 35.945127 35.992000
793   1  1 0.0000 23.364171  1.983768  3.599200
794   1  1 0.0000 23.364171  1.983768 19.795600
795   1  1 0.0000 23.364171  1.983768 35.992000
796   1  1 0.0000 42.971771  1.983768  3.599200
797   1  1 0.0000 42.971771  1.983768 19.795600
798   1  1 0.0000 42.971771  1.983768 35.992000
799   1  1 0.0000  3.756571  1.983768  8.998000
800   1  1 0.0000  3.756571  1.983768 25.194400
801   1  1 0.0000  3.756571  1.983768 41.390800
802   1  1 0.0000  3.756571 18.964448  8.998000
803   1  1 0.0000  3.756571 18.964448 25.194400
804   1  1 0.0000  3.756571 18.964448 41.390800
805   1  1 0.0000  3.756571 35.945127  8.998000
806   1  1 0.0000  3.756571 35.945127 25.194400
807   1  1 0.0000  3.756571 35.945127 41.390800
808   1  1 0.0000 23.364171  1.983768  8.998000
809   1  1 0.0000 23.364171  1.983768 25.194400
810   1  1 0.0000 23.364171  1.983768 41.390800
811   1  1 0.0000 42.971771  1.983768  8.998000
812   1  1 0.0000 42.971771  1.983768 25.194400
813   1  1 0.0000 42.971771  1.983768 41.390800
814   1  1 0.0000  3.756571  1.983768 14.396800
815   1  1 0.0000  3.756571  1.983768 30.593200
816   1  1 0.0000  3.756571  1.983768 46.789600
817   1  1 0.0000  3.756571 18.964448 14.396800
818   1  1 0.0000  3.756571 18.964448 30.593200
819   1  1 0.0000  3.756571 18.964448 46.789600
820   1  1 0.0000  3.756571 35.945127 14.396800
821   1  1 0.0000  3.756571 35.945127 30.593200
822   1  1 0.0000  3.756571 35.945127 46.789600
823   1  1 0.0000 23.364171  1.983768 14.396800
824   1  1 0.0000 23.364171  1.983768 30.593200
825   1  1 0.0000 23.364171  1.983768 46.789600
826   1  1 0.0000 42.971771  1.983768 14.396800
827   1  1 0.0000 42.971771  1.983768 30.593200
828   1  1 0.0000 42.971771  1.983768 46.789600
829   1  1 0.0000  1.305621  6.228938  3.599200
830   1  1 0.0000  1.305621  6.228938 19.795600
831   1  1 0.0000  1.305621  6.228938 35.992000
832   1  1 0.0000  1.305621 23.209618  3.599200
833   1  1 0.0000  1.305621 23.209618 19.795600
834   1  1 0.0000  1.305621 23.209618 35.992000
835   1  1 0.0000  1.305621 40.190297  3.599200
836   1  1 0.0000  1.305621 40.190297 19.795600
837   1  1 0.0000  1.305621 40.190297 35.992000
838   1  1 0.0000 20.913221  6.228938  3.599200
839   1  1 0.0000 20.913221  6.228938 19.795600
840   1  1 0.0000 20.913221  6.228938 35.992000
841   1  1 0.0000 40.520821  6.228938  3.599200
842   1  1 0.0000 40.520821  6.228938 19.795600
843   1  1 0.0000 40.520821  6.228938 35.992000
844   1  1 0.0000  1.305621  6.228938  8.998000
845   1  1 0.0000  1.305621  6.228938 25.194400
846   1  1 0.0000  1.305621  6.228938 41.390800
847   1  1 0.0000  1.305621 23.209618  8.998000
848   1  1 0.0000  1.305621 23.209618 25.194400
849   1  1 0.0000  1.305621 23.209618 41.390800
850   1  1 0.0000  1.305621 40.190297  8.998000
851   1  1 0.0000  1.305621 40.190297 25.194400
852   1  1 0.0000  1.305621 40.190297 41.390800
853   1  1 0.0000 20.913221  6.228938  8.998000
854   1  1 0.0000 20.913221  6.228938 25.194400
855   1  1 0.0000 20.913221  6.228938 41.390800
856   1  1 0.0000 40.520821  6.228938  8.998000
857   1  1 0.0000 40.520821  6.228938 25.194400
858   1  1 0.0000 40.520821  6.228938 41.390800
859   1  1 0.0000  1.305621  6.228938 14.396800
860   1  1 0.0000  1.305621  6.228938 30.593200
861   1  1 0.0000  1.305621  6.228938 46.789600
862   1  1 0.0000  1.305621 23.209618 14.396800
863   1  1 0.0000  1.305621 23.209618 30.593200
864   1  1 0.0000  1.305621 23.209618 46.789600
865   1  1 0.0000  1.305621 40.190297 14.396800
866   1  1 0.0000  1.305621 40.190297 30.593200
867   1  1 0.0000  1.305621 40.190297 46.789600
868   1  1 0.0000 20.913221  6.228938 14.396800
869   1  1 0.0000 20.913221  6.228938 30.593200
870   1  1 0.0000 20.913221  6.228938 46.789600
871   1  1 0.0000 40.520821  6.228938 14.396800
872   1  1 0.0000 40.520821  6.228938 30.593200
873   1  1 0.0000 40.520821  6.228938 46.789600
874   1  1 0.0000 18.462271 44.435467  3.599200
875   1  1 0.0000 18.462271 44.435467 19.795600
876   1  1 0.0000 18.462271 44.435467 35.992000
877   1  1 0.0000 38.069871 44.435467  3.599200
878   1  1 0.0000 38.069871 44.435467 19.795600
879   1  1 0.0000 38.069871 44.435467 35.992000
880   1  1 0.0000 57.677471 10.474108  3.599200
881   1  1 0.0000 57.677471 10.474108 19.795600
882   1  1 0.0000 57.677471 10.474108 35.992000
883   1  1 0.0000 57.677471 27.454787  3.599200
884   1  1 0.0000 57.677471 27.454787 19.795600
885   1  1 0.0000 57.677471 27.454787 35.992000
886   1  1 0.0000 57.677471 44.435467  3.599200
887   1  1 0.0000 57.677471 44.435467 19.795600
888   1  1 0.0000 57.677471 44.435467 35.992000
889   1  1 0.0000 18.462271 44.435467  8.998000
890   1  1 0.0000 18.462271 44.435467 25.194400
891   1  1 0.0000 18.462271 44.435467 41.390800
892   1  1 0.0000 38.069871 44.435467  8.998000
893   1  1 0.0000 38.069871 44.435467 25.194400
894   1  1 0.0000 38.069871 44.435467 41.390800
895   1  1 0.0000 57.677471 10.474108  8.998000
896   1  1 0.0000 57.677471 10.474108 25.194400
897   1  1 0.0000 57.677471 10.474108 41.390800
898   1  1 0.0000 57.677471 27.454787  8.998000
899   1  1 0.0000 57.677471 27.454787 25.194400
900   1  1 0.0000 57.677471 27.454787 41.390800
901   1  1 0.0000 57.677471 44.435467  8.998000
902   1  1 0.0000 57.677471 44.435467 25.194400
903   1  1 0.0000 57.677471 44.435467 41.390800
904   1  1 0.0000 18.462271 44.435467 14.396800
905   1  1 0.0000 18.462271 44.435467 30.593200
906   1  1 0.0000 18.462271 44.435467 46.789600
907   1  1 0.0000 38.069871 44.435467 14.396800
908   1  1 0.0000 38.069871 44.435467 30.593200
909   1  1 0.0000 38.069871 44.435467 46.789600
910   1  1 0.0000 57.677471 10.474108 14.396800
911   1  1 0.0000 57.677471 10.474108 30.593200
912   1  1 0.0000 57.677471 10.474108 46.789600
913   1  1 0.0000 57.677471 27.454787 14.396800
914   1  1 0.0000 57.677471 27.454787 30.593200
915   1  1 0.0000 57.677471 27.454787 46.789600
916   1  1 0.0000 57.677471 44.435467 14.396800
917   1  1 0.0000 57.677471 44.435467 30.593200
918   1  1 0.0000 57.677471 44.435467 46.789600
919   1  1 0.0000  8.658471  1.983768  3.599200
920   1  1 0.0000  8.658471  1.983768 19.795600
921   1  1 0.0000  8.658471  1.983768 35.992000
922   1  1 0.0000  8.658471 18.964448  3.599200
923   1  1 0.0000  8.658471 18.964448 19.795600
924   1  1 0.0000  8.658471 18.964448 35.992000
925   1  1 0.0000  8.658471 35.945127  3.599200
926   1  1 0.0000  8.658471 35.945127 19.795600
927   1  1 0.0000  8.658471 35.945127 35.992000
928   1  1 0.0000 28.266071  1.983768  3.599200
929   1  1 0.0000 28.266071  1.983768 19.795600
930   1  1 0.0000 28.266071  1.983768 35.992000
931   1  1 0.0000 47.873671  1.983768  3.599200
932   1  1 0.0000 47.873671  1.983768 19.795600
933   1  1 0.0000 47.873671  1.983768 35.992000
934   1  1 0.0000 47.873671 35.945127  3.599200
935   1  1 0.0000 47.873671 35.945127 19.795600
936   1  1 0.0000 47.873671 35.945127 35.992000
937   1  1 0.0000  8.658471  1.983768  8.998000
938   1  1 0.0000  8.658471  1.983768 25.194400
939   1  1 0.0000  8.658471  1.983768 41.390800
940   1  1 0.0000  8.658471 18.964448  8.998000
941   1  1 0.0000  8.658471 18.964448 25.194400
942   1  1 0.0000  8.658471 18.964448 41.390800
943   1  1 0.0000  8.658471 35.945127  8.998000
944   1  1 0.0000  8.658471 35.945127 25.194400
945   1  1 0.0000  8.658471 35.945127 41.390800
946   1  1 0.0000 28.266071  1.983768  8.998000
947   1  1 0.0000 28.266071  1.983768 25.194400
948   1  1 0.0000 28.266071  1.983768 41.390800
949   1  1 0.0000 47.873671  1.983768  8.998000
950   1  1 0.0000 47.873671  1.983768 25.194400
951   1  1 0.0000 47.873671  1.983768 41.390800
952   1  1 0.0000 47.873671 35.945127  8.998000
953   1  1 0.0000 47.873671 35.945127 25.194400
954   1  1 0.0000 47.873671 35.945127 41.390800
955   1  1 0.0000  8.658471  1.983768 14.396800
956   1  1 0.0000  8.658471  1.983768 30.593200
957   1  1 0.0000  8.658471  1.983768 46.789600
958   1  1 0.0000  8.658471 18.964448 14.396800
959   1  1 0.0000  8.658471 18.964448 30.593200
960   1  1 0.0000  8.658471 18.964448 46.789600
961   1  1 0.0000  8.658471 35.945127 14.396800
962   1  1 0.0000  8.658471 35.945127 30.593200
963   1  1 0.0000  8.658471 35.945127 46.789600
964   1  1 0.0000 28.266071  1.983768 14.396800
965   1  1 0.0000 28.266071  1.983768 30.593200
966   1  1 0.0000 28.266071  1.983768 46.789600
967   1  1 0.0000 47.873671  1.983768 14.396800
968   1  1 0.0000 47.873671  1.983768 30.593200
969   1  1 0.0000 47.873671  1.983768 46.789600
970   1  1 0.0000 47.873671 35.945127 14.396800
971   1  1 0.0000 47.873671 35.945127 30.593200
972   1  1 0.0000 47.873671 35.945127 46.789600
973   1  1 0.0000  6.207521  6.228938  3.599200
974   1  1 0.0000  6.207521  6.228938 19.795600
975   1  1 0.0000  6.207521  6.228938 35.992000
976   1  1 0.0000  6.207521 23.209618  3.599200
977   1  1 0.0000  6.207521 23.209618 19.795600
978   1  1 0.0000  6.207521 23.209618 35.992000
979   1  1 0.0000  6.207521 40.190297  3.599200
980   1  1 0.0000  6.207521 40.190297 19.795600
981   1  1 0.0000  6.207521 40.190297 35.992000
982   1  1 0.0000 45.422721  6.228938  3.599200
983   1  1 0.0000 45.422721  6.228938 19.795600
984   1  1 0.0000 45.422721  6.228938 35.992000
985   1  1 0.0000 45.422721 40.190297  3.599200
986   1  1 0.0000 45.422721 40.190297 19.795600
987   1  1 0.0000 45.422721 40.190297 35.992000
988   1  1 0.0000  6.207521  6.228938  8.998000
989   1  1 0.0000  6.207521  6.228938 25.194400
990   1  1 0.0000  6.207521  6.228938 41.390800
991   1  1 0.0000  6.207521 23.209618  8.998000
992   1  1 0.0000  6.207521 23.209618 25.194400
993   1  1 0.0000  6.207521 23.209618 41.390800
994   1  1 0.0000  6.207521 40.190297  8.998000
995   1  1 0.0000  6.207521 40.190297 25.194400
996   1  1 0.0000  6.207521 40.190297 41.390800
997   1  1 0.0000 45.422721  6.228938  8.998000
998   1  1 0.0000 45.422721  6.228938 25.194400
999   1  1 0.0000 45.422721  6.228938 41.390800
1000  1  1 0.0000 45.422721 40.190297  8.998000
1001  1  1 0.0000 45.422721 40.190297 25.194400
1002  1  1 0.0000 45.422721 40.190297 41.390800
1003  1  1 0.0000  6.207521  6.228938 14.396800
1004  1  1 0.0000  6.207521  6.228938 30.593200
1005  1  1 0.0000  6.207521  6.228938 46.789600
1006  1  1 0.0000  6.207521 23.209618 14.396800
1007  1  1 0.0000  6.207521 23.209618 30.593200
1008  1  1 0.0000  6.207521 23.209618 46.789600
1009  1  1 0.0000  6.207521 40.190297 14.396800
1010  1  1 0.0000  6.207521 40.190297 30.593200
1011  1  1 0.0000  6.207521 40.190297 46.789600
1012  1  1 0.0000 45.422721  6.228938 14.396800
1013  1  1 0.0000 45.422721  6.228938 30.593200
1014  1  1 0.0000 45.422721  6.228938 46.789600
1015  1  1 0.0000 45.422721 40.190297 14.396800
1016  1  1 0.0000 45.422721 40.190297 30.593200
1017  1  1 0.0000 45.422721 40.190297 46.789600
1018  1  1 0.0000  3.756571 10.474108  3.599200
1019  1  1 0.0000  3.756571 10.474108 19.795600
1020  1  1 0.0000  3.756571 10.474108 35.992000
1021  1  1 0.0000  3.756571 27.454787  3.599200
1022  1  1 0.0000  3.756571 27.454787 19.795600
1023  1  1 0.0000  3.756571 27.454787 35.992000
1024  1  1 0.0000  3.756571 44.435467  3.599200
1025  1  1 0.0000  3.756571 44.435467 19.795600
1026  1  1 0.0000  3.756571 44.435467 35.992000
1027  1  1 0.0000 42.971771 10.474108  3.599200
1028  1  1 0.0000 42.971771 10.474108 19.795600
1029  1  1 0.0000 42.971771 10.474108 35.992000
1030  1  1 0.0000 42.971771 44.435467  3.599200
1031  1  1 0.0000 42.971771 44.435467 19.795600
1032  1  1 0.0000 42.971771 44.435467 35.992000
1033  1  1 0.0000  3.756571 10.474108  8.998000
1034  1  1 0.0000  3.756571 10.474108 25.194400
1035  1  1 0.0000  3.756571 10.474108 41.390800
1036  1  1 0.0000  3.756571 27.454787  8.998000
1037  1  1 0.0000  3.756571 27.454787 25.194400
1038  1  1 0.0000  3.756571 27.454787 41.390800
1039  1  1 0.0000  3.756571 44.435467  8.998000
1040  1  1 0.0000  3.756571 44.435467 25.194400
1041  1  1 0.0000  3.756571 44.435467 41.390800
1042  1  1 0.0000 42.971771 10.474108  8.998000
1043  1  1 0.0000 42.971771 10.474108 25.194400
1044  1  1 0.0000 42.971771 10.474108 41.390800
1045  1  1 0.0000 42.971771 44.435467  8.998000
1046  1  1 0.0000 42.971771 44.435467 25.194400
1047  1  1 0.0000 42.971771 44.435467 41.390800
1048  1  1 0.0000  3.756571 10.474108 14.396800
1049  1  1 0.0000  3.756571 10.474108 30.593200
1050  1  1 0.0000  3.756571 10.474108 46.789600
1051  1  1 0.0000  3.756571 27.454787 14.396800
1052  1  1 0.0000  3.756571 27.454787 30.593200
1053  1  1 0.0000  3.756571 27.454787 46.789600
1054  1  1 0.0000  3.756571 44.435467 14.396800
1055  1  1 0.0000  3.756571 44.435467 30.593200
1056  1  1 0.0000  3.756571 44.435467 46.789600
1057  1  1 0.0000 42.971771 10.474108 14.396800
1058  1  1 0.0000 42.971771 10.474108 30.593200
1059  1  1 0.0000 42.971771 10.474108 46.789600
1060  1  1 0.0000 42.971771 44.435467 14.396800
1061  1  1 0.0000 42.971771 44.435467 30.593200
1062  1  1 0.0000 42.971771 44.435467 46.789600
1063  1  1 0.0000  1.305621 14.719278  3.599200
1064  1  1 0.0000  1.305621 14.719278 19.795600
1065  1  1 0.0000  1.305621 14.719278 35.992000
1066  1  1 0.0000  1.305621 31.699957  3.599200
1067  1  1 0.0000  1.305621 31.699957 19.795600
1068  1  1 0.0000  1.305621 31.699957 35.992000
1069  1  1 0.0000  1.305621 48.680637  3.599200
1070  1  1 0.0000  1.305621 48.680637 19.795600
1071  1  1 0.0000  1.305621 48.680637 35.992000
1072  1  1 0.0000 20.913221 48.680637  3.599200
1073  1  1 0.0000 20.913221 48.680637 19.795600
1074  1  1 0.0000 20.913221 48.680637 35.992000
1075  1  1 0.0000 40.520821 48.680637  3.599200
1076  1  1 0.0000 40.520821 48.680637 19.795600
1077  1  1 0.0000 40.520821 48.680637 35.992000
1078  1  1 0.0000  1.305621 14.719278  8.998000
1079  1  1 0.0000  1.305621 14.719278 25.194400
1080  1  1 0.0000  1.305621 14.719278 41.390800
1081  1  1 0.0000  1.305621 31.699957  8.998000
1082  1  1 0.0000  1.305621 31.699957 25.194400
1083  1  1 0.0000  1.305621 31.699957 41.390800
1084  1  1 0.0000  1.305621 48.680637  8.998000
1085  1  1 0.0000  1.305621 48.680637 25.194400
1086  1  1 0.0000  1.305621 48.680637 41.390800
1087  1  1 0.0000 20.913221 48.680637  8.998000
1088  1  1 0.0000 20.913221 48.680637 25.194400
1089  1  1 0.0000 20.913221 48.680637 41.390800
1090  1  1 0.0000 40.520821 48.680637  8.998000
1091  1  1 0.0000 40.520821 48.680637 25.194400
1092  1  1 0.0000 40.520821 48.680637 41.390800
1093  1  1 0.0000  1.305621 14.719278 14.396800
1094  1  1 0.0000  1.305621 14.719278 30.593200
1095  1  1 0.0000  1.305621 14.719278 46.789600
1096  1  1 0.0000  1.305621 31.699957 14.396800
1097  1  1 0.0000  1.305621 31.699957 30.593200
1098  1  1 0.0000  1.305621 31.699957 46.789600
1099  1  1 0.0000  1.305621 48.680637 14.396800
1100  1  1 0.0000  1.305621 48.680637 30.593200
1101  1  1 0.0000  1.305621 48.680637 46.789600
1102  1  1 0.0000 20.913221 48.680637 14.396800
1103  1  1 0.0000 20.913221 48.680637 30.593200
1104  1  1 0.0000 20.913221 48.680637 46.789600
1105  1  1 0.0000 40.520821 48.680637 14.396800
1106  1  1 0.0000 40.520821 48.680637 30.593200
1107  1  1 0.0000 40.520821 48.680637 46.789600
1108  1  1 0.0000 13.560371  1.983768  3.599200
1109  1  1 0.0000 13.560371  1.983768 19.795600
1110  1  1 0.0000 13.560371  1.983768 35.992000
1111  1  1 0.0000 33.167971  1.983768  3.599200
1112  1  1 0.0000 33.167971  1.983768 19.795600
1113  1  1 0.0000 33.167971  1.983768 35.992000
1114  1  1 0.0000 52.775571  1.983768  3.599200
1115  1  1 0.0000 52.775571  1.983768 19.795600
1116  1  1 0.0000 52.775571  1.983768 35.992000
1117  1  1 0.0000 52.775571 18.964448  3.599200
1118  1  1 0.0000 52.775571 18.964448 19.795600
1119  1  1 0.0000 52.775571 18.964448 35.992000
1120  1  1 0.0000 52.775571 35.945127  3.599200
1121  1  1 0.0000 52.775571 35.945127 19.795600
1122  1  1 0.0000 52.775571 35.945127 35.992000
1123  1  1 0.0000 13.560371  1.983768  8.998000
1124  1  1 0.0000 13.560371  1.983768 25.194400
1125  1  1 0.0000 13.560371  1.983768 41.390800
1126  1  1 0.0000 33.167971  1.983768  8.998000
1127  1  1 0.0000 33.167971  1.983768 25.194400
1128  1  1 0.0000 33.167971  1.983768 41.390800
1129  1  1 0.0000 52.775571  1.983768  8.998000
1130  1  1 0.0000 52.775571  1.983768 25.194400
1131  1  1 0.0000 52.775571  1.983768 41.390800
1132  1  1 0.0000 52.775571 18.964448  8.998000
1133  1  1 0.0000 52.775571 18.964448 25.194400
1134  1  1 0.0000 52.775571 18.964448 41.390800
1135  1  1 0.0000 52.775571 35.945127  8.998000
1136  1  1 0.0000 52.775571 35.945127 25.194400
1137  1  1 0.0000 52.775571 35.945127 41.390800
1138  1  1 0.0000 13.560371  1.983768 14.396800
1139  1  1 0.0000 13.560371  1.983768 30.593200
1140  1  1 0.0000 13.560371  1.983768 46.789600
1141  1  1 0.0000 33.167971  1.983768 14.396800
1142  1  1 0.0000 33.167971  1.983768 30.593200
1143  1  1 0.0000 33.167971  1.983768 46.789600
1144  1  1 0.0000 52.775571  1.983768 14.396800
1145  1  1 0.0000 52.775571  1.983768 30.593200
1146  1  1 0.0000 52.775571  1.983768 46.789600
1147  1  1 0.0000 52.775571 18.964448 14.396800
1148  1  1 0.0000 52.775571 18.964448 30.593200
1149  1  1 0.0000 52.775571 18.964448 46.789600
1150  1  1 0.0000 52.775571 35.945127 14.396800
1151  1  1 0.0000 52.775571 35.945127 30.593200
1152  1  1 0.0000 52.775571 35.945127 46.789600
1153  1  1 0.0000 11.109421  6.228938  3.599200
1154  1  1 0.0000 11.109421  6.228938 19.795600
1155  1  1 0.0000 11.109421  6.228938 35.992000
1156  1  1 0.0000 11.109421 40.190297  3.599200
1157  1  1 0.0000 11.109421 40.190297 19.795600
1158  1  1 0.0000 11.109421 40.190297 35.992000
1159  1  1 0.0000 50.324621  6.228938  3.599200
1160  1  1 0.0000 50.324621  6.228938 19.795600
1161  1  1 0.0000 50.324621  6.228938 35.992000
1162  1  1 0.0000 50.324621 23.209618  3.599200
1163  1  1 0.0000 50.324621 23.209618 19.795600
1164  1  1 0.0000 50.324621 23.209618 35.992000
1165  1  1 0.0000 50.324621 40.190297  3.599200
1166  1  1 0.0000 50.324621 40.190297 19.795600
1167  1  1 0.0000 50.324621 40.190297 35.992000
1168  1  1 0.0000 11.109421  6.228938  8.998000
1169  1  1 0.0000 11.109421  6.228938 25.194400
1170  1  1 0.0000 11.109421  6.228938 41.390800
1171  1  1 0.0000 11.109421 40.190297  8.998000
1172  1  1 0.0000 11.109421 40.190297 25.194400
1173  1  1 0.0000 11.109421 40.190297 41.390800
1174  1  1 0.0000 50.324621  6.228938  8.998000
1175  1  1 0.0000 50.324621  6.228938 25.194400
1176  1  1 0.0000 50.324621  6.228938 41.390800
1177  1  1 0.0000 50.324621 23.209618  8.998000
1178  1  1 0.0000 50.324621 23.209618 25.194400
1179  1  1 0.0000 50.324621 23.209618 41.390800
1180  1  1 0.0000 50.324621 40.190297  8.998000
1181  1  1 0.0000 50.324621 40.190297 25.194400
1182  1  1 0.0000 50.324621 40.190297 41.390800
1183  1  1 0.0000 11.109421  6.228938 14.396800
1184  1  1 0.0000 11.109421  6.228938 30.593200
1185  1  1 0.0000 11.109421  6.228938 46.789600
1186  1  1 0.0000 11.109421 40.190297 14.396800
1187  1  1 0.0000 11.109421 40.190297 30.593200
1188  1  1 0.0000 11.109421 40.190297 46.789600
1189  1  1 0.0000 50.324621  6.228938 14.396800
1190  1  1 0.0000 50.324621  6.228938 30.593200
1191  1  1 0.0000 50.324621  6.228938 46.789600
1192  1  1 0.0000 50.324621 23.209618 14.396800
1193  1  1 0.0000 50.324621 23.209618 30.593200
1194  1  1 0.0000 50.324621 23.209618 46.789600
1195  1  1 0.0000 50.324621 40.190297 14.396800
1196  1  1 0.0000 50.324621 40.190297 30.593200
1197  1  1 0.0000 50.324621 40.190297 46.789600
1198  1  1 0.0000  8.658471 10.474108  3.599200
1199  1  1 0.0000  8.658471 10.474108 19.795600
1200  1  1 0.0000  8.658471 10.474108 35.992000
1201  1  1 0.0000  8.658471 27.454787  3.599200
1202  1  1 0.0000  8.658471 27.454787 19.795600
1203  1  1 0.0000  8.658471 27.454787 35.992000
1204  1  1 0.0000  8.658471 44.435467  3.599200
1205  1  1 0.0000  8.658471 44.435467 19.795600
1206  1  1 0.0000  8.658471 44.435467 35.992000
1207  1  1 0.0000 47.873671 10.474108  3.599200
1208  1  1 0.0000 47.873671 10.474108 19.795600
1209  1  1 0.0000 47.873671 10.474108 35.992000
1210  1  1 0.0000 47.873671 44.435467  3.599200
1211  1  1 0.0000 47.873671 44.435467 19.795600
1212  1  1 0.0000 47.873671 44.435467 35.992000
1213  1  1 0.0000  8.658471 10.474108  8.998000
1214  1  1 0.0000  8.658471 10.474108 25.194400
1215  1  1 0.0000  8.658471 10.474108 41.390800
1216  1  1 0.0000  8.658471 27.454787  8.998000
1217  1  1 0.0000  8.658471 27.454787 25.194400
1218  1  1 0.0000  8.658471 27.454787 41.390800
1219  1  1 0.0000  8.658471 44.435467  8.998000
1220  1  1 0.0000  8.658471 44.435467 25.194400
1221  1  1 0.0000  8.658471 44.435467 41.390800
1222  1  1 0.0000 47.873671 10.474108  8.998000
1223  1  1 0.0000 47.873671 10.474108 25.194400
1224  1  1 0.0000 47.873671 10.474108 41.390800
1225  1  1 0.0000 47.873671 44.435467  8.998000
1226  1  1 0.0000 47.873671 44.435467 25.194400
1227  1  1 0.0000 47.873671 44.435467 41.390800
1228  1  1 0.0000  8.658471 10.474108 14.396800
1229  1  1 0.0000  8.658471 10.474108 30.593200
1230  1  1 0.0000  8.658471 10.474108 46.789600
1231  1  1 0.0000  8.658471 27.454787 14.396800
1232  1  1 0.0000  8.658471 27.454787 30.593200
1233  1  1 0.0000  8.658471 27.454787 46.789600
1234  1  1 0.0000  8.658471 44.435467 14.396800
1235  1  1 0.0000  8.658471 44.435467 30.593200
1236  1  1 0.0000  8.658471 44.435467 46.789600
1237  1  1 0.0000 47.873671 10.474108 14.396800
1238  1  1 0.0000 47.873671 10.474108 30.593200
1239  1  1 0.0000 47.873671 10.474108 46.789600
1240  1  1 0.0000 47.873671 44.435467 14.396800
1241  1  1 0.0000 47.873671 44.435467 30.593200
1242  1  1 0.0000 47.873671 44.435467 46.789600
1243  1  1 0.0000  6.207521 14.719278  3.599200
1244  1  1 0.0000  6.207521 14.719278 19.795600
1245  1  1 0.0000  6.207521 14.719278 35.992000
1246  1  1 0.0000  6.207521 31.699957  3.599200
1247  1  1 0.0000  6.207521 31.699957 19.795600
1248  1  1 0.0000  6.207521 31.699957 35.992000
1249  1  1 0.0000  6.207521 48.680637  3.599200
1250  1  1 0.0000  6.207521 48.680637 19.795600
1251  1  1 0.0000  6.207521 48.680637 35.992000
1252  1  1 0.0000 25.815121 48.680637  3.599200
1253  1  1 0.0000 25.815121 48.680637 19.795600
1254  1  1 0.0000 25.815121 48.680637 35.992000
1255  1  1 0.0000 45.422721 48.680637  3.599200
1256  1  1 0.0000 45.422721 48.680637 19.795600
1257  1  1 0.0000 45.422721 48.680637 35.992000
1258  1  1 0.0000  6.207521 14.719278  8.998000
1259  1  1 0.0000  6.207521 14.719278 25.194400
1260  1  1 0.0000  6.207521 14.719278 41.390800
1261  1  1 0.0000  6.207521 31.699957  8.998000
1262  1  1 0.0000  6.207521 31.699957 25.194400
1263  1  1 0.0000  6.207521 31.699957 41.390800
1264  1  1 0.0000  6.207521 48.680637  8.998000
1265  1  1 0.0000  6.207521 48.680637 25.194400
1266  1  1 0.0000  6.207521 48.680637 41.390800
1267  1  1 0.0000 25.815121 48.680637  8.998000
1268  1  1 0.0000 25.815121 48.680637 25.194400
1269  1  1 0.0000 25.815121 48.680637 41.390800
1270  1  1 0.0000 45.422721 48.680637  8.998000
1271  1  1 0.0000 45.422721 48.680637 25.194400
1272  1  1 0.0000 45.422721 48.680637 41.390800
1273  1  1 0.0000  6.207521 14.719278 14.396800
1274  1  1 0.0000  6.207521 14.719278 30.593200
1275  1  1 0.0000  6.207521 14.719278 46.789600
1276  1  1 0.0000  6.207521 31.699957 14.396800
1277  1  1 0.0000  6.207521 31.699957 30.593200
1278  1  1 0.0000  6.207521 31.699957 46.789600
1279  1  1 0.0000  6.207521 48.680637 14.396800
1280  1  1 0.0000  6.207521 48.680637 30.593200
1281  1  1 0.0000  6.207521 48.680637 46.789600
1282  1  1 0.0000 25.815121 48.680637 14.396800
1283  1  1 0.0000 25.815121 48.680637 30.593200
1284  1  1 0.0000 25.815121 48.680637 46.789600
1285  1  1 0.0000 45.422721 48.680637 14.396800
1286  1  1 0.0000 45.422721 48.680637 30.593200
1287  1  1 0.0000 45.422721 48.680637 46.789600
1288  1  1 0.0000 16.011321  6.228938  3.599200
1289  1  1 0.0000 16.011321  6.228938 19.795600
1290  1  1 0.0000 16.011321  6.228938 35.992000
1291  1  1 0.0000 35.618921  6.228938  3.599200
1292  1  1 0.0000 35.618921  6.228938 19.795600
1293  1  1 0.0000 35.618921  6.228938 35.992000
1294  1  1 0.0000 55.226521  6.228938  3.599200
1295  1  1 0.0000 55.226521  6.228938 19.795600
1296  1  1 0.0000 55.226521  6.228938 35.992000
1297  1  1 0.0000 55.226521 23.209618  3.599200
1298  1  1 0.0000 55.226521 23.209618 19.795600
1299  1  1 0.0000 55.226521 23.209618 35.992000
1300  1  1 0.0000 55.226521 40.190297  3.599200
1301  1  1 0.0000 55.226521 40.190297 19.795600
1302  1  1 0.0000 55.226521 40.190297 35.992000
1303  1  1 0.0000 16.011321  6.228938  8.998000
1304  1  1 0.0000 16.011321  6.228938 25.194400
1305  1  1 0.0000 16.011321  6.228938 41.390800
1306  1  1 0.0000 35.618921  6.228938  8.998000
1307  1  1 0.0000 35.618921  6.228938 25.194400
1308  1  1 0.0000 35.618921  6.228938 41.390800
1309  1  1 0.0000 55.226521  6.228938  8.998000
1310  1  1 0.0000 55.226521  6.228938 25.194400
1311  1  1 0.0000 55.226521  6.228938 41.390800
1312  1  1 0.0000 55.226521 23.209618  8.998000
1313  1  1 0.0000 55.226521 23.209618 25.194400
1314  1  1 0.0000 55.226521 23.209618 41.390800
1315  1  1 0.0000 55.226521 40.190297  8.998000
1316  1  1 0.0000 55.226521 40.190297 25.194400
1317  1  1 0.0000 55.226521 40.190297 41.390800
1318  1  1 0.0000 16.011321  6.228938 14.396800
1319  1  1 0.0000 16.011321  6.228938 30.593200
1320  1  1 0.0000 16.011321  6.228938 46.789600
1321  1  1 0.0000 35.618921  6.228938 14.396800
1322  1  1 0.0000 35.618921  6.228938 30.593200
1323  1  1 0.0000 35.618921  6.228938 46.789600
1324  1  1 0.0000 55.226521  6.228938 14.396800
1325  1  1 0.0000 55.226521  6.228938 30.593200
1326  1  1 0.0000 55.226521  6.228938 46.789600
1327  1  1 0.0000 55.226521 23.209618 14.396800
1328  1  1 0.0000 55.226521 23.209618 30.593200
1329  1  1 0.0000 55.226521 23.209618 46.789600
1330  1  1 0.0000 55.226521 40.190297 14.396800
1331  1  1 0.0000 55.226521 40.190297 30.593200
1332  1  1 0.0000 55.226521 40.190297 46.789600
1333  1  1 0.0000 13.560371 10.474108  3.599200
1334  1  1 0.0000 13.560371 10.474108 19.795600
1335  1  1 0.0000 13.560371 10.474108 35.992000
1336  1  1 0.0000 13.560371 44.435467  3.599200
1337  1  1 0.0000 13.560371 44.435467 19.795600
1338  1  1 0.0000 13.560371 44.435467 35.992000
1339  1  1 0.0000 52.775571 10.474108  3.599200
1340  1  1 0.0000 52.775571 10.474108 19.795600
1341  1  1 0.0000 52.775571 10.474108 35.992000
1342  1  1 0.0000 52.775571 27.454787  3.599200
1343  1  1 0.0000 52.775571 27.454787 19.795600
1344  1  1 0.0000 52.775571 27.454787 35.992000
1345  1  1 0.0000 52.775571 44.435467  3.599200
1346  1  1 0.0000 52.775571 44.435467 19.795600
1347  1  1 0.0000 52.775571 44.435467 35.992000
1348  1  1 0.0000 13.560371 10.474108  8.998000
1349  1  1 0.0000 13.560371 10.474108 25.194400
1350  1  1 0.0000 13.560371 10.474108 41.390800
1351  1  1 0.0000 13.560371 44.435467  8.998000
1352  1  1 0.0000 13.560371 44.435467 25.194400
1353  1  1 0.0000 13.560371 44.435467 41.390800
1354  1  1 0.0000 52.775571 10.474108  8.998000
1355  1  1 0.0000 52.775571 10.474108 25.194400
1356  1  1 0.0000 52.775571 10.474108 41.390800
1357  1  1 0.0000 52.775571 27.454787  8.998000
1358  1  1 0.0000 52.775571 27.454787 25.194400
1359  1  1 0.0000 52.775571 27.454787 41.390800
1360  1  1 0.0000 52.775571 44.435467  8.998000
1361  1  1 0.0000 52.775571 44.435467 25.194400
1362  1  1 0.0000 52.775571 44.435467 41.390800
1363  1  1 0.0000 13.560371 10.474108 14.396800
1364  1  1 0.0000 13.560371 10.474108 30.593200
1365  1  1 0.0000 13.560371 10.474108 46.789600
1366  1  1 0.0000 13.560371 44.435467 14.396800
1367  1  1 0.0000 13.560371 44.435467 30.593200
1368  1  1 0.0000 13.560371 44.435467 46.789600
1369  1  1 0.0000 52.775571 10.474108 14.396800
1370  1  1 0.0000 52.775571 10.474108 30.593200
1371  1  1 0.0000 52.775571 10.474108 46.789600
1372  1  1 0.0000 52.775571 27.454787 14.396800
1373  1  1 0.0000 52.775571 27.454787 30.593200
1374  1  1 0.0000 52.775571 27.454787 46.789600
1375  1  1 0.0000 52.775571 44.435467 14.396800
1376  1  1 0.0000 52.775571 44.435467 30.593200
1377  1  1 0.0000 52.775571 44.435467 46.789600
1378  1  1 0.0000 11.109421 14.719278  3.599200
1379  1  1 0.0000 11.109421 14.719278 19.795600
1380  1  1 0.0000 11.109421 14.719278 35.992000
1381  1  1 0.0000 11.109421 48.680637  3.599200
1382  1  1 0.0000 11.109421 48.680637 19.795600
1383  1  1 0.0000 11.109421 48.680637 35.992000
1384  1  1 0.0000 30.717021 48.680637  3.599200
1385  1  1 0.0000 30.717021 48.680637 19.795600
1386  1  1 0.0000 30.717021 48.680637 35.992000
1387  1  1 0.0000 50.324621 14.719278  3.599200
1388  1  1 0.0000 50.324621 14.719278 19.795600
1389  1  1 0.0000 50.324621 14.719278 35.992000
1390  1  1 0.0000 50.324621 31.699957  3.599200
1391  1  1 0.0000 50.324621 31.699957 19.795600
1392  1  1 0.0000 50.324621 31.699957 35.992000
1393  1  1 0.0000 50.324621 48.680637  3.599200
1394  1  1 0.0000 50.324621 48.680637 19.795600
1395  1  1 0.0000 50.324621 48.680637 35.992000
1396  1  1 0.0000 11.109421 14.719278  8.998000
1397  1  1 0.0000 11.109421 14.719278 25.194400
1398  1  1 0.0000 11.109421 14.719278 41.390800
1399  1  1 0.0000 11.109421 48.680637  8.998000
1400  1  1 0.0000 11.109421 48.680637 25.194400
1401  1  1 0.0000 11.109421 48.680637 41.390800
1402  1  1 0.0000 30.717021 48.680637  8.998000
1403  1  1 0.0000 30.717021 48.680637 25.194400
1404  1  1 0.0000 30.717021 48.680637 41.390800
1405  1  1 0.0000 50.324621 14.719278  8.998000
1406  1  1 0.0000 50.324621 14.719278 25.194400
1407  1  1 0.0000 50.324621 14.719278 41.390800
1408  1  1 0.0000 50.324621 31.699957  8.998000
1409  1  1 0.0000 50.324621 31.699957 25.194400
1410  1  1 0.0000 50.324621 31.699957 41.390800
1411  1  1 0.0000 50.324621 48.680637  8.998000
1412  1  1 0.0000 50.324621 48.680637 25.194400
1413  1  1 0.0000 50.324621 48.680637 41.390800
1414  1  1 0.0000 11.109421 14.719278 14.396800
1415  1  1 0.0000 11.109421 14.719278 30.593200
1416  1  1 0.0000 11.109421 14.719278 46.789600
1417  1  1 0.0000 11.109421 48.680637 14.396800
1418  1  1 0.0000 11.109421 48.680637 30.593200
1419  1  1 0.0000 11.109421 48.680637 46.789600
1420  1  1 0.0000 30.717021 48.680637 14.396800
1421  1  1 0.0000 30.717021 48.680637 30.593200
1422  1  1 0.0000 30.717021 48.680637 46.789600
1423  1  1 0.0000 50.324621 14.719278 14.396800
1424  1  1 0.0000 50.324621 14.719278 30.593200
1425  1  1 0.0000 50.324621 14.719278 46.789600
1426  1  1 0.0000 50.324621 31.699957 14.396800
1427  1  1 0.0000 50.324621 31.699957 30.593200
1428  1  1 0.0000 50.324621 31.699957 46.789600
1429  1  1 0.0000 50.324621 48.680637 14.396800
1430  1  1 0.0000 50.324621 48.680637 30.593200
1431  1  1 0.0000 50.324621 48.680637 46.789600
1432  1  1 0.0000 16.011321 48.680637  3.599200
1433  1  1 0.0000 16.011321 48.680637 19.795600
1434  1  1 0.0000 16.011321 48.680637 35.992000
1435  1  1 0.0000 35.618921 48.680637  3.599200
1436  1  1 0.0000 35.618921 48.680637 19.795600
1437  1  1 0.0000 35.618921 48.680637 35.992000
1438  1  1 0.0000 55.226521 14.719278  3.599200
1439  1  1 0.0000 55.226521 14.719278 19.795600
1440  1  1 0.0000 55.226521 14.719278 35.992000
1441  1  1 0.0000 55.226521 31.699957  3.599200
1442  1  1 0.0000 55.226521 31.699957 19.795600
1443  1  1 0.0000 55.226521 31.699957 35.992000
1444  1  1 0.0000 55.226521 48.680637  3.599200
1445  1  1 0.0000 55.226521 48.680637 19.795600
1446  1  1 0.0000 55.226521 48.680637 35.992000
1447  1  1 0.0000 16.011321 48.680637  8.998000
1448  1  1 0.0000 16.011321 48.680637 25.194400
1449  1  1 0.0000 16.011321 48.680637 41.390800
1450  1  1 0.0000 35.618921 48.680637  8.998000
1451  1  1 0.0000 35.618921 48.680637 25.194400
1452  1  1 0.0000 35.618921 48.680637 41.390800
1453  1  1 0.0000 55.226521 14.719278  8.998000
1454  1  1 0.0000 55.226521 14.719278 25.194400
1455  1  1 0.0000 55.226521 14.719278 41.390800
1456  1  1 0.0000 55.226521 31.699957  8.998000
1457  1  1 0.0000 55.226521 31.699957 25.194400
1458  1  1 0.0000 55.226521 31.699957 41.390800
1459  1  1 0.0000 55.226521 48.680637  8.998000
1460  1  1 0.0000 55.226521 48.680637 25.194400
1461  1  1 0.0000 55.226521 48.680637 41.390800
1462  1  1 0.0000 16.011321 48.680637 14.396800
1463  1  1 0.0000 16.011321 48.680637 30.593200
1464  1  1 0.0000 16.011321 48.680637 46.789600
1465  1  1 0.0000 35.618921 48.680637 14.396800
1466  1  1 0.0000 35.618921 48.680637 30.593200
1467  1  1 0.0000 35.618921 48.680637 46.789600
1468  1  1 0.0000 55.226521 14.719278 14.396800
1469  1  1 0.0000 55.226521 14.719278 30.593200
1470  1  1 0.0000 55.226521 14.719278 46.789600
1471  1  1 0.0000 55.226521 31.699957 14.396800
1472  1  1 0.0000 55.226521 31.699957 30.593200
1473  1  1 0.0000 55.226521 31.699957 46.789600
1474  1  1 0.0000 55.226521 48.680637 14.396800
1475  1  1 0.0000 55.226521 48.680637 30.593200
1476  1  1 0.0000 55.226521 48.680637 46.789600
1477  1  1 0.0000  1.305621  2.261402  0.000000
1478  1  1 0.0000  1.305621  2.261402 16.196400
1479  1  1 0.0000  1.305621  2.261402 32.392800
1480  1  1 0.0000  1.305621 19.242082  0.000000
1481  1  1 0.0000  1.305621 19.242082 16.196400
1482  1  1 0.0000  1.305621 19.242082 32.392800
1483  1  1 0.0000  1.305621 36.222761  0.000000
1484  1  1 0.0000  1.305621 36.222761 16.196400
1485  1  1 0.0000  1.305621 36.222761 32.392800
1486  1  1 0.0000 20.913221  2.261402  0.000000
1487  1  1 0.0000 20.913221  2.261402 16.196400
1488  1  1 0.0000 20.913221  2.261402 32.392800
1489  1  1 0.0000 40.520821  2.261402  0.000000
1490  1  1 0.0000 40.520821  2.261402 16.196400
1491  1  1 0.0000 40.520821  2.261402 32.392800
1492  1  1 0.0000  1.305621  2.261402  5.398800
1493  1  1 0.0000  1.305621  2.261402 21.595200
1494  1  1 0.0000  1.305621  2.261402 37.791600
1495  1  1 0.0000  1.305621 19.242082  5.398800
1496  1  1 0.0000  1.305621 19.242082 21.595200
1497  1  1 0.0000  1.305621 19.242082 37.791600
1498  1  1 0.0000  1.305621 36.222761  5.398800
1499  1  1 0.0000  1.305621 36.222761 21.595200
1500  1  1 0.0000  1.305621 36.222761 37.791600
1501  1  1 0.0000 20.913221  2.261402  5.398800
1502  1  1 0.0000 20.913221  2.261402 21.595200
1503  1  1 0.0000 20.913221  2.261402 37.791600
1504  1  1 0.0000 40.520821  2.261402  5.398800
1505  1  1 0.0000 40.520821  2.261402 21.595200
1506  1  1 0.0000 40.520821  2.261402 37.791600
1507  1  1 0.0000  1.305621  2.261402 10.797600
1508  1  1 0.0000  1.305621  2.261402 26.994000
1509  1  1 0.0000  1.305621  2.261402 43.190400
1510  1  1 0.0000  1.305621 19.242082 10.797600
1511  1  1 0.0000  1.305621 19.242082 26.994000
1512  1  1 0.0000  1.305621 19.242082 43.190400
1513  1  1 0.0000  1.305621 36.222761 10.797600
1514  1  1 0.0000  1.305621 36.222761 26.994000
1515  1  1 0.0000  1.305621 36.222761 43.190400
1516  1  1 0.0000 20.913221  2.261402 10.797600
1517  1  1 0.0000 20.913221  2.261402 26.994000
1518  1  1 0.0000 20.913221  2.261402 43.190400
1519  1  1 0.0000 40.520821  2.261402 10.797600
1520  1  1 0.0000 40.520821  2.261402 26.994000
1521  1  1 0.0000 40.520821  2.261402 43.190400
1522  1  1 0.0000  6.207521  2.261402  0.000000
1523  1  1 0.0000  6.207521  2.261402 16.196400
1524  1  1 0.0000  6.207521  2.261402 32.392800
1525  1  1 0.0000  6.207521 19.242082  0.000000
1526  1  1 0.0000  6.207521 19.242082 16.196400
1527  1  1 0.0000  6.207521 19.242082 32.392800
1528  1  1 0.0000  6.207521 36.222761  0.000000
1529  1  1 0.0000  6.207521 36.222761 16.196400
1530  1  1 0.0000  6.207521 36.222761 32.392800
1531  1  1 0.0000 25.815121  2.261402  0.000000
1532  1  1 0.0000 25.815121  2.261402 16.196400
1533  1  1 0.0000 25.815121  2.261402 32.392800
1534  1  1 0.0000 45.422721  2.261402  0.000000
1535  1  1 0.0000 45.422721  2.261402 16.196400
1536  1  1 0.0000 45.422721  2.261402 32.392800
1537  1  1 0.0000  6.207521  2.261402  5.398800
1538  1  1 0.0000  6.207521  2.261402 21.595200
1539  1  1 0.0000  6.207521  2.261402 37.791600
1540  1  1 0.0000  6.207521 19.242082  5.398800
1541  1  1 0.0000  6.207521 19.242082 21.595200
1542  1  1 0.0000  6.207521 19.242082 37.791600
1543  1  1 0.0000  6.207521 36.222761  5.398800
1544  1  1 0.0000  6.207521 36.222761 21.595200
1545  1  1 0.0000  6.207521 36.222761 37.791600
1546  1  1 0.0000 25.815121  2.261402  5.398800
1547  1  1 0.0000 25.815121  2.261402 21.595200
1548  1  1 0.0000 25.815121  2.261402 37.791600
1549  1  1 0.0000 45.422721  2.261402  5.398800
1550  1  1 0.0000 45.422721  2.261402 21.595200
1551  1  1 0.0000 45.422721  2.261402 37.791600
1552  1  1 0.0000  6.207521  2.261402 10.797600
1553  1  1 0.0000  6.207521  2.261402 26.994000
1554  1  1 0.0000  6.207521  2.261402 43.190400
1555  1  1 0.0000  6.207521 19.242082 10.797600
1556  1  1 0.0000  6.207521 19.242082 26.994000
1557  1  1 0.0000  6.207521 19.242082 43.190400
1558  1  1 0.0000  6.207521 36.222761 10.797600
1559  1  1 0.0000  6.207521 36.222761 26.994000
1560  1  1 0.0000  6.207521 36.222761 43.190400
1561  1  1 0.0000 25.815121  2.261402 10.797600
1562  1  1 0.0000 25.815121  2.261402 26.994000
1563  1  1 0.0000 25.815121  2.261402 43.190400
1564  1  1 0.0000 45.422721  2.261402 10.797600
1565  1  1 0.0000 45.422721  2.261402 26.994000
1566  1  1 0.0000 45.422721  2.261402 43.190400
1567  1  1 0.0000  3.756571  6.506572  0.000000
1568  1  1 0.0000  3.756571  6.506572 16.196400
1569  1  1 0.0000  3.756571  6.506572 32.392800
1570  1  1 0.0000  3.756571 23.487252  0.000000
1571  1  1 0.0000  3.756571 23.487252 16.196400
1572  1  1 0.0000  3.756571 23.487252 32.392800
1573  1  1 0.0000  3.756571 40.467931  0.000000
1574  1  1 0.0000  3.756571 40.467931 16.196400
1575  1  1 0.0000  3.756571 40.467931 32.392800
1576  1  1 0.0000 42.971771  6.506572  0.000000
1577  1  1 0.0000 42.971771  6.506572 16.196400
1578  1  1 0.0000 42.971771  6.506572 32.392800
1579  1  1 0.0000 42.971771 40.467931  0.000000
1580  1  1 0.0000 42.971771 40.467931 16.196400
1581  1  1 0.0000 42.971771 40.467931 32.392800
1582  1  1 0.0000  3.756571  6.506572  5.398800
1583  1  1 0.0000  3.756571  6.506572 21.595200
1584  1  1 0.0000  3.756571  6.506572 37.791600
1585  1  1 0.0000  3.756571 23.487252  5.398800
1586  1  1 0.0000  3.756571 23.487252 21.595200
1587  1  1 0.0000  3.756571 23.487252 37.791600
1588  1  1 0.0000  3.756571 40.467931  5.398800
1589  1  1 0.0000  3.756571 40.467931 21.595200
1590  1  1 0.0000  3.756571 40.467931 37.791600
1591  1  1 0.0000 42.971771  6.506572  5.398800
1592  1  1 0.0000 42.971771  6.506572 21.595200
1593  1  1 0.0000 42.971771  6.506572 37.791600
1594  1  1 0.0000 42.971771 40.467931  5.398800
1595  1  1 0.0000 42.971771 40.467931 21.595200
1596  1  1 0.0000 42.971771 40.467931 37.791600
1597  1  1 0.0000  3.756571  6.506572 10.797600
1598  1  1 0.0000  3.756571  6.506572 26.994000
1599  1  1 0.0000  3.756571  6.506572 43.190400
1600  1  1 0.0000  3.756571 23.487252 10.797600
1601  1  1 0.0000  3.756571 23.487252 26.994000
1602  1  1 0.0000  3.756571 23.487252 43.190400
1603  1  1 0.0000  3.756571 40.467931 10.797600
1604  1  1 0.0000  3.756571 40.467931 26.994000
1605  1  1 0.0000  3.756571 40.467931 43.190400
1606  1  1 0.0000 42.971771  6.506572 10.797600
1607  1  1 0.0000 42.971771  6.506572 26.994000
1608  1  1 0.0000 42.971771  6.506572 43.190400
1609  1  1 0.0000 42.971771 40.467931 10.797600
1610  1  1 0.0000 42.971771 40.467931 26.994000
1611  1  1 0.0000 42.971771 40.467931 43.190400
1612  1  1 0.0000  1.305621 10.751742  0.000000
1613  1  1 0.0000  1.305621 10.751742 16.196400
1614  1  1 0.0000  1.305621 10.751742 32.392800
1615  1  1 0.0000  1.305621 27.732422  0.000000
1616  1  1 0.0000  1.305621 27.732422 16.196400
1617  1  1 0.0000  1.305621 27.732422 32.392800
1618  1  1 0.0000  1.305621 44.713101  0.000000
1619  1  1 0.0000  1.305621 44.713101 16.196400
1620  1  1 0.0000  1.305621 44.713101 32.392800
1621  1  1 0.0000 20.913221 44.713101  0.000000
1622  1  1 0.0000 20.913221 44.713101 16.196400
1623  1  1 0.0000 20.913221 44.713101 32.392800
1624  1  1 0.0000 40.520821 44.713101  0.000000
1625  1  1 0.0000 40.520821 44.713101 16.196400
1626  1  1 0.0000 40.520821 44.713101 32.392800
1627  1  1 0.0000  1.305621 10.751742  5.398800
1628  1  1 0.0000  1.305621 10.751742 21.595200
1629  1  1 0.0000  1.305621 10.751742 37.791600
1630  1  1 0.0000  1.305621 27.732422  5.398800
1631  1  1 0.0000  1.305621 27.732422 21.595200
1632  1  1 0.0000  1.305621 27.732422 37.791600
1633  1  1 0.0000  1.305621 44.713101  5.398800
1634  1  1 0.0000  1.305621 44.713101 21.595200
1635  1  1 0.0000  1.305621 44.713101 37.791600
1636  1  1 0.0000 20.913221 44.713101  5.398800
1637  1  1 0.0000 20.913221 44.713101 21.595200
1638  1  1 0.0000 20.913221 44.713101 37.791600
1639  1  1 0.0000 40.520821 44.713101  5.398800
1640  1  1 0.0000 40.520821 44.713101 21.595200
1641  1  1 0.0000 40.520821 44.713101 37.791600
1642  1  1 0.0000  1.305621 10.751742 10.797600
1643  1  1 0.0000  1.305621 10.751742 26.994000
1644  1  1 0.0000  1.305621 10.751742 43.190400
1645  1  1 0.0000  1.305621 27.732422 10.797600
1646  1  1 0.0000  1.305621 27.732422 26.994000
1647  1  1 0.0000  1.305621 27.732422 43.190400
1648  1  1 0.0000  1.305621 44.713101 10.797600
1649  1  1 0.0000  1.305621 44.713101 26.994000
1650  1  1 0.0000  1.305621 44.713101 43.190400
1651  1  1 0.0000 20.913221 44.713101 10.797600
1652  1  1 0.0000 20.913221 44.713101 26.994000
1653  1  1 0.0000 20.913221 44.713101 43.190400
1654  1  1 0.0000 40.520821 44.713101 10.797600
1655  1  1 0.0000 40.520821 44.713101 26.994000
1656  1  1 0.0000 40.520821 44.713101 43.190400
1657  1  1 0.0000 11.109421  2.261402  0.000000
1658  1  1 0.0000 11.109421  2.261402 16.196400
1659  1  1 0.0000 11.109421  2.261402 32.392800
1660  1  1 0.0000 11.109421 36.222761  0.000000
1661  1  1 0.0000 11.109421 36.222761 16.196400
1662  1  1 0.0000 11.109421 36.222761 32.392800
1663  1  1 0.0000 30.717021  2.261402  0.000000
1664  1  1 0.0000 30.717021  2.261402 16.196400
1665  1  1 0.0000 30.717021  2.261402 32.392800
1666  1  1 0.0000 50.324621  2.261402  0.000000
1667  1  1 0.0000 50.324621  2.261402 16.196400
1668  1  1 0.0000 50.324621  2.261402 32.392800
1669  1  1 0.0000 50.324621 19.242082  0.000000
1670  1  1 0.0000 50.324621 19.242082 16.196400
1671  1  1 0.0000 50.324621 19.242082 32.392800
1672  1  1 0.0000 50.324621 36.222761  0.000000
1673  1  1 0.0000 50.324621 36.222761 16.196400
1674  1  1 0.0000 50.324621 36.222761 32.392800
1675  1  1 0.0000 11.109421  2.261402  5.398800
1676  1  1 0.0000 11.109421  2.261402 21.595200
1677  1  1 0.0000 11.109421  2.261402 37.791600
1678  1  1 0.0000 11.109421 36.222761  5.398800
1679  1  1 0.0000 11.109421 36.222761 21.595200
1680  1  1 0.0000 11.109421 36.222761 37.791600
1681  1  1 0.0000 30.717021  2.261402  5.398800
1682  1  1 0.0000 30.717021  2.261402 21.595200
1683  1  1 0.0000 30.717021  2.261402 37.791600
1684  1  1 0.0000 50.324621  2.261402  5.398800
1685  1  1 0.0000 50.324621  2.261402 21.595200
1686  1  1 0.0000 50.324621  2.261402 37.791600
1687  1  1 0.0000 50.324621 19.242082  5.398800
1688  1  1 0.0000 50.324621 19.242082 21.595200
1689  1  1 0.0000 50.324621 19.242082 37.791600
1690  1  1 0.0000 50.324621 36.222761  5.398800
1691  1  1 0.0000 50.324621 36.222761 21.595200
1692  1  1 0.0000 50.324621 36.222761 37.791600
1693  1  1 0.0000 11.109421  2.261402 10.797600
1694  1  1 0.0000 11.109421  2.261402 26.994000
1695  1  1 0.0000 11.109421  2.261402 43.190400
1696  1  1 0.0000 11.109421 36.222761 10.797600
1697  1  1 0.0000 11.109421 36.222761 26.994000
1698  1  1 0.0000 11.109421 36.222761 43.190400
1699  1  1 0.0000 30.717021  2.261402 10.797600
1700  1  1 0.0000 30.717021  2.261402 26.994000
1701  1  1 0.0000 30.717021  2.261402 43.190400
1702  1  1 0.0000 50.324621  2.261402 10.797600
1703  1  1 0.0000 50.324621  2.261402 26.994000
1704  1  1 0.0000 50.324621  2.261402 43.190400
1705  1  1 0.0000 50.324621 19.242082 10.797600
1706  1  1 0.0000 50.324621 19.242082 26.994000
1707  1  1 0.0000 50.324621 19.242082 43.190400
1708  1  1 0.0000 50.324621 36.222761 10.797600
1709  1  1 0.0000 50.324621 36.222761 26.994000
1710  1  1 0.0000 50.324621 36.222761 43.190400
1711  1  1 0.0000  8.658471  6.506572  0.000000
1712  1  1 0.0000  8.658471  6.506572 16.196400
1713  1  1 0.0000  8.658471  6.506572 32.392800
1714  1  1 0.0000  8.658471 23.487252  0.000000
1715  1  1 0.0000  8.658471 23.487252 16.196400
1716  1  1 0.0000  8.658471 23.487252 32.392800
1717  1  1 0.0000  8.658471 40.467931  0.000000
1718  1  1 0.0000  8.658471 40.467931 16.196400
1719  1  1 0.0000  8.658471 40.467931 32.392800
1720  1  1 0.0000 47.873671  6.506572  0.000000
1721  1  1 0.0000 47.873671  6.506572 16.196400
1722  1  1 0.0000 47.873671  6.506572 32.392800
1723  1  1 0.0000 47.873671 40.467931  0.000000
1724  1  1 0.0000 47.873671 40.467931 16.196400
1725  1  1 0.0000 47.873671 40.467931 32.392800
1726  1  1 0.0000  8.658471  6.506572  5.398800
1727  1  1 0.0000  8.658471  6.506572 21.595200
1728  1  1 0.0000  8.658471  6.506572 37.791600
1729  1  1 0.0000  8.658471 23.487252  5.398800
1730  1  1 0.0000  8.658471 23.487252 21.595200
1731  1  1 0.0000  8.658471 23.487252 37.791600
1732  1  1 0.0000  8.658471 40.467931  5.398800
1733  1  1 0.0000  8.658471 40.467931 21.595200
1734  1  1 0.0000  8.658471 40.467931 37.791600
1735  1  1 0.0000 47.873671  6.506572  5.398800
1736  1  1 0.0000 47.873671  6.506572 21.595200
1737  1  1 0.0000 47.873671  6.506572 37.791600
1738  1  1 0.0000 47.873671 40.467931  5.398800
1739  1  1 0.0000 47.873671 40.467931 21.595200
1740  1  1 0.0000 47.873671 40.467931 37.791600
1741  1  1 0.0000  8.658471  6.506572 10.797600
1742  1  1 0.0000  8.658471  6.506572 26.994000
1743  1  1 0.0000  8.658471  6.506572 43.190400
1744  1  1 0.0000  8.658471 23.487252 10.797600
1745  1  1 0.0000  8.658471 23.487252 26.994000
1746  1  1 0.0000  8.658471 23.487252 43.190400
1747  1  1 0.0000  8.658471 40.467931 10.797600
1748  1  1 0.0000  8.658471 40.467931 26.994000
1749  1  1 0.0000  8.658471 40.467931 43.190400
1750  1  1 0.0000 47.873671  6.506572 10.797600
1751  1  1 0.0000 47.873671  6.506572 26.994000
1752  1  1 0.0000 47.873671  6.506572 43.190400
1753  1  1 0.0000 47.873671 40.467931 10.797600
1754  1  1 0.0000 47.873671 40.467931 26.994000
1755  1  1 0.0000 47.873671 40.467931 43.190400
1756  1  1 0.0000  6.207521 10.751742  0.000000
1757  1  1 0.0000  6.207521 10.751742 16.196400
1758  1  1 0.0000  6.207521 10.751742 32.392800
1759  1  1 0.0000  6.207521 27.732422  0.000000
1760  1  1 0.0000  6.207521 27.732422 16.196400
1761  1  1 0.0000  6.207521 27.732422 32.392800
1762  1  1 0.0000  6.207521 44.713101  0.000000
1763  1  1 0.0000  6.207521 44.713101 16.196400
1764  1  1 0.0000  6.207521 44.713101 32.392800
1765  1  1 0.0000 45.422721 10.751742  0.000000
1766  1  1 0.0000 45.422721 10.751742 16.196400
1767  1  1 0.0000 45.422721 10.751742 32.392800
1768  1  1 0.0000 45.422721 44.713101  0.000000
1769  1  1 0.0000 45.422721 44.713101 16.196400
1770  1  1 0.0000 45.422721 44.713101 32.392800
1771  1  1 0.0000  6.207521 10.751742  5.398800
1772  1  1 0.0000  6.207521 10.751742 21.595200
1773  1  1 0.0000  6.207521 10.751742 37.791600
1774  1  1 0.0000  6.207521 27.732422  5.398800
1775  1  1 0.0000  6.207521 27.732422 21.595200
1776  1  1 0.0000  6.207521 27.732422 37.791600
1777  1  1 0.0000  6.207521 44.713101  5.398800
1778  1  1 0.0000  6.207521 44.713101 21.595200
1779  1  1 0.0000  6.207521 44.713101 37.791600
1780  1  1 0.0000 45.422721 10.751742  5.398800
1781  1  1 0.0000 45.422721 10.751742 21.595200
1782  1  1 0.0000 45.422721 10.751742 37.791600
1783  1  1 0.0000 45.422721 44.713101  5.398800
1784  1  1 0.0000 45.422721 44.713101 21.595200
1785  1  1 0.0000 45.422721 44.713101 37.791600
1786  1  1 0.0000  6.207521 10.751742 10.797600
1787  1  1 0.0000  6.207521 10.751742 26.994000
1788  1  1 0.0000  6.207521 10.751742 43.190400
1789  1  1 0.0000  6.207521 27.732422 10.797600
1790  1  1 0.0000  6.207521 27.732422 26.994000
1791  1  1 0.0000  6.207521 27.732422 43.190400
1792  1  1 0.0000  6.207521 44.713101 10.797600
1793  1  1 0.0000  6.207521 44.713101 26.994000
1794  1  1 0.0000  6.207521 44.713101 43.190400
1795  1  1 0.0000 45.422721 10.751742 10.797600
1796  1  1 0.0000 45.422721 10.751742 26.994000
1797  1  1 0.0000 45.422721 10.751742 43.190400
1798  1  1 0.0000 45.422721 44.713101 10.797600
1799  1  1 0.0000 45.422721 44.713101 26.994000
1800  1  1 0.0000 45.422721 44.713101 43.190400
1801  1  1 0.0000  3.756571 14.996912  0.000000
1802  1  1 0.0000  3.756571 14.996912 16.196400
1803  1  1 0.0000  3.756571 14.996912 32.392800
1804  1  1 0.0000  3.756571 31.977592  0.000000
1805  1  1 0.0000  3.756571 31.977592 16.196400
1806  1  1 0.0000  3.756571 31.977592 32.392800
1807  1  1 0.0000  3.756571 48.958271  0.000000
1808  1  1 0.0000  3.756571 48.958271 16.196400
1809  1  1 0.0000  3.756571 48.958271 32.392800
1810  1  1 0.0000 23.364171 48.958271  0.000000
1811  1  1 0.0000 23.364171 48.958271 16.196400
1812  1  1 0.0000 23.364171 48.958271 32.392800
1813  1  1 0.0000 42.971771 48.958271  0.000000
1814  1  1 0.0000 42.971771 48.958271 16.196400
1815  1  1 0.0000 42.971771 48.958271 32.392800
1816  1  1 0.0000  3.756571 14.996912  5.398800
1817  1  1 0.0000  3.756571 14.996912 21.595200
1818  1  1 0.0000  3.756571 14.996912 37.791600
1819  1  1 0.0000  3.756571 31.977592  5.398800
1820  1  1 0.0000  3.756571 31.977592 21.595200
1821  1  1 0.0000  3.756571 31.977592 37.791600
1822  1  1 0.0000  3.756571 48.958271  5.398800
1823  1  1 0.0000  3.756571 48.958271 21.595200
1824  1  1 0.0000  3.756571 48.958271 37.791600
1825  1  1 0.0000 23.364171 48.958271  5.398800
1826  1  1 0.0000 23.364171 48.958271 21.595200
1827  1  1 0.0000 23.364171 48.958271 37.791600
1828  1  1 0.0000 42.971771 48.958271  5.398800
1829  1  1 0.0000 42.971771 48.958271 21.595200
1830  1  1 0.0000 42.971771 48.958271 37.791600
1831  1  1 0.0000  3.756571 14.996912 10.797600
1832  1  1 0.0000  3.756571 14.996912 26.994000
1833  1  1 0.0000  3.756571 14.996912 43.190400
1834  1  1 0.0000  3.756571 31.977592 10.797600
1835  1  1 0.0000  3.756571 31.977592 26.994000
1836  1  1 0.0000  3.756571 31.977592 43.190400
1837  1  1 0.0000  3.756571 48.958271 10.797600
1838  1  1 0.0000  3.756571 48.958271 26.994000
1839  1  1 0.0000  3.756571 48.958271 43.190400
1840  1  1 0.0000 23.364171 48.958271 10.797600
1841  1  1 0.0000 23.364171 48.958271 26.994000
1842  1  1 0.0000 23.364171 48.958271 43.190400
1843  1  1 0.0000 42.971771 48.958271 10.797600
1844  1  1 0.0000 42.971771 48.958271 26.994000
1845  1  1 0.0000 42.971771 48.958271 43.190400
1846  1  1 0.0000 16.011321  2.261402  0.000000
1847  1  1 0.0000 16.011321  2.261402 16.196400
1848  1  1 0.0000 16.011321  2.261402 32.392800
1849  1  1 0.0000 35.618921  2.261402  0.000000
1850  1  1 0.0000 35.618921  2.261402 16.196400
1851  1  1 0.0000 35.618921  2.261402 32.392800
1852  1  1 0.0000 55.226521  2.261402  0.000000
1853  1  1 0.0000 55.226521  2.261402 16.196400
1854  1  1 0.0000 55.226521  2.261402 32.392800
1855  1  1 0.0000 55.226521 19.242082  0.000000
1856  1  1 0.0000 55.226521 19.242082 16.196400
1857  1  1 0.0000 55.226521 19.242082 32.392800
1858  1  1 0.0000 55.226521 36.222761  0.000000
1859  1  1 0.0000 55.226521 36.222761 16.196400
1860  1  1 0.0000 55.226521 36.222761 32.392800
1861  1  1 0.0000 16.011321  2.261402  5.398800
1862  1  1 0.0000 16.011321  2.261402 21.595200
1863  1  1 0.0000 16.011321  2.261402 37.791600
1864  1  1 0.0000 35.618921  2.261402  5.398800
1865  1  1 0.0000 35.618921  2.261402 21.595200
1866  1  1 0.0000 35.618921  2.261402 37.791600
1867  1  1 0.0000 55.226521  2.261402  5.398800
1868  1  1 0.0000 55.226521  2.261402 21.595200
1869  1  1 0.0000 55.226521  2.261402 37.791600
1870  1  1 0.0000 55.226521 19.242082  5.398800
1871  1  1 0.0000 55.226521 19.242082 21.595200
1872  1  1 0.0000 55.226521 19.242082 37.791600
1873  1  1 0.0000 55.226521 36.222761  5.398800
1874  1  1 0.0000 55.226521 36.222761 21.595200
1875  1  1 0.0000 55.226521 36.222761 37.791600
1876  1  1 0.0000 16.011321  2.261402 10.797600
1877  1  1 0.0000 16.011321  2.261402 26.994000
1878  1  1 0.0000 16.011321  2.261402 43.190400
1879  1  1 0.0000 35.618921  2.261402 10.797600
1880  1  1 0.0000 35.618921  2.261402 26.994000
1881  1  1 0.0000 35.618921  2.261402 43.190400
1882  1  1 0.0000 55.226521  2.261402 10.797600
1883  1  1 0.0000 55.226521  2.261402 26.994000
1884  1  1 0.0000 55.226521  2.261402 43.190400
1885  1  1 0.0000 55.226521 19.242082 10.797600
1886  1  1 0.0000 55.226521 19.242082 26.994000
1887  1  1 0.0000 55.226521 19.242082 43.190400
1888  1  1 0.0000 55.226521 36.222761 10.797600
1889  1  1 0.0000 55.226521 36.222761 26.994000
1890  1  1 0.0000 55.226521 36.222761 43.190400
1891  1  1 0.0000 13.560371  6.506572  0.000000
1892  1  1 0.0000 13.560371  6.506572 16.196400
1893  1  1 0.0000 13.560371  6.506572 32.392800
1894  1  1 0.0000 13.560371 40.467931  0.000000
1895  1  1 0.0000 13.560371 40.467931 16.196400
1896  1  1 0.0000 13.560371 40.467931 32.392800
1897  1  1 0.0000 52.775571  6.506572  0.000000
1898  1  1 0.0000 52.775571  6.506572 16.196400
1899  1  1 0.0000 52.775571  6.506572 32.392800
1900  1  1 0.0000 52.775571 23.487252  0.000000
1901  1  1 0.0000 52.775571 23.487252 16.196400
1902  1  1 0.0000 52.775571 23.487252 32.392800
1903  1  1 0.0000 52.775571 40.467931  0.000000
1904  1  1 0.0000 52.775571 40.467931 16.196400
1905  1  1 0.0000 52.775571 40.467931 32.392800
1906  1  1 0.0000 13.560371  6.506572  5.398800
1907  1  1 0.0000 13.560371  6.506572 21.595200
1908  1  1 0.0000 13.560371  6.506572 37.791600
1909  1  1 0.0000 13.560371 40.467931  5.398800
1910  1  1 0.0000 13.560371 40.467931 21.595200
1911  1  1 0.0000 13.560371 40.467931 37.791600
1912  1  1 0.0000 52.775571  6.506572  5.398800
1913  1  1 0.0000 52.775571  6.506572 21.595200
1914  1  1 0.0000 52.775571  6.506572 37.791600
1915  1  1 0.0000 52.775571 23.487252  5.398800
1916  1  1 0.0000 52.775571 23.487252 21.595200
1917  1  1 0.0000 52.775571 23.487252 37.791600
1918  1  1 0.0000 52.775571 40.467931  5.398800
1919  1  1 0.0000 52.775571 40.467931 21.595200
1920  1  1 0.0000 52.775571 40.467931 37.791600
1921  1  1 0.0000 13.560371  6.506572 10.797600
1922  1  1 0.0000 13.560371  6.506572 26.994000
1923  1  1 0.0000 13.560371  6.506572 43.190400
1924  1  1 0.0000 13.560371 40.467931 10.797600
1925  1  1 0.0000 13.560371 40.467931 26.994000
1926  1  1 0.0000 13.560371 40.467931 43.190400
1927  1  1 0.0000 52.775571  6.506572 10.797600
1928  1  1 0.0000 52.775571  6.506572 26.994000
1929  1  1 0.0000 52.775571  6.506572 43.190400
1930  1  1 0.0000 52.775571 23.487252 10.797600
1931  1  1 0.0000 52.775571 23.487252 26.994000
1932  1  1 0.0000 52.775571 23.487252 43.190400
1933  1  1 0.0000 52.775571 40.467931 10.797600
1934  1  1 0.0000 52.775571 40.467931 26.994000
1935  1  1 0.0000 52.775571 40.467931 43.190400
1936  1  1 0.0000 11.109421 10.751742  0.000000
1937  1  1 0.0000 11.109421 10.751742 16.196400
1938  1  1 0.0000 11.109421 10.751742 32.392800
1939  1  1 0.0000 11.109421 44.713101  0.000000
1940  1  1 0.0000 11.109421 44.713101 16.196400
1941  1  1 0.0000 11.109421 44.713101 32.392800
1942  1  1 0.0000 50.324621 10.751742  0.000000
1943  1  1 0.0000 50.324621 10.751742 16.196400
1944  1  1 0.0000 50.324621 10.751742 32.392800
1945  1  1 0.0000 50.324621 27.732422  0.000000
1946  1  1 0.0000 50.324621 27.732422 16.196400
1947  1  1 0.0000 50.324621 27.732422 32.392800
1948  1  1 0.0000 50.324621 44.713101  0.000000
1949  1  1 0.0000 50.324621 44.713101 16.196400
1950  1  1 0.0000 50.324621 44.713101 32.392800
1951  1  1 0.0000 11.109421 10.751742  5.398800
1952  1  1 0.0000 11.109421 10.751742 21.595200
1953  1  1 0.0000 11.109421 10.751742 37.791600
1954  1  1 0.0000 11.109421 44.713101  5.398800
1955  1  1 0.0000 11.109421 44.713101 21.595200
1956  1  1 0.0000 11.109421 44.713101 37.791600
1957  1  1 0.0000 50.324621 10.751742  5.398800
1958  1  1 0.0000 50.324621 10.751742 21.595200
1959  1  1 0.0000 50.324621 10.751742 37.791600
1960  1  1 0.0000 50.324621 27.732422  5.398800
1961  1  1 0.0000 50.324621 27.732422 21.595200
1962  1  1 0.0000 50.324621 27.732422 37.791600
1963  1  1 0.0000 50.324621 44.713101  5.398800
1964  1  1 0.0000 50.324621 44.713101 21.595200
1965  1  1 0.0000 50.324621 44.713101 37.791600
1966  1  1 0.0000 11.109421 10.751742 10.797600
1967  1  1 0.0000 11.109421 10.751742 26.994000
1968  1  1 0.0000 11.109421 10.751742 43.190400
1969  1  1 0.0000 11.109421 44.713101 10.797600
1970  1  1 0.0000 11.109421 44.713101 26.994000
1971  1  1 0.0000 11.109421 44.713101 43.190400
1972  1  1 0.0000 50.324621 10.751742 10.797600
1973  1  1 0.0000 50.324621 10.751742 26.994000
1974  1  1 0.0000 50.324621 10.751742 43.190400
1975  1  1 0.0000 50.324621 27.732422 10.797600
1976  1  1 0.0000 50.324621 27.732422 26.994000
1977  1  1 0.0000 50.324621 27.732422 43.190400
1978  1  1 0.0000 50.324621 44.713101 10.797600
1979  1  1 0.0000 50.324621 44.713101 26.994000
1980  1  1 0.0000 50.324621 44.713101 43.190400
1981  1  1 0.0000  8.658471 14.996912  0.000000
1982  1  1 0.0000  8.658471 14.996912 16.196400
1983  1  1 0.0000  8.658471 14.996912 32.392800
1984  1  1 0.0000  8.658471 31.977592  0.000000
1985  1  1 0.0000  8.658471 31.977592 16.196400
1986  1  1 0.0000  8.658471 31.977592 32.392800
1987  1  1 0.0000  8.658471 48.958271  0.000000
1988  1  1 0.0000  8.658471 48.958271 16.196400
1989  1  1 0.0000  8.658471 48.958271 32.392800
1990  1  1 0.0000 28.266071 48.958271  0.000000
1991  1  1 0.0000 28.266071 48.958271 16.196400
1992  1  1 0.0000 28.266071 48.958271 32.392800
1993  1  1 0.0000 47.873671 14.996912  0.000000
1994  1  1 0.0000 47.873671 14.996912 16.196400
1995  1  1 0.0000 47.873671 14.996912 32.392800
1996  1  1 0.0000 47.873671 48.958271  0.000000
1997  1  1 0.0000 47.873671 48.958271 16.196400
1998  1  1 0.0000 47.873671 48.958271 32.392800
1999  1  1 0.0000  8.658471 14.996912  5.398800
2000  1  1 0.0000  8.658471 14.996912 21.595200
2001  1  1 0.0000  8.658471 14.996912 37.791600
2002  1  1 0.0000  8.658471 31.977592  5.398800
2003  1  1 0.0000  8.658471 31.977592 21.595200
2004  1  1 0.0000  8.658471 31.977592 37.791600
2005  1  1 0.0000  8.658471 48.958271  5.398800
2006  1  1 0.0000  8.658471 48.958271 21.595200
2007  1  1 0.0000  8.658471 48.958271 37.791600
2008  1  1 0.0000 28.266071 48.958271  5.398800
2009  1  1 0.0000 28.266071 48.958271 21.595200
2010  1  1 0.0000 28.266071 48.958271 37.791600
2011  1  1 0.0000 47.873671 14.996912  5.398800
2012  1  1 0.0000 47.873671 14.996912 21.595200
2013  1  1 0.0000 47.873671 14.996912 37.791600
2014  1  1 0.0000 47.873671 48.958271  5.398800
2015  1  1 0.0000 47.873671 48.958271 21.595200
2016  1  1 0.0000 47.873671 48.958271 37.791600
2017  1  1 0.0000  8.658471 14.996912 10.797600
2018  1  1 0.0000  8.658471 14.996912 26.994000
2019  1  1 0.0000  8.658471 14.996912 43.190400
2020  1  1 0.0000  8.658471 31.977592 10.797600
2021  1  1 0.0000  8.658471 31.977592 26.994000
2022  1  1 0.0000  8.658471 31.977592 43.190400
2023  1  1 0.0000  8.658471 48.958271 10.797600
2024  1  1 0.0000  8.658471 48.958271 26.994000
2025  1  1 0.0000  8.658471 48.958271 43.190400
2026  1  1 0.0000 28.266071 48.958271 10.797600
2027  1  1 0.0000 28.266071 48.958271 26.994000
2028  1  1 0.0000 28.266071 48.958271 43.190400
2029  1  1 0.0000 47.873671 14.996912 10.797600
2030  1  1 0.0000 47.873671 14.996912 26.994000
2031  1  1 0.0000 47.873671 14.996912 43.190400
2032  1  1 0.0000 47.873671 48.958271 10.797600
2033  1  1 0.0000 47.873671 48.958271 26.994000
2034  1  1 0.0000 47.873671 48.958271 43.190400
2035  1  1 0.0000 18.462271  6.506572  0.000000
2036  1  1 0.0000 18.462271  6.506572 16.196400
2037  1  1 0.0000 18.462271  6.506572 32.392800
2038  1  1 0.0000 38.069871  6.506572  0.000000
2039  1  1 0.0000 38.069871  6.506572 16.196400
2040  1  1 0.0000 38.069871  6.506572 32.392800
2041  1  1 0.0000 57.677471  6.506572  0.000000
2042  1  1 0.0000 57.677471  6.506572 16.196400
2043  1  1 0.0000 57.677471  6.506572 32.392800
2044  1  1 0.0000 57.677471 23.487252  0.000000
2045  1  1 0.0000 57.677471 23.487252 16.196400
2046  1  1 0.0000 57.677471 23.487252 32.392800
2047  1  1 0.0000 57.677471 40.467931  0.000000
2048  1  1 0.0000 57.677471 40.467931 16.196400
2049  1  1 0.0000 57.677471 40.467931 32.392800
2050  1  1 0.0000 18.462271  6.506572  5.398800
2051  1  1 0.0000 18.462271  6.506572 21.595200
2052  1  1 0.0000 18.462271  6.506572 37.791600
2053  1  1 0.0000 38.069871  6.506572  5.398800
2054  1  1 0.0000 38.069871  6.506572 21.595200
2055  1  1 0.0000 38.069871  6.506572 37.791600
2056  1  1 0.0000 57.677471  6.506572  5.398800
2057  1  1 0.0000 57.677471  6.506572 21.595200
2058  1  1 0.0000 57.677471  6.506572 37.791600
2059  1  1 0.0000 57.677471 23.487252  5.398800
2060  1  1 0.0000 57.677471 23.487252 21.595200
2061  1  1 0.0000 57.677471 23.487252 37.791600
2062  1  1 0.0000 57.677471 40.467931  5.398800
2063  1  1 0.0000 57.677471 40.467931 21.595200
2064  1  1 0.0000 57.677471 40.467931 37.791600
2065  1  1 0.0000 18.462271  6.506572 10.797600
2066  1  1 0.0000 18.462271  6.506572 26.994000
2067  1  1 0.0000 18.462271  6.506572 43.190400
2068  1  1 0.0000 38.069871  6.506572 10.797600
2069  1  1 0.0000 38.069871  6.506572 26.994000
2070  1  1 0.0000 38.069871  6.506572 43.190400
2071  1  1 0.0000 57.677471  6.506572 10.797600
2072  1  1 0.0000 57.677471  6.506572 26.994000
2073  1  1 0.0000 57.677471  6.506572 43.190400
2074  1  1 0.0000 57.677471 23.487252 10.797600
2075  1  1 0.0000 57.677471 23.487252 26.994000
2076  1  1 0.0000 57.677471 23.487252 43.190400
2077  1  1 0.0000 57.677471 40.467931 10.797600
2078  1  1 0.0000 57.677471 40.467931 26.994000
2079  1  1 0.0000 57.677471 40.467931 43.190400
2080  1  1 0.0000 16.011321 44.713101  0.000000
2081  1  1 0.0000 16.011321 44.713101 16.196400
2082  1  1 0.0000 16.011321 44.713101 32.392800
2083  1  1 0.0000 35.618921 44.713101  0.000000
2084  1  1 0.0000 35.618921 44.713101 16.196400
2085  1  1 0.0000 35.618921 44.713101 32.392800
2086  1  1 0.0000 55.226521 10.751742  0.000000
2087  1  1 0.0000 55.226521 10.751742 16.196400
2088  1  1 0.0000 55.226521 10.751742 32.392800
2089  1  1 0.0000 55.226521 27.732422  0.000000
2090  1  1 0.0000 55.226521 27.732422 16.196400
2091  1  1 0.0000 55.226521 27.732422 32.392800
2092  1  1 0.0000 55.226521 44.713101  0.000000
2093  1  1 0.0000 55.226521 44.713101 16.196400
2094  1  1 0.0000 55.226521 44.713101 32.392800
2095  1  1 0.0000 16.011321 44.713101  5.398800
2096  1  1 0.0000 16.011321 44.713101 21.595200
2097  1  1 0.0000 16.011321 44.713101 37.791600
2098  1  1 0.0000 35.618921 44.713101  5.398800
2099  1  1 0.0000 35.618921 44.713101 21.595200
2100  1  1 0.0000 35.618921 44.713101 37.791600
2101  1  1 0.0000 55.226521 10.751742  5.398800
2102  1  1 0.0000 55.226521 10.751742 21.595200
2103  1  1 0.0000 55.226521 10.751742 37.791600
2104  1  1 0.0000 55.226521 27.732422  5.398800
2105  1  1 0.0000 55.226521 27.732422 21.595200
2106  1  1 0.0000 55.226521 27.732422 37.791600
2107  1  1 0.0000 55.226521 44.713101  5.398800
2108  1  1 0.0000 55.226521 44.713101 21.595200
2109  1  1 0.0000 55.226521 44.713101 37.791600
2110  1  1 0.0000 16.011321 44.713101 10.797600
2111  1  1 0.0000 16.011321 44.713101 26.994000
2112  1  1 0.0000 16.011321 44.713101 43.190400
2113  1  1 0.0000 35.618921 44.713101 10.797600
2114  1  1 0.0000 35.618921 44.713101 26.994000
2115  1  1 0.0000 35.618921 44.713101 43.190400
2116  1  1 0.0000 55.226521 10.751742 10.797600
2117  1  1 0.0000 55.226521 10.751742 26.994000
2118  1  1 0.0000 55.226521 10.751742 43.190400
2119  1  1 0.0000 55.226521 27.732422 10.797600
2120  1  1 0.0000 55.226521 27.732422 26.994000
2121  1  1 0.0000 55.226521 27.732422 43.190400
2122  1  1 0.0000 55.226521 44.713101 10.797600
2123  1  1 0.0000 55.226521 44.713101 26.994000
2124  1  1 0.0000 55.226521 44.713101 43.190400
2125  1  1 0.0000 13.560371 48.958271  0.000000
2126  1  1 0.0000 13.560371 48.958271 16.196400
2127  1  1 0.0000 13.560371 48.958271 32.392800
2128  1  1 0.0000 33.167971 48.958271  0.000000
2129  1  1 0.0000 33.167971 48.958271 16.196400
2130  1  1 0.0000 33.167971 48.958271 32.392800
2131  1  1 0.0000 52.775571 14.996912  0.000000
2132  1  1 0.0000 52.775571 14.996912 16.196400
2133  1  1 0.0000 52.775571 14.996912 32.392800
2134  1  1 0.0000 52.775571 31.977592  0.000000
2135  1  1 0.0000 52.775571 31.977592 16.196400
2136  1  1 0.0000 52.775571 31.977592 32.392800
2137  1  1 0.0000 52.775571 48.958271  0.000000
2138  1  1 0.0000 52.775571 48.958271 16.196400
2139  1  1 0.0000 52.775571 48.958271 32.392800
2140  1  1 0.0000 13.560371 48.958271  5.398800
2141  1  1 0.0000 13.560371 48.958271 21.595200
2142  1  1 0.0000 13.560371 48.958271 37.791600
2143  1  1 0.0000 33.167971 48.958271  5.398800
2144  1  1 0.0000 33.167971 48.958271 21.595200
2145  1  1 0.0000 33.167971 48.958271 37.791600
2146  1  1 0.0000 52.775571 14.996912  5.398800
2147  1  1 0.0000 52.775571 14.996912 21.595200
2148  1  1 0.0000 52.775571 14.996912 37.791600
2149  1  1 0.0000 52.775571 31.977592  5.398800
2150  1  1 0.0000 52.775571 31.977592 21.595200
2151  1  1 0.0000 52.775571 31.977592 37.791600
2152  1  1 0.0000 52.775571 48.958271  5.398800
2153  1  1 0.0000 52.775571 48.958271 21.595200
2154  1  1 0.0000 52.775571 48.958271 37.791600
2155  1  1 0.0000 13.560371 48.958271 10.797600
2156  1  1 0.0000 13.560371 48.958271 26.994000
2157  1  1 0.0000 13.560371 48.958271 43.190400
2158  1  1 0.0000 33.167971 48.958271 10.797600
2159  1  1 0.0000 33.167971 48.958271 26.994000
2160  1  1 0.0000 33.167971 48.958271 43.190400
2161  1  1 0.0000 52.775571 14.996912 10.797600
2162  1  1 0.0000 52.775571 14.996912 26.994000
2163  1  1 0.0000 52.775571 14.996912 43.190400
2164  1  1 0.0000 52.775571 31.977592 10.797600
2165  1  1 0.0000 52.775571 31.977592 26.994000
2166  1  1 0.0000 52.775571 31.977592 43.190400
2167  1  1 0.0000 52.775571 48.958271 10.797600
2168  1  1 0.0000 52.775571 48.958271 26.994000
2169  1  1 0.0000 52.775571 48.958271 43.190400
2170  1  1 0.0000 18.462271 48.958271  0.000000
2171  1  1 0.0000 18.462271 48.958271 16.196400
2172  1  1 0.0000 18.462271 48.958271 32.392800
2173  1  1 0.0000 38.069871 48.958271  0.000000
2174  1  1 0.0000 38.069871 48.958271 16.196400
2175  1  1 0.0000 38.069871 48.958271 32.392800
2176  1  1 0.0000 57.677471 14.996912  0.000000
2177  1  1 0.0000 57.677471 14.996912 16.196400
2178  1  1 0.0000 57.677471 14.996912 32.392800
2179  1  1 0.0000 57.677471 31.977592  0.000000
2180  1  1 0.0000 57.677471 31.977592 16.196400
2181  1  1 0.0000 57.677471 31.977592 32.392800
2182  1  1 0.0000 57.677471 48.958271  0.000000
2183  1  1 0.0000 57.677471 48.958271 16.196400
2184  1  1 0.0000 57.677471 48.958271 32.392800
2185  1  1 0.0000 18.462271 48.958271  5.398800
2186  1  1 0.0000 18.462271 48.958271 21.595200
2187  1  1 0.0000 18.462271 48.958271 37.791600
2188  1  1 0.0000 38.069871 48.958271  5.398800
2189  1  1 0.0000 38.069871 48.958271 21.595200
2190  1  1 0.0000 38.069871 48.958271 37.791600
2191  1  1 0.0000 57.677471 14.996912  5.398800
2192  1  1 0.0000 57.677471 14.996912 21.595200
2193  1  1 0.0000 57.677471 14.996912 37.791600
2194  1  1 0.0000 57.677471 31.977592  5.398800
2195  1  1 0.0000 57.677471 31.977592 21.595200
2196  1  1 0.0000 57.677471 31.977592 37.791600
2197  1  1 0.0000 57.677471 48.958271  5.398800
2198  1  1 0.0000 57.677471 48.958271 21.595200
2199  1  1 0.0000 57.677471 48.958271 37.791600
2200  1  1 0.0000 18.462271 48.958271 10.797600
2201  1  1 0.0000 18.462271 48.958271 26.994000
2202  1  1 0.0000 18.462271 48.958271 43.190400
2203  1  1 0.0000 38.069871 48.958271 10.797600
2204  1  1 0.0000 38.069871 48.958271 26.994000
2205  1  1 0.0000 38.069871 48.958271 43.190400
2206  1  1 0.0000 57.677471 14.996912 10.797600
2207  1  1 0.0000 57.677471 14.996912 26.994000
2208  1  1 0.0000 57.677471 14.996912 43.190400
2209  1  1 0.0000 57.677471 31.977592 10.797600
2210  1  1 0.0000 57.677471 31.977592 26.994000
2211  1  1 0.0000 57.677471 31.977592 43.190400
2212  1  1 0.0000 57.677471 48.958271 10.797600
2213  1  1 0.0000 57.677471 48.958271 26.994000
2214  1  1 0.0000 57.677471 48.958271 43.190400
2215  1  2 0.0000 25.054011  7.668007 47.962219
2216  1  2 0.0000 26.053276  8.280096  2.426581
2217  1  2 0.0000 25.054011  7.668007  4.771819
2218  1  2 0.0000 25.054011  7.668007 15.569419
2219  1  2 0.0000 26.053276  8.280096 18.622981
2220  1  2 0.0000 25.054011  7.668007 20.968219
2221  1  2 0.0000 25.054011  7.668007 31.765819
2222  1  2 0.0000 26.053276  8.280096 34.819381
2223  1  2 0.0000 25.054011  7.668007 37.164619
2224  1  2 0.0000 26.053276  8.280096  7.825381
2225  1  2 0.0000 25.054011  7.668007 10.170619
2226  1  2 0.0000 26.053276  8.280096 24.021781
2227  1  2 0.0000 25.054011  7.668007 26.367019
2228  1  2 0.0000 26.053276  8.280096 40.218181
2229  1  2 0.0000 25.054011  7.668007 42.563419
2230  1  2 0.0000 26.053276  8.280096 13.224181
2231  1  2 0.0000 26.053276  8.280096 29.420581
2232  1  2 0.0000 26.053276  8.280096 45.616981
2233  1  2 0.0000 40.022874 10.424424  1.172619
2234  1  2 0.0000 39.001369 11.041785 47.416581
2235  1  2 0.0000 39.001369 11.041785  4.226181
2236  1  2 0.0000 41.354714 11.706149 47.962219
2237  1  2 0.0000 42.355216 12.268994  2.426581
2238  1  2 0.0000 41.354714 11.706149  4.771819
2239  1  2 0.0000 39.001369 11.041785 15.023781
2240  1  2 0.0000 40.022874 10.424424 17.369019
2241  1  2 0.0000 39.001369 11.041785 20.422581
2242  1  2 0.0000 41.354714 11.706149 15.569419
2243  1  2 0.0000 42.355216 12.268994 18.622981
2244  1  2 0.0000 41.354714 11.706149 20.968219
2245  1  2 0.0000 39.001369 11.041785 31.220181
2246  1  2 0.0000 40.022874 10.424424 33.565419
2247  1  2 0.0000 39.001369 11.041785 36.618981
2248  1  2 0.0000 41.354714 11.706149 31.765819
2249  1  2 0.0000 42.355216 12.268994 34.819381
2250  1  2 0.0000 41.354714 11.706149 37.164619
2251  1  2 0.0000 39.001369 39.900254 47.962219
2252  1  2 0.0000 40.022874 40.517615  2.426581
2253  1  2 0.0000 39.001369 39.900254  4.771819
2254  1  2 0.0000 42.355216 38.673045  1.172619
2255  1  2 0.0000 41.354714 39.235891 47.416581
2256  1  2 0.0000 41.354714 39.235891  4.226181
2257  1  2 0.0000 39.001369 39.900254 15.569419
2258  1  2 0.0000 40.022874 40.517615 18.622981
2259  1  2 0.0000 39.001369 39.900254 20.968219
2260  1  2 0.0000 41.354714 39.235891 15.023781
2261  1  2 0.0000 42.355216 38.673045 17.369019
2262  1  2 0.0000 41.354714 39.235891 20.422581
2263  1  2 0.0000 39.001369 39.900254 31.765819
2264  1  2 0.0000 40.022874 40.517615 34.819381
2265  1  2 0.0000 39.001369 39.900254 37.164619
2266  1  2 0.0000 41.354714 39.235891 31.220181
2267  1  2 0.0000 42.355216 38.673045 33.565419
2268  1  2 0.0000 41.354714 39.235891 36.618981
2269  1  2 0.0000 40.022874 10.424424  6.571419
2270  1  2 0.0000 39.001369 11.041785  9.624981
2271  1  2 0.0000 42.355216 12.268994  7.825381
2272  1  2 0.0000 41.354714 11.706149 10.170619
2273  1  2 0.0000 40.022874 10.424424 22.767819
2274  1  2 0.0000 39.001369 11.041785 25.821381
2275  1  2 0.0000 42.355216 12.268994 24.021781
2276  1  2 0.0000 41.354714 11.706149 26.367019
2277  1  2 0.0000 40.022874 10.424424 38.964219
2278  1  2 0.0000 39.001369 11.041785 42.017781
2279  1  2 0.0000 42.355216 12.268994 40.218181
2280  1  2 0.0000 41.354714 11.706149 42.563419
2281  1  2 0.0000 40.022874 40.517615  7.825381
2282  1  2 0.0000 39.001369 39.900254 10.170619
2283  1  2 0.0000 42.355216 38.673045  6.571419
2284  1  2 0.0000 41.354714 39.235891  9.624981
2285  1  2 0.0000 40.022874 40.517615 24.021781
2286  1  2 0.0000 39.001369 39.900254 26.367019
2287  1  2 0.0000 42.355216 38.673045 22.767819
2288  1  2 0.0000 41.354714 39.235891 25.821381
2289  1  2 0.0000 40.022874 40.517615 40.218181
2290  1  2 0.0000 39.001369 39.900254 42.563419
2291  1  2 0.0000 42.355216 38.673045 38.964219
2292  1  2 0.0000 41.354714 39.235891 42.017781
2293  1  2 0.0000 40.022874 10.424424 11.970219
2294  1  2 0.0000 42.355216 12.268994 13.224181
2295  1  2 0.0000 40.022874 10.424424 28.166619
2296  1  2 0.0000 42.355216 12.268994 29.420581
2297  1  2 0.0000 40.022874 10.424424 44.363019
2298  1  2 0.0000 42.355216 12.268994 45.616981
2299  1  2 0.0000 40.022874 40.517615 13.224181
2300  1  2 0.0000 42.355216 38.673045 11.970219
2301  1  2 0.0000 40.022874 40.517615 29.420581
2302  1  2 0.0000 42.355216 38.673045 28.166619
2303  1  2 0.0000 40.022874 40.517615 45.616981
2304  1  2 0.0000 42.355216 38.673045 44.363019
2305  1  2 0.0000 11.506203 20.862358  0.626981
2306  1  2 0.0000 12.053003 18.489184  1.172619
2307  1  2 0.0000 11.074929 23.804511 47.962219
2308  1  2 0.0000 12.120332 24.380480  2.426581
2309  1  2 0.0000 11.074929 23.804511  4.771819
2310  1  2 0.0000 11.519015 22.010241  2.972219
2311  1  2 0.0000 11.506203 20.862358 16.823381
2312  1  2 0.0000 12.053003 18.489184 17.369019
2313  1  2 0.0000 11.074929 23.804511 15.569419
2314  1  2 0.0000 12.120332 24.380480 18.622981
2315  1  2 0.0000 11.074929 23.804511 20.968219
2316  1  2 0.0000 11.519015 22.010241 19.168619
2317  1  2 0.0000 11.506203 20.862358 33.019781
2318  1  2 0.0000 12.053003 18.489184 33.565419
2319  1  2 0.0000 11.074929 23.804511 31.765819
2320  1  2 0.0000 12.120332 24.380480 34.819381
2321  1  2 0.0000 11.074929 23.804511 37.164619
2322  1  2 0.0000 11.519015 22.010241 35.365019
2323  1  2 0.0000 27.381533  6.951120 47.416581
2324  1  2 0.0000 27.381533  6.951120  4.226181
2325  1  2 0.0000 29.711865  7.695348 47.962219
2326  1  2 0.0000 30.699745  8.295189  2.426581
2327  1  2 0.0000 29.711865  7.695348  4.771819
2328  1  2 0.0000 27.381533  6.951120 15.023781
2329  1  2 0.0000 27.381533  6.951120 20.422581
2330  1  2 0.0000 29.711865  7.695348 15.569419
2331  1  2 0.0000 30.699745  8.295189 18.622981
2332  1  2 0.0000 29.711865  7.695348 20.968219
2333  1  2 0.0000 27.381533  6.951120 31.220181
2334  1  2 0.0000 27.381533  6.951120 36.618981
2335  1  2 0.0000 29.711865  7.695348 31.765819
2336  1  2 0.0000 30.699745  8.295189 34.819381
2337  1  2 0.0000 29.711865  7.695348 37.164619
2338  1  2 0.0000 11.506203 20.862358  6.025781
2339  1  2 0.0000 12.053003 18.489184  6.571419
2340  1  2 0.0000 12.120332 24.380480  7.825381
2341  1  2 0.0000 11.074929 23.804511 10.170619
2342  1  2 0.0000 11.519015 22.010241  8.371019
2343  1  2 0.0000 11.506203 20.862358 22.222181
2344  1  2 0.0000 12.053003 18.489184 22.767819
2345  1  2 0.0000 12.120332 24.380480 24.021781
2346  1  2 0.0000 11.074929 23.804511 26.367019
2347  1  2 0.0000 11.519015 22.010241 24.567419
2348  1  2 0.0000 11.506203 20.862358 38.418581
2349  1  2 0.0000 12.053003 18.489184 38.964219
2350  1  2 0.0000 12.120332 24.380480 40.218181
2351  1  2 0.0000 11.074929 23.804511 42.563419
2352  1  2 0.0000 11.519015 22.010241 40.763819
2353  1  2 0.0000 27.381533  6.951120  9.624981
2354  1  2 0.0000 30.699745  8.295189  7.825381
2355  1  2 0.0000 29.711865  7.695348 10.170619
2356  1  2 0.0000 27.381533  6.951120 25.821381
2357  1  2 0.0000 30.699745  8.295189 24.021781
2358  1  2 0.0000 29.711865  7.695348 26.367019
2359  1  2 0.0000 27.381533  6.951120 42.017781
2360  1  2 0.0000 30.699745  8.295189 40.218181
2361  1  2 0.0000 29.711865  7.695348 42.563419
2362  1  2 0.0000 11.506203 20.862358 11.424581
2363  1  2 0.0000 12.053003 18.489184 11.970219
2364  1  2 0.0000 12.120332 24.380480 13.224181
2365  1  2 0.0000 11.519015 22.010241 13.769819
2366  1  2 0.0000 11.506203 20.862358 27.620981
2367  1  2 0.0000 12.053003 18.489184 28.166619
2368  1  2 0.0000 12.120332 24.380480 29.420581
2369  1  2 0.0000 11.519015 22.010241 29.966219
2370  1  2 0.0000 11.506203 20.862358 43.817381
2371  1  2 0.0000 12.053003 18.489184 44.363019
2372  1  2 0.0000 12.120332 24.380480 45.616981
2373  1  2 0.0000 11.519015 22.010241 46.162619
2374  1  2 0.0000 30.699745  8.295189 13.224181
2375  1  2 0.0000 30.699745  8.295189 29.420581
2376  1  2 0.0000 30.699745  8.295189 45.616981
2377  1  2 0.0000 26.053276 42.661943  1.172619
2378  1  2 0.0000 25.054011 43.274032 47.416581
2379  1  2 0.0000 25.054011 43.274032  4.226181
2380  1  2 0.0000 25.054011 43.274032 15.023781
2381  1  2 0.0000 26.053276 42.661943 17.369019
2382  1  2 0.0000 25.054011 43.274032 20.422581
2383  1  2 0.0000 25.054011 43.274032 31.220181
2384  1  2 0.0000 26.053276 42.661943 33.565419
2385  1  2 0.0000 25.054011 43.274032 36.618981
2386  1  2 0.0000 26.053276 42.661943  6.571419
2387  1  2 0.0000 25.054011 43.274032  9.624981
2388  1  2 0.0000 26.053276 42.661943 22.767819
2389  1  2 0.0000 25.054011 43.274032 25.821381
2390  1  2 0.0000 26.053276 42.661943 38.964219
2391  1  2 0.0000 25.054011 43.274032 42.017781
2392  1  2 0.0000 26.053276 42.661943 11.970219
2393  1  2 0.0000 26.053276 42.661943 28.166619
2394  1  2 0.0000 26.053276 42.661943 44.363019
2395  1  2 0.0000 32.044152  6.947289 47.416581
2396  1  2 0.0000 32.044152  6.947289  4.226181
2397  1  2 0.0000 34.372781  7.660334 47.962219
2398  1  2 0.0000 35.360471  8.245370  2.426581
2399  1  2 0.0000 34.372781  7.660334  4.771819
2400  1  2 0.0000 32.044152  6.947289 15.023781
2401  1  2 0.0000 32.044152  6.947289 20.422581
2402  1  2 0.0000 34.372781  7.660334 15.569419
2403  1  2 0.0000 35.360471  8.245370 18.622981
2404  1  2 0.0000 34.372781  7.660334 20.968219
2405  1  2 0.0000 32.044152  6.947289 31.220181
2406  1  2 0.0000 32.044152  6.947289 36.618981
2407  1  2 0.0000 34.372781  7.660334 31.765819
2408  1  2 0.0000 35.360471  8.245370 34.819381
2409  1  2 0.0000 34.372781  7.660334 37.164619
2410  1  2 0.0000 32.044152  6.947289  9.624981
2411  1  2 0.0000 35.360471  8.245370  7.825381
2412  1  2 0.0000 34.372781  7.660334 10.170619
2413  1  2 0.0000 32.044152  6.947289 25.821381
2414  1  2 0.0000 35.360471  8.245370 24.021781
2415  1  2 0.0000 34.372781  7.660334 26.367019
2416  1  2 0.0000 32.044152  6.947289 42.017781
2417  1  2 0.0000 35.360471  8.245370 40.218181
2418  1  2 0.0000 34.372781  7.660334 42.563419
2419  1  2 0.0000 35.360471  8.245370 13.224181
2420  1  2 0.0000 35.360471  8.245370 29.420581
2421  1  2 0.0000 35.360471  8.245370 45.616981
2422  1  2 0.0000 11.519015 28.931798  0.626981
2423  1  2 0.0000 12.120332 26.561559  1.172619
2424  1  2 0.0000 11.074929 27.137528 47.416581
2425  1  2 0.0000 11.074929 27.137528  4.226181
2426  1  2 0.0000 12.053003 32.452855  2.426581
2427  1  2 0.0000 11.506203 30.079681  2.972219
2428  1  2 0.0000 11.519015 28.931798 16.823381
2429  1  2 0.0000 11.074929 27.137528 15.023781
2430  1  2 0.0000 12.120332 26.561559 17.369019
2431  1  2 0.0000 11.074929 27.137528 20.422581
2432  1  2 0.0000 12.053003 32.452855 18.622981
2433  1  2 0.0000 11.506203 30.079681 19.168619
2434  1  2 0.0000 11.519015 28.931798 33.019781
2435  1  2 0.0000 11.074929 27.137528 31.220181
2436  1  2 0.0000 12.120332 26.561559 33.565419
2437  1  2 0.0000 11.074929 27.137528 36.618981
2438  1  2 0.0000 12.053003 32.452855 34.819381
2439  1  2 0.0000 11.506203 30.079681 35.365019
2440  1  2 0.0000 27.381533 43.990919 47.962219
2441  1  2 0.0000 27.381533 43.990919  4.771819
2442  1  2 0.0000 30.699745 42.646850  1.172619
2443  1  2 0.0000 29.711865 43.246691 47.416581
2444  1  2 0.0000 29.711865 43.246691  4.226181
2445  1  2 0.0000 27.381533 43.990919 15.569419
2446  1  2 0.0000 27.381533 43.990919 20.968219
2447  1  2 0.0000 29.711865 43.246691 15.023781
2448  1  2 0.0000 30.699745 42.646850 17.369019
2449  1  2 0.0000 29.711865 43.246691 20.422581
2450  1  2 0.0000 27.381533 43.990919 31.765819
2451  1  2 0.0000 27.381533 43.990919 37.164619
2452  1  2 0.0000 29.711865 43.246691 31.220181
2453  1  2 0.0000 30.699745 42.646850 33.565419
2454  1  2 0.0000 29.711865 43.246691 36.618981
2455  1  2 0.0000 11.519015 28.931798  6.025781
2456  1  2 0.0000 12.120332 26.561559  6.571419
2457  1  2 0.0000 11.074929 27.137528  9.624981
2458  1  2 0.0000 12.053003 32.452855  7.825381
2459  1  2 0.0000 11.506203 30.079681  8.371019
2460  1  2 0.0000 11.519015 28.931798 22.222181
2461  1  2 0.0000 12.120332 26.561559 22.767819
2462  1  2 0.0000 11.074929 27.137528 25.821381
2463  1  2 0.0000 12.053003 32.452855 24.021781
2464  1  2 0.0000 11.506203 30.079681 24.567419
2465  1  2 0.0000 11.519015 28.931798 38.418581
2466  1  2 0.0000 12.120332 26.561559 38.964219
2467  1  2 0.0000 11.074929 27.137528 42.017781
2468  1  2 0.0000 12.053003 32.452855 40.218181
2469  1  2 0.0000 11.506203 30.079681 40.763819
2470  1  2 0.0000 27.381533 43.990919 10.170619
2471  1  2 0.0000 30.699745 42.646850  6.571419
2472  1  2 0.0000 29.711865 43.246691  9.624981
2473  1  2 0.0000 27.381533 43.990919 26.367019
2474  1  2 0.0000 30.699745 42.646850 22.767819
2475  1  2 0.0000 29.711865 43.246691 25.821381
2476  1  2 0.0000 27.381533 43.990919 42.563419
2477  1  2 0.0000 30.699745 42.646850 38.964219
2478  1  2 0.0000 29.711865 43.246691 42.017781
2479  1  2 0.0000 11.519015 28.931798 11.424581
2480  1  2 0.0000 12.120332 26.561559 11.970219
2481  1  2 0.0000 12.053003 32.452855 13.224181
2482  1  2 0.0000 11.506203 30.079681 13.769819
2483  1  2 0.0000 11.519015 28.931798 27.620981
2484  1  2 0.0000 12.120332 26.561559 28.166619
2485  1  2 0.0000 12.053003 32.452855 29.420581
2486  1  2 0.0000 11.506203 30.079681 29.966219
2487  1  2 0.0000 11.519015 28.931798 43.817381
2488  1  2 0.0000 12.120332 26.561559 44.363019
2489  1  2 0.0000 12.053003 32.452855 45.616981
2490  1  2 0.0000 11.506203 30.079681 46.162619
2491  1  2 0.0000 30.699745 42.646850 11.970219
2492  1  2 0.0000 30.699745 42.646850 28.166619
2493  1  2 0.0000 30.699745 42.646850 44.363019
2494  1  2 0.0000 18.082762 11.721919 47.962219
2495  1  2 0.0000 19.108265 12.338674  2.426581
2496  1  2 0.0000 18.082762 11.721919  4.771819
2497  1  2 0.0000 18.082762 11.721919 15.569419
2498  1  2 0.0000 19.108265 12.338674 18.622981
2499  1  2 0.0000 18.082762 11.721919 20.968219
2500  1  2 0.0000 18.082762 11.721919 31.765819
2501  1  2 0.0000 19.108265 12.338674 34.819381
2502  1  2 0.0000 18.082762 11.721919 37.164619
2503  1  2 0.0000 19.108265 38.603365  1.172619
2504  1  2 0.0000 18.082762 39.220121 47.416581
2505  1  2 0.0000 18.082762 39.220121  4.226181
2506  1  2 0.0000 18.082762 39.220121 15.023781
2507  1  2 0.0000 19.108265 38.603365 17.369019
2508  1  2 0.0000 18.082762 39.220121 20.422581
2509  1  2 0.0000 18.082762 39.220121 31.220181
2510  1  2 0.0000 19.108265 38.603365 33.565419
2511  1  2 0.0000 18.082762 39.220121 36.618981
2512  1  2 0.0000 19.108265 12.338674  7.825381
2513  1  2 0.0000 18.082762 11.721919 10.170619
2514  1  2 0.0000 19.108265 12.338674 24.021781
2515  1  2 0.0000 18.082762 11.721919 26.367019
2516  1  2 0.0000 19.108265 12.338674 40.218181
2517  1  2 0.0000 18.082762 11.721919 42.563419
2518  1  2 0.0000 19.108265 38.603365  6.571419
2519  1  2 0.0000 18.082762 39.220121  9.624981
2520  1  2 0.0000 19.108265 38.603365 22.767819
2521  1  2 0.0000 18.082762 39.220121 25.821381
2522  1  2 0.0000 19.108265 38.603365 38.964219
2523  1  2 0.0000 18.082762 39.220121 42.017781
2524  1  2 0.0000 19.108265 12.338674 13.224181
2525  1  2 0.0000 19.108265 12.338674 29.420581
2526  1  2 0.0000 19.108265 12.338674 45.616981
2527  1  2 0.0000 19.108265 38.603365 11.970219
2528  1  2 0.0000 19.108265 38.603365 28.166619
2529  1  2 0.0000 19.108265 38.603365 44.363019
2530  1  2 0.0000 32.044152 43.994750 47.962219
2531  1  2 0.0000 32.044152 43.994750  4.771819
2532  1  2 0.0000 35.360471 42.696669  1.172619
2533  1  2 0.0000 34.372781 43.281705 47.416581
2534  1  2 0.0000 34.372781 43.281705  4.226181
2535  1  2 0.0000 32.044152 43.994750 15.569419
2536  1  2 0.0000 32.044152 43.994750 20.968219
2537  1  2 0.0000 34.372781 43.281705 15.023781
2538  1  2 0.0000 35.360471 42.696669 17.369019
2539  1  2 0.0000 34.372781 43.281705 20.422581
2540  1  2 0.0000 32.044152 43.994750 31.765819
2541  1  2 0.0000 32.044152 43.994750 37.164619
2542  1  2 0.0000 34.372781 43.281705 31.220181
2543  1  2 0.0000 35.360471 42.696669 33.565419
2544  1  2 0.0000 34.372781 43.281705 36.618981
2545  1  2 0.0000 32.044152 43.994750 10.170619
2546  1  2 0.0000 35.360471 42.696669  6.571419
2547  1  2 0.0000 34.372781 43.281705  9.624981
2548  1  2 0.0000 32.044152 43.994750 26.367019
2549  1  2 0.0000 35.360471 42.696669 22.767819
2550  1  2 0.0000 34.372781 43.281705 25.821381
2551  1  2 0.0000 32.044152 43.994750 42.563419
2552  1  2 0.0000 35.360471 42.696669 38.964219
2553  1  2 0.0000 34.372781 43.281705 42.017781
2554  1  2 0.0000 35.360471 42.696669 11.970219
2555  1  2 0.0000 35.360471 42.696669 28.166619
2556  1  2 0.0000 35.360471 42.696669 44.363019
2557  1  2 0.0000 23.168648  8.785580  0.626981
2558  1  2 0.0000 23.190022  9.982069  2.972219
2559  1  2 0.0000 23.168648  8.785580  6.025781
2560  1  2 0.0000 23.168648  8.785580 16.823381
2561  1  2 0.0000 23.190022  9.982069 19.168619
2562  1  2 0.0000 23.168648  8.785580 22.222181
2563  1  2 0.0000 23.168648  8.785580 33.019781
2564  1  2 0.0000 23.190022  9.982069 35.365019
2565  1  2 0.0000 23.168648  8.785580 38.418581
2566  1  2 0.0000 23.190022  9.982069  8.371019
2567  1  2 0.0000 23.168648  8.785580 11.424581
2568  1  2 0.0000 23.190022  9.982069 24.567419
2569  1  2 0.0000 23.168648  8.785580 27.620981
2570  1  2 0.0000 23.190022  9.982069 40.763819
2571  1  2 0.0000 23.168648  8.785580 43.817381
2572  1  2 0.0000 23.190022  9.982069 13.769819
2573  1  2 0.0000 23.190022  9.982069 29.966219
2574  1  2 0.0000 23.190022  9.982069 46.162619
2575  1  2 0.0000 37.112499 40.990794  0.626981
2576  1  2 0.0000 37.136397 42.184124  2.972219
2577  1  2 0.0000 37.112499 40.990794  6.025781
2578  1  2 0.0000 37.112499 40.990794 16.823381
2579  1  2 0.0000 37.136397 42.184124 19.168619
2580  1  2 0.0000 37.112499 40.990794 22.222181
2581  1  2 0.0000 37.112499 40.990794 33.019781
2582  1  2 0.0000 37.136397 42.184124 35.365019
2583  1  2 0.0000 37.112499 40.990794 38.418581
2584  1  2 0.0000 37.136397 42.184124  8.371019
2585  1  2 0.0000 37.112499 40.990794 11.424581
2586  1  2 0.0000 37.136397 42.184124 24.567419
2587  1  2 0.0000 37.112499 40.990794 27.620981
2588  1  2 0.0000 37.136397 42.184124 40.763819
2589  1  2 0.0000 37.112499 40.990794 43.817381
2590  1  2 0.0000 37.136397 42.184124 13.769819
2591  1  2 0.0000 37.136397 42.184124 29.966219
2592  1  2 0.0000 37.136397 42.184124 46.162619
2593  1  2 0.0000 46.465037 32.973053  0.626981
2594  1  2 0.0000 44.655351 34.619066  1.172619
2595  1  2 0.0000 46.465037 32.973053  6.025781
2596  1  2 0.0000 43.641933 35.174674  4.226181
2597  1  2 0.0000 44.655351 34.619066  6.571419
2598  1  2 0.0000 46.465037 32.973053 16.823381
2599  1  2 0.0000 44.655351 34.619066 17.369019
2600  1  2 0.0000 46.465037 32.973053 22.222181
2601  1  2 0.0000 43.641933 35.174674 20.422581
2602  1  2 0.0000 44.655351 34.619066 22.767819
2603  1  2 0.0000 46.465037 32.973053 33.019781
2604  1  2 0.0000 44.655351 34.619066 33.565419
2605  1  2 0.0000 46.465037 32.973053 38.418581
2606  1  2 0.0000 43.641933 35.174674 36.618981
2607  1  2 0.0000 44.655351 34.619066 38.964219
2608  1  2 0.0000 46.465037 32.973053 11.424581
2609  1  2 0.0000 43.641933 35.174674  9.624981
2610  1  2 0.0000 44.655351 34.619066 11.970219
2611  1  2 0.0000 46.465037 32.973053 27.620981
2612  1  2 0.0000 43.641933 35.174674 25.821381
2613  1  2 0.0000 44.655351 34.619066 28.166619
2614  1  2 0.0000 46.465037 32.973053 43.817381
2615  1  2 0.0000 43.641933 35.174674 42.017781
2616  1  2 0.0000 44.655351 34.619066 44.363019
2617  1  2 0.0000 43.641933 35.174674 15.023781
2618  1  2 0.0000 43.641933 35.174674 31.220181
2619  1  2 0.0000 43.641933 35.174674 47.416581
2620  1  2 0.0000 44.137045 37.012915  0.626981
2621  1  2 0.0000 44.137045 37.012915  6.025781
2622  1  2 0.0000 44.137045 37.012915 16.823381
2623  1  2 0.0000 44.137045 37.012915 22.222181
2624  1  2 0.0000 44.137045 37.012915 33.019781
2625  1  2 0.0000 44.137045 37.012915 38.418581
2626  1  2 0.0000 44.137045 37.012915 11.424581
2627  1  2 0.0000 44.137045 37.012915 27.620981
2628  1  2 0.0000 44.137045 37.012915 43.817381
2629  1  2 0.0000 44.137045 13.929124  2.972219
2630  1  2 0.0000 44.137045 13.929124 19.168619
2631  1  2 0.0000 44.137045 13.929124 35.365019
2632  1  2 0.0000 44.137045 13.929124  8.371019
2633  1  2 0.0000 44.137045 13.929124 24.567419
2634  1  2 0.0000 44.137045 13.929124 40.763819
2635  1  2 0.0000 44.137045 13.929124 13.769819
2636  1  2 0.0000 44.137045 13.929124 29.966219
2637  1  2 0.0000 44.137045 13.929124 46.162619
2638  1  2 0.0000 46.982790 22.534682  1.172619
2639  1  2 0.0000 45.935913 23.114416  4.226181
2640  1  2 0.0000 46.982790 22.534682  6.571419
2641  1  2 0.0000 46.982790 22.534682 17.369019
2642  1  2 0.0000 45.935913 23.114416 20.422581
2643  1  2 0.0000 46.982790 22.534682 22.767819
2644  1  2 0.0000 46.982790 22.534682 33.565419
2645  1  2 0.0000 45.935913 23.114416 36.618981
2646  1  2 0.0000 46.982790 22.534682 38.964219
2647  1  2 0.0000 45.935913 23.114416  9.624981
2648  1  2 0.0000 46.982790 22.534682 11.970219
2649  1  2 0.0000 45.935913 23.114416 25.821381
2650  1  2 0.0000 46.982790 22.534682 28.166619
2651  1  2 0.0000 45.935913 23.114416 42.017781
2652  1  2 0.0000 46.982790 22.534682 44.363019
2653  1  2 0.0000 45.935913 23.114416 15.023781
2654  1  2 0.0000 45.935913 23.114416 31.220181
2655  1  2 0.0000 45.935913 23.114416 47.416581
2656  1  2 0.0000 37.136397  8.757915  0.626981
2657  1  2 0.0000 37.112499  9.951245  2.972219
2658  1  2 0.0000 37.136397  8.757915  6.025781
2659  1  2 0.0000 37.136397  8.757915 16.823381
2660  1  2 0.0000 37.112499  9.951245 19.168619
2661  1  2 0.0000 37.136397  8.757915 22.222181
2662  1  2 0.0000 37.136397  8.757915 33.019781
2663  1  2 0.0000 37.112499  9.951245 35.365019
2664  1  2 0.0000 37.136397  8.757915 38.418581
2665  1  2 0.0000 37.112499  9.951245  8.371019
2666  1  2 0.0000 37.136397  8.757915 11.424581
2667  1  2 0.0000 37.112499  9.951245 24.567419
2668  1  2 0.0000 37.136397  8.757915 27.620981
2669  1  2 0.0000 37.112499  9.951245 40.763819
2670  1  2 0.0000 37.136397  8.757915 43.817381
2671  1  2 0.0000 37.112499  9.951245 13.769819
2672  1  2 0.0000 37.112499  9.951245 29.966219
2673  1  2 0.0000 37.112499  9.951245 46.162619
2674  1  2 0.0000 16.172233 12.795904  0.626981
2675  1  2 0.0000 16.202685 13.967336  2.972219
2676  1  2 0.0000 16.172233 12.795904  6.025781
2677  1  2 0.0000 16.172233 12.795904 16.823381
2678  1  2 0.0000 16.202685 13.967336 19.168619
2679  1  2 0.0000 16.172233 12.795904 22.222181
2680  1  2 0.0000 16.172233 12.795904 33.019781
2681  1  2 0.0000 16.202685 13.967336 35.365019
2682  1  2 0.0000 16.172233 12.795904 38.418581
2683  1  2 0.0000 16.202685 13.967336  8.371019
2684  1  2 0.0000 16.172233 12.795904 11.424581
2685  1  2 0.0000 16.202685 13.967336 24.567419
2686  1  2 0.0000 16.172233 12.795904 27.620981
2687  1  2 0.0000 16.202685 13.967336 40.763819
2688  1  2 0.0000 16.172233 12.795904 43.817381
2689  1  2 0.0000 16.202685 13.967336 13.769819
2690  1  2 0.0000 16.202685 13.967336 29.966219
2691  1  2 0.0000 16.202685 13.967336 46.162619
2692  1  2 0.0000 14.387630 14.453153  1.172619
2693  1  2 0.0000 14.387630 14.453153  6.571419
2694  1  2 0.0000 13.866984 16.843394  0.626981
2695  1  2 0.0000 13.892522 17.998843  2.972219
2696  1  2 0.0000 13.866984 16.843394  6.025781
2697  1  2 0.0000 14.387630 14.453153 17.369019
2698  1  2 0.0000 14.387630 14.453153 22.767819
2699  1  2 0.0000 13.866984 16.843394 16.823381
2700  1  2 0.0000 13.892522 17.998843 19.168619
2701  1  2 0.0000 13.866984 16.843394 22.222181
2702  1  2 0.0000 14.387630 14.453153 33.565419
2703  1  2 0.0000 14.387630 14.453153 38.964219
2704  1  2 0.0000 13.866984 16.843394 33.019781
2705  1  2 0.0000 13.892522 17.998843 35.365019
2706  1  2 0.0000 13.866984 16.843394 38.418581
2707  1  2 0.0000 47.007956 30.598917  1.172619
2708  1  2 0.0000 45.978239 31.158261  4.226181
2709  1  2 0.0000 47.007956 30.598917  6.571419
2710  1  2 0.0000 47.007956 30.598917 17.369019
2711  1  2 0.0000 45.978239 31.158261 20.422581
2712  1  2 0.0000 47.007956 30.598917 22.767819
2713  1  2 0.0000 47.007956 30.598917 33.565419
2714  1  2 0.0000 45.978239 31.158261 36.618981
2715  1  2 0.0000 47.007956 30.598917 38.964219
2716  1  2 0.0000 14.387630 14.453153 11.970219
2717  1  2 0.0000 13.892522 17.998843  8.371019
2718  1  2 0.0000 13.866984 16.843394 11.424581
2719  1  2 0.0000 14.387630 14.453153 28.166619
2720  1  2 0.0000 13.892522 17.998843 24.567419
2721  1  2 0.0000 13.866984 16.843394 27.620981
2722  1  2 0.0000 14.387630 14.453153 44.363019
2723  1  2 0.0000 13.892522 17.998843 40.763819
2724  1  2 0.0000 13.866984 16.843394 43.817381
2725  1  2 0.0000 45.978239 31.158261  9.624981
2726  1  2 0.0000 47.007956 30.598917 11.970219
2727  1  2 0.0000 45.978239 31.158261 25.821381
2728  1  2 0.0000 47.007956 30.598917 28.166619
2729  1  2 0.0000 45.978239 31.158261 42.017781
2730  1  2 0.0000 47.007956 30.598917 44.363019
2731  1  2 0.0000 13.892522 17.998843 13.769819
2732  1  2 0.0000 13.892522 17.998843 29.966219
2733  1  2 0.0000 13.892522 17.998843 46.162619
2734  1  2 0.0000 45.978239 31.158261 15.023781
2735  1  2 0.0000 45.978239 31.158261 31.220181
2736  1  2 0.0000 45.978239 31.158261 47.416581
2737  1  2 0.0000 23.168648 42.156459 46.162619
2738  1  2 0.0000 23.190022 40.959970  0.626981
2739  1  2 0.0000 23.168648 42.156459  2.972219
2740  1  2 0.0000 23.168648 42.156459 13.769819
2741  1  2 0.0000 23.190022 40.959970 16.823381
2742  1  2 0.0000 23.168648 42.156459 19.168619
2743  1  2 0.0000 23.168648 42.156459 29.966219
2744  1  2 0.0000 23.190022 40.959970 33.019781
2745  1  2 0.0000 23.168648 42.156459 35.365019
2746  1  2 0.0000 23.190022 40.959970  6.025781
2747  1  2 0.0000 23.168648 42.156459  8.371019
2748  1  2 0.0000 23.190022 40.959970 22.222181
2749  1  2 0.0000 23.168648 42.156459 24.567419
2750  1  2 0.0000 23.190022 40.959970 38.418581
2751  1  2 0.0000 23.168648 42.156459 40.763819
2752  1  2 0.0000 23.190022 40.959970 11.424581
2753  1  2 0.0000 23.190022 40.959970 27.620981
2754  1  2 0.0000 23.190022 40.959970 43.817381
2755  1  2 0.0000 13.866984 34.098645 46.162619
2756  1  2 0.0000 13.892522 32.943196  0.626981
2757  1  2 0.0000 13.866984 34.098645  2.972219
2758  1  2 0.0000 14.387630 36.488886 45.616981
2759  1  2 0.0000 14.387630 36.488886  2.426581
2760  1  2 0.0000 13.866984 34.098645 13.769819
2761  1  2 0.0000 13.892522 32.943196 16.823381
2762  1  2 0.0000 13.866984 34.098645 19.168619
2763  1  2 0.0000 14.387630 36.488886 13.224181
2764  1  2 0.0000 14.387630 36.488886 18.622981
2765  1  2 0.0000 13.866984 34.098645 29.966219
2766  1  2 0.0000 13.892522 32.943196 33.019781
2767  1  2 0.0000 13.866984 34.098645 35.365019
2768  1  2 0.0000 14.387630 36.488886 29.420581
2769  1  2 0.0000 14.387630 36.488886 34.819381
2770  1  2 0.0000 47.007956 20.343122 45.616981
2771  1  2 0.0000 45.978239 19.783778 47.962219
2772  1  2 0.0000 47.007956 20.343122  2.426581
2773  1  2 0.0000 47.007956 20.343122 13.224181
2774  1  2 0.0000 45.978239 19.783778 15.569419
2775  1  2 0.0000 47.007956 20.343122 18.622981
2776  1  2 0.0000 47.007956 20.343122 29.420581
2777  1  2 0.0000 45.978239 19.783778 31.765819
2778  1  2 0.0000 47.007956 20.343122 34.819381
2779  1  2 0.0000 13.892522 32.943196  6.025781
2780  1  2 0.0000 13.866984 34.098645  8.371019
2781  1  2 0.0000 14.387630 36.488886  7.825381
2782  1  2 0.0000 13.892522 32.943196 22.222181
2783  1  2 0.0000 13.866984 34.098645 24.567419
2784  1  2 0.0000 14.387630 36.488886 24.021781
2785  1  2 0.0000 13.892522 32.943196 38.418581
2786  1  2 0.0000 13.866984 34.098645 40.763819
2787  1  2 0.0000 14.387630 36.488886 40.218181
2788  1  2 0.0000 45.978239 19.783778  4.771819
2789  1  2 0.0000 47.007956 20.343122  7.825381
2790  1  2 0.0000 45.978239 19.783778 20.968219
2791  1  2 0.0000 47.007956 20.343122 24.021781
2792  1  2 0.0000 45.978239 19.783778 37.164619
2793  1  2 0.0000 47.007956 20.343122 40.218181
2794  1  2 0.0000 13.892522 32.943196 11.424581
2795  1  2 0.0000 13.892522 32.943196 27.620981
2796  1  2 0.0000 13.892522 32.943196 43.817381
2797  1  2 0.0000 45.978239 19.783778 10.170619
2798  1  2 0.0000 45.978239 19.783778 26.367019
2799  1  2 0.0000 45.978239 19.783778 42.563419
2800  1  2 0.0000 16.172233 38.146135 46.162619
2801  1  2 0.0000 16.202685 36.974703  0.626981
2802  1  2 0.0000 16.172233 38.146135  2.972219
2803  1  2 0.0000 16.172233 38.146135 13.769819
2804  1  2 0.0000 16.202685 36.974703 16.823381
2805  1  2 0.0000 16.172233 38.146135 19.168619
2806  1  2 0.0000 16.172233 38.146135 29.966219
2807  1  2 0.0000 16.202685 36.974703 33.019781
2808  1  2 0.0000 16.172233 38.146135 35.365019
2809  1  2 0.0000 16.202685 36.974703  6.025781
2810  1  2 0.0000 16.172233 38.146135  8.371019
2811  1  2 0.0000 16.202685 36.974703 22.222181
2812  1  2 0.0000 16.172233 38.146135 24.567419
2813  1  2 0.0000 16.202685 36.974703 38.418581
2814  1  2 0.0000 16.172233 38.146135 40.763819
2815  1  2 0.0000 16.202685 36.974703 11.424581
2816  1  2 0.0000 16.202685 36.974703 27.620981
2817  1  2 0.0000 16.202685 36.974703 43.817381
2818  1  2 0.0000 46.982790 28.407357 45.616981
2819  1  2 0.0000 45.935913 27.827623 47.962219
2820  1  2 0.0000 46.982790 28.407357  2.426581
2821  1  2 0.0000 46.982790 28.407357 13.224181
2822  1  2 0.0000 45.935913 27.827623 15.569419
2823  1  2 0.0000 46.982790 28.407357 18.622981
2824  1  2 0.0000 46.982790 28.407357 29.420581
2825  1  2 0.0000 45.935913 27.827623 31.765819
2826  1  2 0.0000 46.982790 28.407357 34.819381
2827  1  2 0.0000 45.935913 27.827623  4.771819
2828  1  2 0.0000 46.982790 28.407357  7.825381
2829  1  2 0.0000 45.935913 27.827623 20.968219
2830  1  2 0.0000 46.982790 28.407357 24.021781
2831  1  2 0.0000 45.935913 27.827623 37.164619
2832  1  2 0.0000 46.982790 28.407357 40.218181
2833  1  2 0.0000 45.935913 27.827623 10.170619
2834  1  2 0.0000 45.935913 27.827623 26.367019
2835  1  2 0.0000 45.935913 27.827623 42.563419
2836  1  2 0.0000 44.655351 16.322973 45.616981
2837  1  2 0.0000 43.641933 15.767366 47.962219
2838  1  2 0.0000 46.465037 17.968986 46.162619
2839  1  2 0.0000 44.655351 16.322973  2.426581
2840  1  2 0.0000 46.465037 17.968986  2.972219
2841  1  2 0.0000 44.655351 16.322973 13.224181
2842  1  2 0.0000 43.641933 15.767366 15.569419
2843  1  2 0.0000 46.465037 17.968986 13.769819
2844  1  2 0.0000 44.655351 16.322973 18.622981
2845  1  2 0.0000 46.465037 17.968986 19.168619
2846  1  2 0.0000 44.655351 16.322973 29.420581
2847  1  2 0.0000 43.641933 15.767366 31.765819
2848  1  2 0.0000 46.465037 17.968986 29.966219
2849  1  2 0.0000 44.655351 16.322973 34.819381
2850  1  2 0.0000 46.465037 17.968986 35.365019
2851  1  2 0.0000 43.641933 15.767366  4.771819
2852  1  2 0.0000 44.655351 16.322973  7.825381
2853  1  2 0.0000 46.465037 17.968986  8.371019
2854  1  2 0.0000 43.641933 15.767366 20.968219
2855  1  2 0.0000 44.655351 16.322973 24.021781
2856  1  2 0.0000 46.465037 17.968986 24.567419
2857  1  2 0.0000 43.641933 15.767366 37.164619
2858  1  2 0.0000 44.655351 16.322973 40.218181
2859  1  2 0.0000 46.465037 17.968986 40.763819
2860  1  2 0.0000 43.641933 15.767366 10.170619
2861  1  2 0.0000 43.641933 15.767366 26.367019
2862  1  2 0.0000 43.641933 15.767366 42.563419
2863  1  3 0.0000  1.360032  1.150866  1.172619
2864  1  3 0.0000  1.360032  1.150866 17.369019
2865  1  3 0.0000  1.360032  1.150866 33.565419
2866  1  3 0.0000  1.360032 18.131545  1.172619
2867  1  3 0.0000  1.360032 18.131545 17.369019
2868  1  3 0.0000  1.360032 18.131545 33.565419
2869  1  3 0.0000  1.360032 35.112225  1.172619
2870  1  3 0.0000  1.360032 35.112225 17.369019
2871  1  3 0.0000  1.360032 35.112225 33.565419
2872  1  3 0.0000 20.967632  1.150866  1.172619
2873  1  3 0.0000 20.967632  1.150866 17.369019
2874  1  3 0.0000 20.967632  1.150866 33.565419
2875  1  3 0.0000 40.575232  1.150866  1.172619
2876  1  3 0.0000 40.575232  1.150866 17.369019
2877  1  3 0.0000 40.575232  1.150866 33.565419
2878  1  3 0.0000  1.360032  1.150866  6.571419
2879  1  3 0.0000  1.360032  1.150866 22.767819
2880  1  3 0.0000  1.360032  1.150866 38.964219
2881  1  3 0.0000  1.360032 18.131545  6.571419
2882  1  3 0.0000  1.360032 18.131545 22.767819
2883  1  3 0.0000  1.360032 18.131545 38.964219
2884  1  3 0.0000  1.360032 35.112225  6.571419
2885  1  3 0.0000  1.360032 35.112225 22.767819
2886  1  3 0.0000  1.360032 35.112225 38.964219
2887  1  3 0.0000 20.967632  1.150866  6.571419
2888  1  3 0.0000 20.967632  1.150866 22.767819
2889  1  3 0.0000 20.967632  1.150866 38.964219
2890  1  3 0.0000 40.575232  1.150866  6.571419
2891  1  3 0.0000 40.575232  1.150866 22.767819
2892  1  3 0.0000 40.575232  1.150866 38.964219
2893  1  3 0.0000  1.360032  1.150866 11.970219
2894  1  3 0.0000  1.360032  1.150866 28.166619
2895  1  3 0.0000  1.360032  1.150866 44.363019
2896  1  3 0.0000  1.360032 18.131545 11.970219
2897  1  3 0.0000  1.360032 18.131545 28.166619
2898  1  3 0.0000  1.360032 18.131545 44.363019
2899  1  3 0.0000  1.360032 35.112225 11.970219
2900  1  3 0.0000  1.360032 35.112225 28.166619
2901  1  3 0.0000  1.360032 35.112225 44.363019
2902  1  3 0.0000 20.967632  1.150866 11.970219
2903  1  3 0.0000 20.967632  1.150866 28.166619
2904  1  3 0.0000 20.967632  1.150866 44.363019
2905  1  3 0.0000 40.575232  1.150866 11.970219
2906  1  3 0.0000 40.575232  1.150866 28.166619
2907  1  3 0.0000 40.575232  1.150866 44.363019
2908  1  3 0.0000  6.261932  1.150866  1.172619
2909  1  3 0.0000  6.261932  1.150866 17.369019
2910  1  3 0.0000  6.261932  1.150866 33.565419
2911  1  3 0.0000  6.261932 18.131545  1.172619
2912  1  3 0.0000  6.261932 18.131545 17.369019
2913  1  3 0.0000  6.261932 18.131545 33.565419
2914  1  3 0.0000  6.261932 35.112225  1.172619
2915  1  3 0.0000  6.261932 35.112225 17.369019
2916  1  3 0.0000  6.261932 35.112225 33.565419
2917  1  3 0.0000 25.869532  1.150866  1.172619
2918  1  3 0.0000 25.869532  1.150866 17.369019
2919  1  3 0.0000 25.869532  1.150866 33.565419
2920  1  3 0.0000 45.477132  1.150866  1.172619
2921  1  3 0.0000 45.477132  1.150866 17.369019
2922  1  3 0.0000 45.477132  1.150866 33.565419
2923  1  3 0.0000 45.477132 35.112225  1.172619
2924  1  3 0.0000 45.477132 35.112225 17.369019
2925  1  3 0.0000 45.477132 35.112225 33.565419
2926  1  3 0.0000  6.261932  1.150866  6.571419
2927  1  3 0.0000  6.261932  1.150866 22.767819
2928  1  3 0.0000  6.261932  1.150866 38.964219
2929  1  3 0.0000  6.261932 18.131545  6.571419
2930  1  3 0.0000  6.261932 18.131545 22.767819
2931  1  3 0.0000  6.261932 18.131545 38.964219
2932  1  3 0.0000  6.261932 35.112225  6.571419
2933  1  3 0.0000  6.261932 35.112225 22.767819
2934  1  3 0.0000  6.261932 35.112225 38.964219
2935  1  3 0.0000 25.869532  1.150866  6.571419
2936  1  3 0.0000 25.869532  1.150866 22.767819
2937  1  3 0.0000 25.869532  1.150866 38.964219
2938  1  3 0.0000 45.477132  1.150866  6.571419
2939  1  3 0.0000 45.477132  1.150866 22.767819
2940  1  3 0.0000 45.477132  1.150866 38.964219
2941  1  3 0.0000 45.477132 35.112225  6.571419
2942  1  3 0.0000 45.477132 35.112225 22.767819
2943  1  3 0.0000 45.477132 35.112225 38.964219
2944  1  3 0.0000  6.261932  1.150866 11.970219
2945  1  3 0.0000  6.261932  1.150866 28.166619
2946  1  3 0.0000  6.261932  1.150866 44.363019
2947  1  3 0.0000  6.261932 18.131545 11.970219
2948  1  3 0.0000  6.261932 18.131545 28.166619
2949  1  3 0.0000  6.261932 18.131545 44.363019
2950  1  3 0.0000  6.261932 35.112225 11.970219
2951  1  3 0.0000  6.261932 35.112225 28.166619
2952  1  3 0.0000  6.261932 35.112225 44.363019
2953  1  3 0.0000 25.869532  1.150866 11.970219
2954  1  3 0.0000 25.869532  1.150866 28.166619
2955  1  3 0.0000 25.869532  1.150866 44.363019
2956  1  3 0.0000 45.477132  1.150866 11.970219
2957  1  3 0.0000 45.477132  1.150866 28.166619
2958  1  3 0.0000 45.477132  1.150866 44.363019
2959  1  3 0.0000 45.477132 35.112225 11.970219
2960  1  3 0.0000 45.477132 35.112225 28.166619
2961  1  3 0.0000 45.477132 35.112225 44.363019
2962  1  3 0.0000  3.810982  5.396035  1.172619
2963  1  3 0.0000  3.810982  5.396035 17.369019
2964  1  3 0.0000  3.810982  5.396035 33.565419
2965  1  3 0.0000  3.810982 22.376715  1.172619
2966  1  3 0.0000  3.810982 22.376715 17.369019
2967  1  3 0.0000  3.810982 22.376715 33.565419
2968  1  3 0.0000  3.810982 39.357395  1.172619
2969  1  3 0.0000  3.810982 39.357395 17.369019
2970  1  3 0.0000  3.810982 39.357395 33.565419
2971  1  3 0.0000 23.418582  5.396035  1.172619
2972  1  3 0.0000 23.418582  5.396035 17.369019
2973  1  3 0.0000 23.418582  5.396035 33.565419
2974  1  3 0.0000 43.026182  5.396035  1.172619
2975  1  3 0.0000 43.026182  5.396035 17.369019
2976  1  3 0.0000 43.026182  5.396035 33.565419
2977  1  3 0.0000 43.026182 39.357395  1.172619
2978  1  3 0.0000 43.026182 39.357395 17.369019
2979  1  3 0.0000 43.026182 39.357395 33.565419
2980  1  3 0.0000  3.810982  5.396035  6.571419
2981  1  3 0.0000  3.810982  5.396035 22.767819
2982  1  3 0.0000  3.810982  5.396035 38.964219
2983  1  3 0.0000  3.810982 22.376715  6.571419
2984  1  3 0.0000  3.810982 22.376715 22.767819
2985  1  3 0.0000  3.810982 22.376715 38.964219
2986  1  3 0.0000  3.810982 39.357395  6.571419
2987  1  3 0.0000  3.810982 39.357395 22.767819
2988  1  3 0.0000  3.810982 39.357395 38.964219
2989  1  3 0.0000 23.418582  5.396035  6.571419
2990  1  3 0.0000 23.418582  5.396035 22.767819
2991  1  3 0.0000 23.418582  5.396035 38.964219
2992  1  3 0.0000 43.026182  5.396035  6.571419
2993  1  3 0.0000 43.026182  5.396035 22.767819
2994  1  3 0.0000 43.026182  5.396035 38.964219
2995  1  3 0.0000 43.026182 39.357395  6.571419
2996  1  3 0.0000 43.026182 39.357395 22.767819
2997  1  3 0.0000 43.026182 39.357395 38.964219
2998  1  3 0.0000  3.810982  5.396035 11.970219
2999  1  3 0.0000  3.810982  5.396035 28.166619
3000  1  3 0.0000  3.810982  5.396035 44.363019
3001  1  3 0.0000  3.810982 22.376715 11.970219
3002  1  3 0.0000  3.810982 22.376715 28.166619
3003  1  3 0.0000  3.810982 22.376715 44.363019
3004  1  3 0.0000  3.810982 39.357395 11.970219
3005  1  3 0.0000  3.810982 39.357395 28.166619
3006  1  3 0.0000  3.810982 39.357395 44.363019
3007  1  3 0.0000 23.418582  5.396035 11.970219
3008  1  3 0.0000 23.418582  5.396035 28.166619
3009  1  3 0.0000 23.418582  5.396035 44.363019
3010  1  3 0.0000 43.026182  5.396035 11.970219
3011  1  3 0.0000 43.026182  5.396035 28.166619
3012  1  3 0.0000 43.026182  5.396035 44.363019
3013  1  3 0.0000 43.026182 39.357395 11.970219
3014  1  3 0.0000 43.026182 39.357395 28.166619
3015  1  3 0.0000 43.026182 39.357395 44.363019
3016  1  3 0.0000  1.360032  9.641205  1.172619
3017  1  3 0.0000  1.360032  9.641205 17.369019
3018  1  3 0.0000  1.360032  9.641205 33.565419
3019  1  3 0.0000  1.360032 26.621885  1.172619
3020  1  3 0.0000  1.360032 26.621885 17.369019
3021  1  3 0.0000  1.360032 26.621885 33.565419
3022  1  3 0.0000  1.360032 43.602565  1.172619
3023  1  3 0.0000  1.360032 43.602565 17.369019
3024  1  3 0.0000  1.360032 43.602565 33.565419
3025  1  3 0.0000 20.967632 43.602565  1.172619
3026  1  3 0.0000 20.967632 43.602565 17.369019
3027  1  3 0.0000 20.967632 43.602565 33.565419
3028  1  3 0.0000 40.575232  9.641205  1.172619
3029  1  3 0.0000 40.575232  9.641205 17.369019
3030  1  3 0.0000 40.575232  9.641205 33.565419
3031  1  3 0.0000 40.575232 43.602565  1.172619
3032  1  3 0.0000 40.575232 43.602565 17.369019
3033  1  3 0.0000 40.575232 43.602565 33.565419
3034  1  3 0.0000  1.360032  9.641205  6.571419
3035  1  3 0.0000  1.360032  9.641205 22.767819
3036  1  3 0.0000  1.360032  9.641205 38.964219
3037  1  3 0.0000  1.360032 26.621885  6.571419
3038  1  3 0.0000  1.360032 26.621885 22.767819
3039  1  3 0.0000  1.360032 26.621885 38.964219
3040  1  3 0.0000  1.360032 43.602565  6.571419
3041  1  3 0.0000  1.360032 43.602565 22.767819
3042  1  3 0.0000  1.360032 43.602565 38.964219
3043  1  3 0.0000 20.967632 43.602565  6.571419
3044  1  3 0.0000 20.967632 43.602565 22.767819
3045  1  3 0.0000 20.967632 43.602565 38.964219
3046  1  3 0.0000 40.575232  9.641205  6.571419
3047  1  3 0.0000 40.575232  9.641205 22.767819
3048  1  3 0.0000 40.575232  9.641205 38.964219
3049  1  3 0.0000 40.575232 43.602565  6.571419
3050  1  3 0.0000 40.575232 43.602565 22.767819
3051  1  3 0.0000 40.575232 43.602565 38.964219
3052  1  3 0.0000  1.360032  9.641205 11.970219
3053  1  3 0.0000  1.360032  9.641205 28.166619
3054  1  3 0.0000  1.360032  9.641205 44.363019
3055  1  3 0.0000  1.360032 26.621885 11.970219
3056  1  3 0.0000  1.360032 26.621885 28.166619
3057  1  3 0.0000  1.360032 26.621885 44.363019
3058  1  3 0.0000  1.360032 43.602565 11.970219
3059  1  3 0.0000  1.360032 43.602565 28.166619
3060  1  3 0.0000  1.360032 43.602565 44.363019
3061  1  3 0.0000 20.967632 43.602565 11.970219
3062  1  3 0.0000 20.967632 43.602565 28.166619
3063  1  3 0.0000 20.967632 43.602565 44.363019
3064  1  3 0.0000 40.575232  9.641205 11.970219
3065  1  3 0.0000 40.575232  9.641205 28.166619
3066  1  3 0.0000 40.575232  9.641205 44.363019
3067  1  3 0.0000 40.575232 43.602565 11.970219
3068  1  3 0.0000 40.575232 43.602565 28.166619
3069  1  3 0.0000 40.575232 43.602565 44.363019
3070  1  3 0.0000 11.163832  1.150866  1.172619
3071  1  3 0.0000 11.163832  1.150866 17.369019
3072  1  3 0.0000 11.163832  1.150866 33.565419
3073  1  3 0.0000 11.163832 18.131545  1.172619
3074  1  3 0.0000 11.163832 18.131545 17.369019
3075  1  3 0.0000 11.163832 18.131545 33.565419
3076  1  3 0.0000 11.163832 35.112225  1.172619
3077  1  3 0.0000 11.163832 35.112225 17.369019
3078  1  3 0.0000 11.163832 35.112225 33.565419
3079  1  3 0.0000 30.771432  1.150866  1.172619
3080  1  3 0.0000 30.771432  1.150866 17.369019
3081  1  3 0.0000 30.771432  1.150866 33.565419
3082  1  3 0.0000 50.379032  1.150866  1.172619
3083  1  3 0.0000 50.379032  1.150866 17.369019
3084  1  3 0.0000 50.379032  1.150866 33.565419
3085  1  3 0.0000 50.379032 18.131545  1.172619
3086  1  3 0.0000 50.379032 18.131545 17.369019
3087  1  3 0.0000 50.379032 18.131545 33.565419
3088  1  3 0.0000 50.379032 35.112225  1.172619
3089  1  3 0.0000 50.379032 35.112225 17.369019
3090  1  3 0.0000 50.379032 35.112225 33.565419
3091  1  3 0.0000 11.163832  1.150866  6.571419
3092  1  3 0.0000 11.163832  1.150866 22.767819
3093  1  3 0.0000 11.163832  1.150866 38.964219
3094  1  3 0.0000 11.163832 18.131545  6.571419
3095  1  3 0.0000 11.163832 18.131545 22.767819
3096  1  3 0.0000 11.163832 18.131545 38.964219
3097  1  3 0.0000 11.163832 35.112225  6.571419
3098  1  3 0.0000 11.163832 35.112225 22.767819
3099  1  3 0.0000 11.163832 35.112225 38.964219
3100  1  3 0.0000 30.771432  1.150866  6.571419
3101  1  3 0.0000 30.771432  1.150866 22.767819
3102  1  3 0.0000 30.771432  1.150866 38.964219
3103  1  3 0.0000 50.379032  1.150866  6.571419
3104  1  3 0.0000 50.379032  1.150866 22.767819
3105  1  3 0.0000 50.379032  1.150866 38.964219
3106  1  3 0.0000 50.379032 18.131545  6.571419
3107  1  3 0.0000 50.379032 18.131545 22.767819
3108  1  3 0.0000 50.379032 18.131545 38.964219
3109  1  3 0.0000 50.379032 35.112225  6.571419
3110  1  3 0.0000 50.379032 35.112225 22.767819
3111  1  3 0.0000 50.379032 35.112225 38.964219
3112  1  3 0.0000 11.163832  1.150866 11.970219
3113  1  3 0.0000 11.163832  1.150866 28.166619
3114  1  3 0.0000 11.163832  1.150866 44.363019
3115  1  3 0.0000 11.163832 18.131545 11.970219
3116  1  3 0.0000 11.163832 18.131545 28.166619
3117  1  3 0.0000 11.163832 18.131545 44.363019
3118  1  3 0.0000 11.163832 35.112225 11.970219
3119  1  3 0.0000 11.163832 35.112225 28.166619
3120  1  3 0.0000 11.163832 35.112225 44.363019
3121  1  3 0.0000 30.771432  1.150866 11.970219
3122  1  3 0.0000 30.771432  1.150866 28.166619
3123  1  3 0.0000 30.771432  1.150866 44.363019
3124  1  3 0.0000 50.379032  1.150866 11.970219
3125  1  3 0.0000 50.379032  1.150866 28.166619
3126  1  3 0.0000 50.379032  1.150866 44.363019
3127  1  3 0.0000 50.379032 18.131545 11.970219
3128  1  3 0.0000 50.379032 18.131545 28.166619
3129  1  3 0.0000 50.379032 18.131545 44.363019
3130  1  3 0.0000 50.379032 35.112225 11.970219
3131  1  3 0.0000 50.379032 35.112225 28.166619
3132  1  3 0.0000 50.379032 35.112225 44.363019
3133  1  3 0.0000  8.712882  5.396035  1.172619
3134  1  3 0.0000  8.712882  5.396035 17.369019
3135  1  3 0.0000  8.712882  5.396035 33.565419
3136  1  3 0.0000  8.712882 22.376715  1.172619
3137  1  3 0.0000  8.712882 22.376715 17.369019
3138  1  3 0.0000  8.712882 22.376715 33.565419
3139  1  3 0.0000  8.712882 39.357395  1.172619
3140  1  3 0.0000  8.712882 39.357395 17.369019
3141  1  3 0.0000  8.712882 39.357395 33.565419
3142  1  3 0.0000 28.320482  5.396035  1.172619
3143  1  3 0.0000 28.320482  5.396035 17.369019
3144  1  3 0.0000 28.320482  5.396035 33.565419
3145  1  3 0.0000 47.928082  5.396035  1.172619
3146  1  3 0.0000 47.928082  5.396035 17.369019
3147  1  3 0.0000 47.928082  5.396035 33.565419
3148  1  3 0.0000 47.928082 22.376715  1.172619
3149  1  3 0.0000 47.928082 22.376715 17.369019
3150  1  3 0.0000 47.928082 22.376715 33.565419
3151  1  3 0.0000 47.928082 39.357395  1.172619
3152  1  3 0.0000 47.928082 39.357395 17.369019
3153  1  3 0.0000 47.928082 39.357395 33.565419
3154  1  3 0.0000  8.712882  5.396035  6.571419
3155  1  3 0.0000  8.712882  5.396035 22.767819
3156  1  3 0.0000  8.712882  5.396035 38.964219
3157  1  3 0.0000  8.712882 22.376715  6.571419
3158  1  3 0.0000  8.712882 22.376715 22.767819
3159  1  3 0.0000  8.712882 22.376715 38.964219
3160  1  3 0.0000  8.712882 39.357395  6.571419
3161  1  3 0.0000  8.712882 39.357395 22.767819
3162  1  3 0.0000  8.712882 39.357395 38.964219
3163  1  3 0.0000 28.320482  5.396035  6.571419
3164  1  3 0.0000 28.320482  5.396035 22.767819
3165  1  3 0.0000 28.320482  5.396035 38.964219
3166  1  3 0.0000 47.928082  5.396035  6.571419
3167  1  3 0.0000 47.928082  5.396035 22.767819
3168  1  3 0.0000 47.928082  5.396035 38.964219
3169  1  3 0.0000 47.928082 22.376715  6.571419
3170  1  3 0.0000 47.928082 22.376715 22.767819
3171  1  3 0.0000 47.928082 22.376715 38.964219
3172  1  3 0.0000 47.928082 39.357395  6.571419
3173  1  3 0.0000 47.928082 39.357395 22.767819
3174  1  3 0.0000 47.928082 39.357395 38.964219
3175  1  3 0.0000  8.712882  5.396035 11.970219
3176  1  3 0.0000  8.712882  5.396035 28.166619
3177  1  3 0.0000  8.712882  5.396035 44.363019
3178  1  3 0.0000  8.712882 22.376715 11.970219
3179  1  3 0.0000  8.712882 22.376715 28.166619
3180  1  3 0.0000  8.712882 22.376715 44.363019
3181  1  3 0.0000  8.712882 39.357395 11.970219
3182  1  3 0.0000  8.712882 39.357395 28.166619
3183  1  3 0.0000  8.712882 39.357395 44.363019
3184  1  3 0.0000 28.320482  5.396035 11.970219
3185  1  3 0.0000 28.320482  5.396035 28.166619
3186  1  3 0.0000 28.320482  5.396035 44.363019
3187  1  3 0.0000 47.928082  5.396035 11.970219
3188  1  3 0.0000 47.928082  5.396035 28.166619
3189  1  3 0.0000 47.928082  5.396035 44.363019
3190  1  3 0.0000 47.928082 22.376715 11.970219
3191  1  3 0.0000 47.928082 22.376715 28.166619
3192  1  3 0.0000 47.928082 22.376715 44.363019
3193  1  3 0.0000 47.928082 39.357395 11.970219
3194  1  3 0.0000 47.928082 39.357395 28.166619
3195  1  3 0.0000 47.928082 39.357395 44.363019
3196  1  3 0.0000  6.261932  9.641205  1.172619
3197  1  3 0.0000  6.261932  9.641205 17.369019
3198  1  3 0.0000  6.261932  9.641205 33.565419
3199  1  3 0.0000  6.261932 26.621885  1.172619
3200  1  3 0.0000  6.261932 26.621885 17.369019
3201  1  3 0.0000  6.261932 26.621885 33.565419
3202  1  3 0.0000  6.261932 43.602565  1.172619
3203  1  3 0.0000  6.261932 43.602565 17.369019
3204  1  3 0.0000  6.261932 43.602565 33.565419
3205  1  3 0.0000 25.869532 43.602565  1.172619
3206  1  3 0.0000 25.869532 43.602565 17.369019
3207  1  3 0.0000 25.869532 43.602565 33.565419
3208  1  3 0.0000 45.477132  9.641205  1.172619
3209  1  3 0.0000 45.477132  9.641205 17.369019
3210  1  3 0.0000 45.477132  9.641205 33.565419
3211  1  3 0.0000 45.477132 43.602565  1.172619
3212  1  3 0.0000 45.477132 43.602565 17.369019
3213  1  3 0.0000 45.477132 43.602565 33.565419
3214  1  3 0.0000  6.261932  9.641205  6.571419
3215  1  3 0.0000  6.261932  9.641205 22.767819
3216  1  3 0.0000  6.261932  9.641205 38.964219
3217  1  3 0.0000  6.261932 26.621885  6.571419
3218  1  3 0.0000  6.261932 26.621885 22.767819
3219  1  3 0.0000  6.261932 26.621885 38.964219
3220  1  3 0.0000  6.261932 43.602565  6.571419
3221  1  3 0.0000  6.261932 43.602565 22.767819
3222  1  3 0.0000  6.261932 43.602565 38.964219
3223  1  3 0.0000 25.869532 43.602565  6.571419
3224  1  3 0.0000 25.869532 43.602565 22.767819
3225  1  3 0.0000 25.869532 43.602565 38.964219
3226  1  3 0.0000 45.477132  9.641205  6.571419
3227  1  3 0.0000 45.477132  9.641205 22.767819
3228  1  3 0.0000 45.477132  9.641205 38.964219
3229  1  3 0.0000 45.477132 43.602565  6.571419
3230  1  3 0.0000 45.477132 43.602565 22.767819
3231  1  3 0.0000 45.477132 43.602565 38.964219
3232  1  3 0.0000  6.261932  9.641205 11.970219
3233  1  3 0.0000  6.261932  9.641205 28.166619
3234  1  3 0.0000  6.261932  9.641205 44.363019
3235  1  3 0.0000  6.261932 26.621885 11.970219
3236  1  3 0.0000  6.261932 26.621885 28.166619
3237  1  3 0.0000  6.261932 26.621885 44.363019
3238  1  3 0.0000  6.261932 43.602565 11.970219
3239  1  3 0.0000  6.261932 43.602565 28.166619
3240  1  3 0.0000  6.261932 43.602565 44.363019
3241  1  3 0.0000 25.869532 43.602565 11.970219
3242  1  3 0.0000 25.869532 43.602565 28.166619
3243  1  3 0.0000 25.869532 43.602565 44.363019
3244  1  3 0.0000 45.477132  9.641205 11.970219
3245  1  3 0.0000 45.477132  9.641205 28.166619
3246  1  3 0.0000 45.477132  9.641205 44.363019
3247  1  3 0.0000 45.477132 43.602565 11.970219
3248  1  3 0.0000 45.477132 43.602565 28.166619
3249  1  3 0.0000 45.477132 43.602565 44.363019
3250  1  3 0.0000  3.810982 13.886375  1.172619
3251  1  3 0.0000  3.810982 13.886375 17.369019
3252  1  3 0.0000  3.810982 13.886375 33.565419
3253  1  3 0.0000  3.810982 30.867055  1.172619
3254  1  3 0.0000  3.810982 30.867055 17.369019
3255  1  3 0.0000  3.810982 30.867055 33.565419
3256  1  3 0.0000  3.810982 47.847735  1.172619
3257  1  3 0.0000  3.810982 47.847735 17.369019
3258  1  3 0.0000  3.810982 47.847735 33.565419
3259  1  3 0.0000 23.418582 47.847735  1.172619
3260  1  3 0.0000 23.418582 47.847735 17.369019
3261  1  3 0.0000 23.418582 47.847735 33.565419
3262  1  3 0.0000 43.026182 47.847735  1.172619
3263  1  3 0.0000 43.026182 47.847735 17.369019
3264  1  3 0.0000 43.026182 47.847735 33.565419
3265  1  3 0.0000  3.810982 13.886375  6.571419
3266  1  3 0.0000  3.810982 13.886375 22.767819
3267  1  3 0.0000  3.810982 13.886375 38.964219
3268  1  3 0.0000  3.810982 30.867055  6.571419
3269  1  3 0.0000  3.810982 30.867055 22.767819
3270  1  3 0.0000  3.810982 30.867055 38.964219
3271  1  3 0.0000  3.810982 47.847735  6.571419
3272  1  3 0.0000  3.810982 47.847735 22.767819
3273  1  3 0.0000  3.810982 47.847735 38.964219
3274  1  3 0.0000 23.418582 47.847735  6.571419
3275  1  3 0.0000 23.418582 47.847735 22.767819
3276  1  3 0.0000 23.418582 47.847735 38.964219
3277  1  3 0.0000 43.026182 47.847735  6.571419
3278  1  3 0.0000 43.026182 47.847735 22.767819
3279  1  3 0.0000 43.026182 47.847735 38.964219
3280  1  3 0.0000  3.810982 13.886375 11.970219
3281  1  3 0.0000  3.810982 13.886375 28.166619
3282  1  3 0.0000  3.810982 13.886375 44.363019
3283  1  3 0.0000  3.810982 30.867055 11.970219
3284  1  3 0.0000  3.810982 30.867055 28.166619
3285  1  3 0.0000  3.810982 30.867055 44.363019
3286  1  3 0.0000  3.810982 47.847735 11.970219
3287  1  3 0.0000  3.810982 47.847735 28.166619
3288  1  3 0.0000  3.810982 47.847735 44.363019
3289  1  3 0.0000 23.418582 47.847735 11.970219
3290  1  3 0.0000 23.418582 47.847735 28.166619
3291  1  3 0.0000 23.418582 47.847735 44.363019
3292  1  3 0.0000 43.026182 47.847735 11.970219
3293  1  3 0.0000 43.026182 47.847735 28.166619
3294  1  3 0.0000 43.026182 47.847735 44.363019
3295  1  3 0.0000 16.065732  1.150866  1.172619
3296  1  3 0.0000 16.065732  1.150866 17.369019
3297  1  3 0.0000 16.065732  1.150866 33.565419
3298  1  3 0.0000 35.673332  1.150866  1.172619
3299  1  3 0.0000 35.673332  1.150866 17.369019
3300  1  3 0.0000 35.673332  1.150866 33.565419
3301  1  3 0.0000 55.280932  1.150866  1.172619
3302  1  3 0.0000 55.280932  1.150866 17.369019
3303  1  3 0.0000 55.280932  1.150866 33.565419
3304  1  3 0.0000 55.280932 18.131545  1.172619
3305  1  3 0.0000 55.280932 18.131545 17.369019
3306  1  3 0.0000 55.280932 18.131545 33.565419
3307  1  3 0.0000 55.280932 35.112225  1.172619
3308  1  3 0.0000 55.280932 35.112225 17.369019
3309  1  3 0.0000 55.280932 35.112225 33.565419
3310  1  3 0.0000 16.065732  1.150866  6.571419
3311  1  3 0.0000 16.065732  1.150866 22.767819
3312  1  3 0.0000 16.065732  1.150866 38.964219
3313  1  3 0.0000 35.673332  1.150866  6.571419
3314  1  3 0.0000 35.673332  1.150866 22.767819
3315  1  3 0.0000 35.673332  1.150866 38.964219
3316  1  3 0.0000 55.280932  1.150866  6.571419
3317  1  3 0.0000 55.280932  1.150866 22.767819
3318  1  3 0.0000 55.280932  1.150866 38.964219
3319  1  3 0.0000 55.280932 18.131545  6.571419
3320  1  3 0.0000 55.280932 18.131545 22.767819
3321  1  3 0.0000 55.280932 18.131545 38.964219
3322  1  3 0.0000 55.280932 35.112225  6.571419
3323  1  3 0.0000 55.280932 35.112225 22.767819
3324  1  3 0.0000 55.280932 35.112225 38.964219
3325  1  3 0.0000 16.065732  1.150866 11.970219
3326  1  3 0.0000 16.065732  1.150866 28.166619
3327  1  3 0.0000 16.065732  1.150866 44.363019
3328  1  3 0.0000 35.673332  1.150866 11.970219
3329  1  3 0.0000 35.673332  1.150866 28.166619
3330  1  3 0.0000 35.673332  1.150866 44.363019
3331  1  3 0.0000 55.280932  1.150866 11.970219
3332  1  3 0.0000 55.280932  1.150866 28.166619
3333  1  3 0.0000 55.280932  1.150866 44.363019
3334  1  3 0.0000 55.280932 18.131545 11.970219
3335  1  3 0.0000 55.280932 18.131545 28.166619
3336  1  3 0.0000 55.280932 18.131545 44.363019
3337  1  3 0.0000 55.280932 35.112225 11.970219
3338  1  3 0.0000 55.280932 35.112225 28.166619
3339  1  3 0.0000 55.280932 35.112225 44.363019
3340  1  3 0.0000 13.614782  5.396035  1.172619
3341  1  3 0.0000 13.614782  5.396035 17.369019
3342  1  3 0.0000 13.614782  5.396035 33.565419
3343  1  3 0.0000 13.614782 39.357395  1.172619
3344  1  3 0.0000 13.614782 39.357395 17.369019
3345  1  3 0.0000 13.614782 39.357395 33.565419
3346  1  3 0.0000 33.222382  5.396035  1.172619
3347  1  3 0.0000 33.222382  5.396035 17.369019
3348  1  3 0.0000 33.222382  5.396035 33.565419
3349  1  3 0.0000 52.829982  5.396035  1.172619
3350  1  3 0.0000 52.829982  5.396035 17.369019
3351  1  3 0.0000 52.829982  5.396035 33.565419
3352  1  3 0.0000 52.829982 22.376715  1.172619
3353  1  3 0.0000 52.829982 22.376715 17.369019
3354  1  3 0.0000 52.829982 22.376715 33.565419
3355  1  3 0.0000 52.829982 39.357395  1.172619
3356  1  3 0.0000 52.829982 39.357395 17.369019
3357  1  3 0.0000 52.829982 39.357395 33.565419
3358  1  3 0.0000 13.614782  5.396035  6.571419
3359  1  3 0.0000 13.614782  5.396035 22.767819
3360  1  3 0.0000 13.614782  5.396035 38.964219
3361  1  3 0.0000 13.614782 39.357395  6.571419
3362  1  3 0.0000 13.614782 39.357395 22.767819
3363  1  3 0.0000 13.614782 39.357395 38.964219
3364  1  3 0.0000 33.222382  5.396035  6.571419
3365  1  3 0.0000 33.222382  5.396035 22.767819
3366  1  3 0.0000 33.222382  5.396035 38.964219
3367  1  3 0.0000 52.829982  5.396035  6.571419
3368  1  3 0.0000 52.829982  5.396035 22.767819
3369  1  3 0.0000 52.829982  5.396035 38.964219
3370  1  3 0.0000 52.829982 22.376715  6.571419
3371  1  3 0.0000 52.829982 22.376715 22.767819
3372  1  3 0.0000 52.829982 22.376715 38.964219
3373  1  3 0.0000 52.829982 39.357395  6.571419
3374  1  3 0.0000 52.829982 39.357395 22.767819
3375  1  3 0.0000 52.829982 39.357395 38.964219
3376  1  3 0.0000 13.614782  5.396035 11.970219
3377  1  3 0.0000 13.614782  5.396035 28.166619
3378  1  3 0.0000 13.614782  5.396035 44.363019
3379  1  3 0.0000 13.614782 39.357395 11.970219
3380  1  3 0.0000 13.614782 39.357395 28.166619
3381  1  3 0.0000 13.614782 39.357395 44.363019
3382  1  3 0.0000 33.222382  5.396035 11.970219
3383  1  3 0.0000 33.222382  5.396035 28.166619
3384  1  3 0.0000 33.222382  5.396035 44.363019
3385  1  3 0.0000 52.829982  5.396035 11.970219
3386  1  3 0.0000 52.829982  5.396035 28.166619
3387  1  3 0.0000 52.829982  5.396035 44.363019
3388  1  3 0.0000 52.829982 22.376715 11.970219
3389  1  3 0.0000 52.829982 22.376715 28.166619
3390  1  3 0.0000 52.829982 22.376715 44.363019
3391  1  3 0.0000 52.829982 39.357395 11.970219
3392  1  3 0.0000 52.829982 39.357395 28.166619
3393  1  3 0.0000 52.829982 39.357395 44.363019
3394  1  3 0.0000 11.163832  9.641205  1.172619
3395  1  3 0.0000 11.163832  9.641205 17.369019
3396  1  3 0.0000 11.163832  9.641205 33.565419
3397  1  3 0.0000 11.163832 26.621885  1.172619
3398  1  3 0.0000 11.163832 26.621885 17.369019
3399  1  3 0.0000 11.163832 26.621885 33.565419
3400  1  3 0.0000 11.163832 43.602565  1.172619
3401  1  3 0.0000 11.163832 43.602565 17.369019
3402  1  3 0.0000 11.163832 43.602565 33.565419
3403  1  3 0.0000 30.771432 43.602565  1.172619
3404  1  3 0.0000 30.771432 43.602565 17.369019
3405  1  3 0.0000 30.771432 43.602565 33.565419
3406  1  3 0.0000 50.379032  9.641205  1.172619
3407  1  3 0.0000 50.379032  9.641205 17.369019
3408  1  3 0.0000 50.379032  9.641205 33.565419
3409  1  3 0.0000 50.379032 26.621885  1.172619
3410  1  3 0.0000 50.379032 26.621885 17.369019
3411  1  3 0.0000 50.379032 26.621885 33.565419
3412  1  3 0.0000 50.379032 43.602565  1.172619
3413  1  3 0.0000 50.379032 43.602565 17.369019
3414  1  3 0.0000 50.379032 43.602565 33.565419
3415  1  3 0.0000 11.163832  9.641205  6.571419
3416  1  3 0.0000 11.163832  9.641205 22.767819
3417  1  3 0.0000 11.163832  9.641205 38.964219
3418  1  3 0.0000 11.163832 26.621885  6.571419
3419  1  3 0.0000 11.163832 26.621885 22.767819
3420  1  3 0.0000 11.163832 26.621885 38.964219
3421  1  3 0.0000 11.163832 43.602565  6.571419
3422  1  3 0.0000 11.163832 43.602565 22.767819
3423  1  3 0.0000 11.163832 43.602565 38.964219
3424  1  3 0.0000 30.771432 43.602565  6.571419
3425  1  3 0.0000 30.771432 43.602565 22.767819
3426  1  3 0.0000 30.771432 43.602565 38.964219
3427  1  3 0.0000 50.379032  9.641205  6.571419
3428  1  3 0.0000 50.379032  9.641205 22.767819
3429  1  3 0.0000 50.379032  9.641205 38.964219
3430  1  3 0.0000 50.379032 26.621885  6.571419
3431  1  3 0.0000 50.379032 26.621885 22.767819
3432  1  3 0.0000 50.379032 26.621885 38.964219
3433  1  3 0.0000 50.379032 43.602565  6.571419
3434  1  3 0.0000 50.379032 43.602565 22.767819
3435  1  3 0.0000 50.379032 43.602565 38.964219
3436  1  3 0.0000 11.163832  9.641205 11.970219
3437  1  3 0.0000 11.163832  9.641205 28.166619
3438  1  3 0.0000 11.163832  9.641205 44.363019
3439  1  3 0.0000 11.163832 26.621885 11.970219
3440  1  3 0.0000 11.163832 26.621885 28.166619
3441  1  3 0.0000 11.163832 26.621885 44.363019
3442  1  3 0.0000 11.163832 43.602565 11.970219
3443  1  3 0.0000 11.163832 43.602565 28.166619
3444  1  3 0.0000 11.163832 43.602565 44.363019
3445  1  3 0.0000 30.771432 43.602565 11.970219
3446  1  3 0.0000 30.771432 43.602565 28.166619
3447  1  3 0.0000 30.771432 43.602565 44.363019
3448  1  3 0.0000 50.379032  9.641205 11.970219
3449  1  3 0.0000 50.379032  9.641205 28.166619
3450  1  3 0.0000 50.379032  9.641205 44.363019
3451  1  3 0.0000 50.379032 26.621885 11.970219
3452  1  3 0.0000 50.379032 26.621885 28.166619
3453  1  3 0.0000 50.379032 26.621885 44.363019
3454  1  3 0.0000 50.379032 43.602565 11.970219
3455  1  3 0.0000 50.379032 43.602565 28.166619
3456  1  3 0.0000 50.379032 43.602565 44.363019
3457  1  3 0.0000  8.712882 13.886375  1.172619
3458  1  3 0.0000  8.712882 13.886375 17.369019
3459  1  3 0.0000  8.712882 13.886375 33.565419
3460  1  3 0.0000  8.712882 30.867055  1.172619
3461  1  3 0.0000  8.712882 30.867055 17.369019
3462  1  3 0.0000  8.712882 30.867055 33.565419
3463  1  3 0.0000  8.712882 47.847735  1.172619
3464  1  3 0.0000  8.712882 47.847735 17.369019
3465  1  3 0.0000  8.712882 47.847735 33.565419
3466  1  3 0.0000 28.320482 47.847735  1.172619
3467  1  3 0.0000 28.320482 47.847735 17.369019
3468  1  3 0.0000 28.320482 47.847735 33.565419
3469  1  3 0.0000 47.928082 13.886375  1.172619
3470  1  3 0.0000 47.928082 13.886375 17.369019
3471  1  3 0.0000 47.928082 13.886375 33.565419
3472  1  3 0.0000 47.928082 30.867055  1.172619
3473  1  3 0.0000 47.928082 30.867055 17.369019
3474  1  3 0.0000 47.928082 30.867055 33.565419
3475  1  3 0.0000 47.928082 47.847735  1.172619
3476  1  3 0.0000 47.928082 47.847735 17.369019
3477  1  3 0.0000 47.928082 47.847735 33.565419
3478  1  3 0.0000  8.712882 13.886375  6.571419
3479  1  3 0.0000  8.712882 13.886375 22.767819
3480  1  3 0.0000  8.712882 13.886375 38.964219
3481  1  3 0.0000  8.712882 30.867055  6.571419
3482  1  3 0.0000  8.712882 30.867055 22.767819
3483  1  3 0.0000  8.712882 30.867055 38.964219
3484  1  3 0.0000  8.712882 47.847735  6.571419
3485  1  3 0.0000  8.712882 47.847735 22.767819
3486  1  3 0.0000  8.712882 47.847735 38.964219
3487  1  3 0.0000 28.320482 47.847735  6.571419
3488  1  3 0.0000 28.320482 47.847735 22.767819
3489  1  3 0.0000 28.320482 47.847735 38.964219
3490  1  3 0.0000 47.928082 13.886375  6.571419
3491  1  3 0.0000 47.928082 13.886375 22.767819
3492  1  3 0.0000 47.928082 13.886375 38.964219
3493  1  3 0.0000 47.928082 30.867055  6.571419
3494  1  3 0.0000 47.928082 30.867055 22.767819
3495  1  3 0.0000 47.928082 30.867055 38.964219
3496  1  3 0.0000 47.928082 47.847735  6.571419
3497  1  3 0.0000 47.928082 47.847735 22.767819
3498  1  3 0.0000 47.928082 47.847735 38.964219
3499  1  3 0.0000  8.712882 13.886375 11.970219
3500  1  3 0.0000  8.712882 13.886375 28.166619
3501  1  3 0.0000  8.712882 13.886375 44.363019
3502  1  3 0.0000  8.712882 30.867055 11.970219
3503  1  3 0.0000  8.712882 30.867055 28.166619
3504  1  3 0.0000  8.712882 30.867055 44.363019
3505  1  3 0.0000  8.712882 47.847735 11.970219
3506  1  3 0.0000  8.712882 47.847735 28.166619
3507  1  3 0.0000  8.712882 47.847735 44.363019
3508  1  3 0.0000 28.320482 47.847735 11.970219
3509  1  3 0.0000 28.320482 47.847735 28.166619
3510  1  3 0.0000 28.320482 47.847735 44.363019
3511  1  3 0.0000 47.928082 13.886375 11.970219
3512  1  3 0.0000 47.928082 13.886375 28.166619
3513  1  3 0.0000 47.928082 13.886375 44.363019
3514  1  3 0.0000 47.928082 30.867055 11.970219
3515  1  3 0.0000 47.928082 30.867055 28.166619
3516  1  3 0.0000 47.928082 30.867055 44.363019
3517  1  3 0.0000 47.928082 47.847735 11.970219
3518  1  3 0.0000 47.928082 47.847735 28.166619
3519  1  3 0.0000 47.928082 47.847735 44.363019
3520  1  3 0.0000 18.516682  5.396035  1.172619
3521  1  3 0.0000 18.516682  5.396035 17.369019
3522  1  3 0.0000 18.516682  5.396035 33.565419
3523  1  3 0.0000 18.516682 39.357395  1.172619
3524  1  3 0.0000 18.516682 39.357395 17.369019
3525  1  3 0.0000 18.516682 39.357395 33.565419
3526  1  3 0.0000 38.124282  5.396035  1.172619
3527  1  3 0.0000 38.124282  5.396035 17.369019
3528  1  3 0.0000 38.124282  5.396035 33.565419
3529  1  3 0.0000 57.731882  5.396035  1.172619
3530  1  3 0.0000 57.731882  5.396035 17.369019
3531  1  3 0.0000 57.731882  5.396035 33.565419
3532  1  3 0.0000 57.731882 22.376715  1.172619
3533  1  3 0.0000 57.731882 22.376715 17.369019
3534  1  3 0.0000 57.731882 22.376715 33.565419
3535  1  3 0.0000 57.731882 39.357395  1.172619
3536  1  3 0.0000 57.731882 39.357395 17.369019
3537  1  3 0.0000 57.731882 39.357395 33.565419
3538  1  3 0.0000 18.516682  5.396035  6.571419
3539  1  3 0.0000 18.516682  5.396035 22.767819
3540  1  3 0.0000 18.516682  5.396035 38.964219
3541  1  3 0.0000 18.516682 39.357395  6.571419
3542  1  3 0.0000 18.516682 39.357395 22.767819
3543  1  3 0.0000 18.516682 39.357395 38.964219
3544  1  3 0.0000 38.124282  5.396035  6.571419
3545  1  3 0.0000 38.124282  5.396035 22.767819
3546  1  3 0.0000 38.124282  5.396035 38.964219
3547  1  3 0.0000 57.731882  5.396035  6.571419
3548  1  3 0.0000 57.731882  5.396035 22.767819
3549  1  3 0.0000 57.731882  5.396035 38.964219
3550  1  3 0.0000 57.731882 22.376715  6.571419
3551  1  3 0.0000 57.731882 22.376715 22.767819
3552  1  3 0.0000 57.731882 22.376715 38.964219
3553  1  3 0.0000 57.731882 39.357395  6.571419
3554  1  3 0.0000 57.731882 39.357395 22.767819
3555  1  3 0.0000 57.731882 39.357395 38.964219
3556  1  3 0.0000 18.516682  5.396035 11.970219
3557  1  3 0.0000 18.516682  5.396035 28.166619
3558  1  3 0.0000 18.516682  5.396035 44.363019
3559  1  3 0.0000 18.516682 39.357395 11.970219
3560  1  3 0.0000 18.516682 39.357395 28.166619
3561  1  3 0.0000 18.516682 39.357395 44.363019
3562  1  3 0.0000 38.124282  5.396035 11.970219
3563  1  3 0.0000 38.124282  5.396035 28.166619
3564  1  3 0.0000 38.124282  5.396035 44.363019
3565  1  3 0.0000 57.731882  5.396035 11.970219
3566  1  3 0.0000 57.731882  5.396035 28.166619
3567  1  3 0.0000 57.731882  5.396035 44.363019
3568  1  3 0.0000 57.731882 22.376715 11.970219
3569  1  3 0.0000 57.731882 22.376715 28.166619
3570  1  3 0.0000 57.731882 22.376715 44.363019
3571  1  3 0.0000 57.731882 39.357395 11.970219
3572  1  3 0.0000 57.731882 39.357395 28.166619
3573  1  3 0.0000 57.731882 39.357395 44.363019
3574  1  3 0.0000 16.065732  9.641205  1.172619
3575  1  3 0.0000 16.065732  9.641205 17.369019
3576  1  3 0.0000 16.065732  9.641205 33.565419
3577  1  3 0.0000 16.065732 43.602565  1.172619
3578  1  3 0.0000 16.065732 43.602565 17.369019
3579  1  3 0.0000 16.065732 43.602565 33.565419
3580  1  3 0.0000 35.673332 43.602565  1.172619
3581  1  3 0.0000 35.673332 43.602565 17.369019
3582  1  3 0.0000 35.673332 43.602565 33.565419
3583  1  3 0.0000 55.280932  9.641205  1.172619
3584  1  3 0.0000 55.280932  9.641205 17.369019
3585  1  3 0.0000 55.280932  9.641205 33.565419
3586  1  3 0.0000 55.280932 26.621885  1.172619
3587  1  3 0.0000 55.280932 26.621885 17.369019
3588  1  3 0.0000 55.280932 26.621885 33.565419
3589  1  3 0.0000 55.280932 43.602565  1.172619
3590  1  3 0.0000 55.280932 43.602565 17.369019
3591  1  3 0.0000 55.280932 43.602565 33.565419
3592  1  3 0.0000 16.065732  9.641205  6.571419
3593  1  3 0.0000 16.065732  9.641205 22.767819
3594  1  3 0.0000 16.065732  9.641205 38.964219
3595  1  3 0.0000 16.065732 43.602565  6.571419
3596  1  3 0.0000 16.065732 43.602565 22.767819
3597  1  3 0.0000 16.065732 43.602565 38.964219
3598  1  3 0.0000 35.673332 43.602565  6.571419
3599  1  3 0.0000 35.673332 43.602565 22.767819
3600  1  3 0.0000 35.673332 43.602565 38.964219
3601  1  3 0.0000 55.280932  9.641205  6.571419
3602  1  3 0.0000 55.280932  9.641205 22.767819
3603  1  3 0.0000 55.280932  9.641205 38.964219
3604  1  3 0.0000 55.280932 26.621885  6.571419
3605  1  3 0.0000 55.280932 26.621885 22.767819
3606  1  3 0.0000 55.280932 26.621885 38.964219
3607  1  3 0.0000 55.280932 43.602565  6.571419
3608  1  3 0.0000 55.280932 43.602565 22.767819
3609  1  3 0.0000 55.280932 43.602565 38.964219
3610  1  3 0.0000 16.065732  9.641205 11.970219
3611  1  3 0.0000 16.065732  9.641205 28.166619
3612  1  3 0.0000 16.065732  9.641205 44.363019
3613  1  3 0.0000 16.065732 43.602565 11.970219
3614  1  3 0.0000 16.065732 43.602565 28.166619
3615  1  3 0.0000 16.065732 43.602565 44.363019
3616  1  3 0.0000 35.673332 43.602565 11.970219
3617  1  3 0.0000 35.673332 43.602565 28.166619
3618  1  3 0.0000 35.673332 43.602565 44.363019
3619  1  3 0.0000 55.280932  9.641205 11.970219
3620  1  3 0.0000 55.280932  9.641205 28.166619
3621  1  3 0.0000 55.280932  9.641205 44.363019
3622  1  3 0.0000 55.280932 26.621885 11.970219
3623  1  3 0.0000 55.280932 26.621885 28.166619
3624  1  3 0.0000 55.280932 26.621885 44.363019
3625  1  3 0.0000 55.280932 43.602565 11.970219
3626  1  3 0.0000 55.280932 43.602565 28.166619
3627  1  3 0.0000 55.280932 43.602565 44.363019
3628  1  3 0.0000 13.614782 13.886375  1.172619
3629  1  3 0.0000 13.614782 13.886375 17.369019
3630  1  3 0.0000 13.614782 13.886375 33.565419
3631  1  3 0.0000 13.614782 47.847735  1.172619
3632  1  3 0.0000 13.614782 47.847735 17.369019
3633  1  3 0.0000 13.614782 47.847735 33.565419
3634  1  3 0.0000 33.222382 47.847735  1.172619
3635  1  3 0.0000 33.222382 47.847735 17.369019
3636  1  3 0.0000 33.222382 47.847735 33.565419
3637  1  3 0.0000 52.829982 13.886375  1.172619
3638  1  3 0.0000 52.829982 13.886375 17.369019
3639  1  3 0.0000 52.829982 13.886375 33.565419
3640  1  3 0.0000 52.829982 30.867055  1.172619
3641  1  3 0.0000 52.829982 30.867055 17.369019
3642  1  3 0.0000 52.829982 30.867055 33.565419
3643  1  3 0.0000 52.829982 47.847735  1.172619
3644  1  3 0.0000 52.829982 47.847735 17.369019
3645  1  3 0.0000 52.829982 47.847735 33.565419
3646  1  3 0.0000 13.614782 13.886375  6.571419
3647  1  3 0.0000 13.614782 13.886375 22.767819
3648  1  3 0.0000 13.614782 13.886375 38.964219
3649  1  3 0.0000 13.614782 47.847735  6.571419
3650  1  3 0.0000 13.614782 47.847735 22.767819
3651  1  3 0.0000 13.614782 47.847735 38.964219
3652  1  3 0.0000 33.222382 47.847735  6.571419
3653  1  3 0.0000 33.222382 47.847735 22.767819
3654  1  3 0.0000 33.222382 47.847735 38.964219
3655  1  3 0.0000 52.829982 13.886375  6.571419
3656  1  3 0.0000 52.829982 13.886375 22.767819
3657  1  3 0.0000 52.829982 13.886375 38.964219
3658  1  3 0.0000 52.829982 30.867055  6.571419
3659  1  3 0.0000 52.829982 30.867055 22.767819
3660  1  3 0.0000 52.829982 30.867055 38.964219
3661  1  3 0.0000 52.829982 47.847735  6.571419
3662  1  3 0.0000 52.829982 47.847735 22.767819
3663  1  3 0.0000 52.829982 47.847735 38.964219
3664  1  3 0.0000 13.614782 13.886375 11.970219
3665  1  3 0.0000 13.614782 13.886375 28.166619
3666  1  3 0.0000 13.614782 13.886375 44.363019
3667  1  3 0.0000 13.614782 47.847735 11.970219
3668  1  3 0.0000 13.614782 47.847735 28.166619
3669  1  3 0.0000 13.614782 47.847735 44.363019
3670  1  3 0.0000 33.222382 47.847735 11.970219
3671  1  3 0.0000 33.222382 47.847735 28.166619
3672  1  3 0.0000 33.222382 47.847735 44.363019
3673  1  3 0.0000 52.829982 13.886375 11.970219
3674  1  3 0.0000 52.829982 13.886375 28.166619
3675  1  3 0.0000 52.829982 13.886375 44.363019
3676  1  3 0.0000 52.829982 30.867055 11.970219
3677  1  3 0.0000 52.829982 30.867055 28.166619
3678  1  3 0.0000 52.829982 30.867055 44.363019
3679  1  3 0.0000 52.829982 47.847735 11.970219
3680  1  3 0.0000 52.829982 47.847735 28.166619
3681  1  3 0.0000 52.829982 47.847735 44.363019
3682  1  3 0.0000 18.516682 47.847735  1.172619
3683  1  3 0.0000 18.516682 47.847735 17.369019
3684  1  3 0.0000 18.516682 47.847735 33.565419
3685  1  3 0.0000 38.124282 47.847735  1.172619
3686  1  3 0.0000 38.124282 47.847735 17.369019
3687  1  3 0.0000 38.124282 47.847735 33.565419
3688  1  3 0.0000 57.731882 13.886375  1.172619
3689  1  3 0.0000 57.731882 13.886375 17.369019
3690  1  3 0.0000 57.731882 13.886375 33.565419
3691  1  3 0.0000 57.731882 30.867055  1.172619
3692  1  3 0.0000 57.731882 30.867055 17.369019
3693  1  3 0.0000 57.731882 30.867055 33.565419
3694  1  3 0.0000 57.731882 47.847735  1.172619
3695  1  3 0.0000 57.731882 47.847735 17.369019
3696  1  3 0.0000 57.731882 47.847735 33.565419
3697  1  3 0.0000 18.516682 47.847735  6.571419
3698  1  3 0.0000 18.516682 47.847735 22.767819
3699  1  3 0.0000 18.516682 47.847735 38.964219
3700  1  3 0.0000 38.124282 47.847735  6.571419
3701  1  3 0.0000 38.124282 47.847735 22.767819
3702  1  3 0.0000 38.124282 47.847735 38.964219
3703  1  3 0.0000 57.731882 13.886375  6.571419
3704  1  3 0.0000 57.731882 13.886375 22.767819
3705  1  3 0.0000 57.731882 13.886375 38.964219
3706  1  3 0.0000 57.731882 30.867055  6.571419
3707  1  3 0.0000 57.731882 30.867055 22.767819
3708  1  3 0.0000 57.731882 30.867055 38.964219
3709  1  3 0.0000 57.731882 47.847735  6.571419
3710  1  3 0.0000 57.731882 47.847735 22.767819
3711  1  3 0.0000 57.731882 47.847735 38.964219
3712  1  3 0.0000 18.516682 47.847735 11.970219
3713  1  3 0.0000 18.516682 47.847735 28.166619
3714  1  3 0.0000 18.516682 47.847735 44.363019
3715  1  3 0.0000 38.124282 47.847735 11.970219
3716  1  3 0.0000 38.124282 47.847735 28.166619
3717  1  3 0.0000 38.124282 47.847735 44.363019
3718  1  3 0.0000 57.731882 13.886375 11.970219
3719  1  3 0.0000 57.731882 13.886375 28.166619
3720  1  3 0.0000 57.731882 13.886375 44.363019
3721  1  3 0.0000 57.731882 30.867055 11.970219
3722  1  3 0.0000 57.731882 30.867055 28.166619
3723  1  3 0.0000 57.731882 30.867055 44.363019
3724  1  3 0.0000 57.731882 47.847735 11.970219
3725  1  3 0.0000 57.731882 47.847735 28.166619
3726  1  3 0.0000 57.731882 47.847735 44.363019
3727  1  3 0.0000  3.225205  0.602390  2.972219
3728  1  3 0.0000  3.225205  0.602390 19.168619
3729  1  3 0.0000  3.225205  0.602390 35.365019
3730  1  3 0.0000  3.225205 17.583069  2.972219
3731  1  3 0.0000  3.225205 17.583069 19.168619
3732  1  3 0.0000  3.225205 17.583069 35.365019
3733  1  3 0.0000  3.225205 34.563749  2.972219
3734  1  3 0.0000  3.225205 34.563749 19.168619
3735  1  3 0.0000  3.225205 34.563749 35.365019
3736  1  3 0.0000 22.832805  0.602390  2.972219
3737  1  3 0.0000 22.832805  0.602390 19.168619
3738  1  3 0.0000 22.832805  0.602390 35.365019
3739  1  3 0.0000 42.440405  0.602390  2.972219
3740  1  3 0.0000 42.440405  0.602390 19.168619
3741  1  3 0.0000 42.440405  0.602390 35.365019
3742  1  3 0.0000  3.225205  0.602390  8.371019
3743  1  3 0.0000  3.225205  0.602390 24.567419
3744  1  3 0.0000  3.225205  0.602390 40.763819
3745  1  3 0.0000  3.225205 17.583069  8.371019
3746  1  3 0.0000  3.225205 17.583069 24.567419
3747  1  3 0.0000  3.225205 17.583069 40.763819
3748  1  3 0.0000  3.225205 34.563749  8.371019
3749  1  3 0.0000  3.225205 34.563749 24.567419
3750  1  3 0.0000  3.225205 34.563749 40.763819
3751  1  3 0.0000 22.832805  0.602390  8.371019
3752  1  3 0.0000 22.832805  0.602390 24.567419
3753  1  3 0.0000 22.832805  0.602390 40.763819
3754  1  3 0.0000 42.440405  0.602390  8.371019
3755  1  3 0.0000 42.440405  0.602390 24.567419
3756  1  3 0.0000 42.440405  0.602390 40.763819
3757  1  3 0.0000  3.225205  0.602390 13.769819
3758  1  3 0.0000  3.225205  0.602390 29.966219
3759  1  3 0.0000  3.225205  0.602390 46.162619
3760  1  3 0.0000  3.225205 17.583069 13.769819
3761  1  3 0.0000  3.225205 17.583069 29.966219
3762  1  3 0.0000  3.225205 17.583069 46.162619
3763  1  3 0.0000  3.225205 34.563749 13.769819
3764  1  3 0.0000  3.225205 34.563749 29.966219
3765  1  3 0.0000  3.225205 34.563749 46.162619
3766  1  3 0.0000 22.832805  0.602390 13.769819
3767  1  3 0.0000 22.832805  0.602390 29.966219
3768  1  3 0.0000 22.832805  0.602390 46.162619
3769  1  3 0.0000 42.440405  0.602390 13.769819
3770  1  3 0.0000 42.440405  0.602390 29.966219
3771  1  3 0.0000 42.440405  0.602390 46.162619
3772  1  3 0.0000  8.127105  0.602390  2.972219
3773  1  3 0.0000  8.127105  0.602390 19.168619
3774  1  3 0.0000  8.127105  0.602390 35.365019
3775  1  3 0.0000  8.127105 17.583069  2.972219
3776  1  3 0.0000  8.127105 17.583069 19.168619
3777  1  3 0.0000  8.127105 17.583069 35.365019
3778  1  3 0.0000  8.127105 34.563749  2.972219
3779  1  3 0.0000  8.127105 34.563749 19.168619
3780  1  3 0.0000  8.127105 34.563749 35.365019
3781  1  3 0.0000 27.734705  0.602390  2.972219
3782  1  3 0.0000 27.734705  0.602390 19.168619
3783  1  3 0.0000 27.734705  0.602390 35.365019
3784  1  3 0.0000 47.342305  0.602390  2.972219
3785  1  3 0.0000 47.342305  0.602390 19.168619
3786  1  3 0.0000 47.342305  0.602390 35.365019
3787  1  3 0.0000 47.342305 17.583069  2.972219
3788  1  3 0.0000 47.342305 17.583069 19.168619
3789  1  3 0.0000 47.342305 17.583069 35.365019
3790  1  3 0.0000 47.342305 34.563749  2.972219
3791  1  3 0.0000 47.342305 34.563749 19.168619
3792  1  3 0.0000 47.342305 34.563749 35.365019
3793  1  3 0.0000  8.127105  0.602390  8.371019
3794  1  3 0.0000  8.127105  0.602390 24.567419
3795  1  3 0.0000  8.127105  0.602390 40.763819
3796  1  3 0.0000  8.127105 17.583069  8.371019
3797  1  3 0.0000  8.127105 17.583069 24.567419
3798  1  3 0.0000  8.127105 17.583069 40.763819
3799  1  3 0.0000  8.127105 34.563749  8.371019
3800  1  3 0.0000  8.127105 34.563749 24.567419
3801  1  3 0.0000  8.127105 34.563749 40.763819
3802  1  3 0.0000 27.734705  0.602390  8.371019
3803  1  3 0.0000 27.734705  0.602390 24.567419
3804  1  3 0.0000 27.734705  0.602390 40.763819
3805  1  3 0.0000 47.342305  0.602390  8.371019
3806  1  3 0.0000 47.342305  0.602390 24.567419
3807  1  3 0.0000 47.342305  0.602390 40.763819
3808  1  3 0.0000 47.342305 17.583069  8.371019
3809  1  3 0.0000 47.342305 17.583069 24.567419
3810  1  3 0.0000 47.342305 17.583069 40.763819
3811  1  3 0.0000 47.342305 34.563749  8.371019
3812  1  3 0.0000 47.342305 34.563749 24.567419
3813  1  3 0.0000 47.342305 34.563749 40.763819
3814  1  3 0.0000  8.127105  0.602390 13.769819
3815  1  3 0.0000  8.127105  0.602390 29.966219
3816  1  3 0.0000  8.127105  0.602390 46.162619
3817  1  3 0.0000  8.127105 17.583069 13.769819
3818  1  3 0.0000  8.127105 17.583069 29.966219
3819  1  3 0.0000  8.127105 17.583069 46.162619
3820  1  3 0.0000  8.127105 34.563749 13.769819
3821  1  3 0.0000  8.127105 34.563749 29.966219
3822  1  3 0.0000  8.127105 34.563749 46.162619
3823  1  3 0.0000 27.734705  0.602390 13.769819
3824  1  3 0.0000 27.734705  0.602390 29.966219
3825  1  3 0.0000 27.734705  0.602390 46.162619
3826  1  3 0.0000 47.342305  0.602390 13.769819
3827  1  3 0.0000 47.342305  0.602390 29.966219
3828  1  3 0.0000 47.342305  0.602390 46.162619
3829  1  3 0.0000 47.342305 17.583069 13.769819
3830  1  3 0.0000 47.342305 17.583069 29.966219
3831  1  3 0.0000 47.342305 17.583069 46.162619
3832  1  3 0.0000 47.342305 34.563749 13.769819
3833  1  3 0.0000 47.342305 34.563749 29.966219
3834  1  3 0.0000 47.342305 34.563749 46.162619
3835  1  3 0.0000  5.676155  4.847560  2.972219
3836  1  3 0.0000  5.676155  4.847560 19.168619
3837  1  3 0.0000  5.676155  4.847560 35.365019
3838  1  3 0.0000  5.676155 21.828239  2.972219
3839  1  3 0.0000  5.676155 21.828239 19.168619
3840  1  3 0.0000  5.676155 21.828239 35.365019
3841  1  3 0.0000  5.676155 38.808919  2.972219
3842  1  3 0.0000  5.676155 38.808919 19.168619
3843  1  3 0.0000  5.676155 38.808919 35.365019
3844  1  3 0.0000 25.283755  4.847560  2.972219
3845  1  3 0.0000 25.283755  4.847560 19.168619
3846  1  3 0.0000 25.283755  4.847560 35.365019
3847  1  3 0.0000 44.891355  4.847560  2.972219
3848  1  3 0.0000 44.891355  4.847560 19.168619
3849  1  3 0.0000 44.891355  4.847560 35.365019
3850  1  3 0.0000 44.891355 38.808919  2.972219
3851  1  3 0.0000 44.891355 38.808919 19.168619
3852  1  3 0.0000 44.891355 38.808919 35.365019
3853  1  3 0.0000  5.676155  4.847560  8.371019
3854  1  3 0.0000  5.676155  4.847560 24.567419
3855  1  3 0.0000  5.676155  4.847560 40.763819
3856  1  3 0.0000  5.676155 21.828239  8.371019
3857  1  3 0.0000  5.676155 21.828239 24.567419
3858  1  3 0.0000  5.676155 21.828239 40.763819
3859  1  3 0.0000  5.676155 38.808919  8.371019
3860  1  3 0.0000  5.676155 38.808919 24.567419
3861  1  3 0.0000  5.676155 38.808919 40.763819
3862  1  3 0.0000 25.283755  4.847560  8.371019
3863  1  3 0.0000 25.283755  4.847560 24.567419
3864  1  3 0.0000 25.283755  4.847560 40.763819
3865  1  3 0.0000 44.891355  4.847560  8.371019
3866  1  3 0.0000 44.891355  4.847560 24.567419
3867  1  3 0.0000 44.891355  4.847560 40.763819
3868  1  3 0.0000 44.891355 38.808919  8.371019
3869  1  3 0.0000 44.891355 38.808919 24.567419
3870  1  3 0.0000 44.891355 38.808919 40.763819
3871  1  3 0.0000  5.676155  4.847560 13.769819
3872  1  3 0.0000  5.676155  4.847560 29.966219
3873  1  3 0.0000  5.676155  4.847560 46.162619
3874  1  3 0.0000  5.676155 21.828239 13.769819
3875  1  3 0.0000  5.676155 21.828239 29.966219
3876  1  3 0.0000  5.676155 21.828239 46.162619
3877  1  3 0.0000  5.676155 38.808919 13.769819
3878  1  3 0.0000  5.676155 38.808919 29.966219
3879  1  3 0.0000  5.676155 38.808919 46.162619
3880  1  3 0.0000 25.283755  4.847560 13.769819
3881  1  3 0.0000 25.283755  4.847560 29.966219
3882  1  3 0.0000 25.283755  4.847560 46.162619
3883  1  3 0.0000 44.891355  4.847560 13.769819
3884  1  3 0.0000 44.891355  4.847560 29.966219
3885  1  3 0.0000 44.891355  4.847560 46.162619
3886  1  3 0.0000 44.891355 38.808919 13.769819
3887  1  3 0.0000 44.891355 38.808919 29.966219
3888  1  3 0.0000 44.891355 38.808919 46.162619
3889  1  3 0.0000  3.225205  9.092729  2.972219
3890  1  3 0.0000  3.225205  9.092729 19.168619
3891  1  3 0.0000  3.225205  9.092729 35.365019
3892  1  3 0.0000  3.225205 26.073409  2.972219
3893  1  3 0.0000  3.225205 26.073409 19.168619
3894  1  3 0.0000  3.225205 26.073409 35.365019
3895  1  3 0.0000  3.225205 43.054089  2.972219
3896  1  3 0.0000  3.225205 43.054089 19.168619
3897  1  3 0.0000  3.225205 43.054089 35.365019
3898  1  3 0.0000 22.832805  9.092729  2.972219
3899  1  3 0.0000 22.832805  9.092729 19.168619
3900  1  3 0.0000 22.832805  9.092729 35.365019
3901  1  3 0.0000 22.832805 43.054089  2.972219
3902  1  3 0.0000 22.832805 43.054089 19.168619
3903  1  3 0.0000 22.832805 43.054089 35.365019
3904  1  3 0.0000 42.440405  9.092729  2.972219
3905  1  3 0.0000 42.440405  9.092729 19.168619
3906  1  3 0.0000 42.440405  9.092729 35.365019
3907  1  3 0.0000 42.440405 43.054089  2.972219
3908  1  3 0.0000 42.440405 43.054089 19.168619
3909  1  3 0.0000 42.440405 43.054089 35.365019
3910  1  3 0.0000  3.225205  9.092729  8.371019
3911  1  3 0.0000  3.225205  9.092729 24.567419
3912  1  3 0.0000  3.225205  9.092729 40.763819
3913  1  3 0.0000  3.225205 26.073409  8.371019
3914  1  3 0.0000  3.225205 26.073409 24.567419
3915  1  3 0.0000  3.225205 26.073409 40.763819
3916  1  3 0.0000  3.225205 43.054089  8.371019
3917  1  3 0.0000  3.225205 43.054089 24.567419
3918  1  3 0.0000  3.225205 43.054089 40.763819
3919  1  3 0.0000 22.832805  9.092729  8.371019
3920  1  3 0.0000 22.832805  9.092729 24.567419
3921  1  3 0.0000 22.832805  9.092729 40.763819
3922  1  3 0.0000 22.832805 43.054089  8.371019
3923  1  3 0.0000 22.832805 43.054089 24.567419
3924  1  3 0.0000 22.832805 43.054089 40.763819
3925  1  3 0.0000 42.440405  9.092729  8.371019
3926  1  3 0.0000 42.440405  9.092729 24.567419
3927  1  3 0.0000 42.440405  9.092729 40.763819
3928  1  3 0.0000 42.440405 43.054089  8.371019
3929  1  3 0.0000 42.440405 43.054089 24.567419
3930  1  3 0.0000 42.440405 43.054089 40.763819
3931  1  3 0.0000  3.225205  9.092729 13.769819
3932  1  3 0.0000  3.225205  9.092729 29.966219
3933  1  3 0.0000  3.225205  9.092729 46.162619
3934  1  3 0.0000  3.225205 26.073409 13.769819
3935  1  3 0.0000  3.225205 26.073409 29.966219
3936  1  3 0.0000  3.225205 26.073409 46.162619
3937  1  3 0.0000  3.225205 43.054089 13.769819
3938  1  3 0.0000  3.225205 43.054089 29.966219
3939  1  3 0.0000  3.225205 43.054089 46.162619
3940  1  3 0.0000 22.832805  9.092729 13.769819
3941  1  3 0.0000 22.832805  9.092729 29.966219
3942  1  3 0.0000 22.832805  9.092729 46.162619
3943  1  3 0.0000 22.832805 43.054089 13.769819
3944  1  3 0.0000 22.832805 43.054089 29.966219
3945  1  3 0.0000 22.832805 43.054089 46.162619
3946  1  3 0.0000 42.440405  9.092729 13.769819
3947  1  3 0.0000 42.440405  9.092729 29.966219
3948  1  3 0.0000 42.440405  9.092729 46.162619
3949  1  3 0.0000 42.440405 43.054089 13.769819
3950  1  3 0.0000 42.440405 43.054089 29.966219
3951  1  3 0.0000 42.440405 43.054089 46.162619
3952  1  3 0.0000 13.029005  0.602390  2.972219
3953  1  3 0.0000 13.029005  0.602390 19.168619
3954  1  3 0.0000 13.029005  0.602390 35.365019
3955  1  3 0.0000 13.029005 17.583069  2.972219
3956  1  3 0.0000 13.029005 17.583069 19.168619
3957  1  3 0.0000 13.029005 17.583069 35.365019
3958  1  3 0.0000 13.029005 34.563749  2.972219
3959  1  3 0.0000 13.029005 34.563749 19.168619
3960  1  3 0.0000 13.029005 34.563749 35.365019
3961  1  3 0.0000 32.636605  0.602390  2.972219
3962  1  3 0.0000 32.636605  0.602390 19.168619
3963  1  3 0.0000 32.636605  0.602390 35.365019
3964  1  3 0.0000 52.244205  0.602390  2.972219
3965  1  3 0.0000 52.244205  0.602390 19.168619
3966  1  3 0.0000 52.244205  0.602390 35.365019
3967  1  3 0.0000 52.244205 17.583069  2.972219
3968  1  3 0.0000 52.244205 17.583069 19.168619
3969  1  3 0.0000 52.244205 17.583069 35.365019
3970  1  3 0.0000 52.244205 34.563749  2.972219
3971  1  3 0.0000 52.244205 34.563749 19.168619
3972  1  3 0.0000 52.244205 34.563749 35.365019
3973  1  3 0.0000 13.029005  0.602390  8.371019
3974  1  3 0.0000 13.029005  0.602390 24.567419
3975  1  3 0.0000 13.029005  0.602390 40.763819
3976  1  3 0.0000 13.029005 17.583069  8.371019
3977  1  3 0.0000 13.029005 17.583069 24.567419
3978  1  3 0.0000 13.029005 17.583069 40.763819
3979  1  3 0.0000 13.029005 34.563749  8.371019
3980  1  3 0.0000 13.029005 34.563749 24.567419
3981  1  3 0.0000 13.029005 34.563749 40.763819
3982  1  3 0.0000 32.636605  0.602390  8.371019
3983  1  3 0.0000 32.636605  0.602390 24.567419
3984  1  3 0.0000 32.636605  0.602390 40.763819
3985  1  3 0.0000 52.244205  0.602390  8.371019
3986  1  3 0.0000 52.244205  0.602390 24.567419
3987  1  3 0.0000 52.244205  0.602390 40.763819
3988  1  3 0.0000 52.244205 17.583069  8.371019
3989  1  3 0.0000 52.244205 17.583069 24.567419
3990  1  3 0.0000 52.244205 17.583069 40.763819
3991  1  3 0.0000 52.244205 34.563749  8.371019
3992  1  3 0.0000 52.244205 34.563749 24.567419
3993  1  3 0.0000 52.244205 34.563749 40.763819
3994  1  3 0.0000 13.029005  0.602390 13.769819
3995  1  3 0.0000 13.029005  0.602390 29.966219
3996  1  3 0.0000 13.029005  0.602390 46.162619
3997  1  3 0.0000 13.029005 17.583069 13.769819
3998  1  3 0.0000 13.029005 17.583069 29.966219
3999  1  3 0.0000 13.029005 17.583069 46.162619
4000  1  3 0.0000 13.029005 34.563749 13.769819
4001  1  3 0.0000 13.029005 34.563749 29.966219
4002  1  3 0.0000 13.029005 34.563749 46.162619
4003  1  3 0.0000 32.636605  0.602390 13.769819
4004  1  3 0.0000 32.636605  0.602390 29.966219
4005  1  3 0.0000 32.636605  0.602390 46.162619
4006  1  3 0.0000 52.244205  0.602390 13.769819
4007  1  3 0.0000 52.244205  0.602390 29.966219
4008  1  3 0.0000 52.244205  0.602390 46.162619
4009  1  3 0.0000 52.244205 17.583069 13.769819
4010  1  3 0.0000 52.244205 17.583069 29.966219
4011  1  3 0.0000 52.244205 17.583069 46.162619
4012  1  3 0.0000 52.244205 34.563749 13.769819
4013  1  3 0.0000 52.244205 34.563749 29.966219
4014  1  3 0.0000 52.244205 34.563749 46.162619
4015  1  3 0.0000 10.578055  4.847560  2.972219
4016  1  3 0.0000 10.578055  4.847560 19.168619
4017  1  3 0.0000 10.578055  4.847560 35.365019
4018  1  3 0.0000 10.578055 21.828239  2.972219
4019  1  3 0.0000 10.578055 21.828239 19.168619
4020  1  3 0.0000 10.578055 21.828239 35.365019
4021  1  3 0.0000 10.578055 38.808919  2.972219
4022  1  3 0.0000 10.578055 38.808919 19.168619
4023  1  3 0.0000 10.578055 38.808919 35.365019
4024  1  3 0.0000 30.185655  4.847560  2.972219
4025  1  3 0.0000 30.185655  4.847560 19.168619
4026  1  3 0.0000 30.185655  4.847560 35.365019
4027  1  3 0.0000 49.793255  4.847560  2.972219
4028  1  3 0.0000 49.793255  4.847560 19.168619
4029  1  3 0.0000 49.793255  4.847560 35.365019
4030  1  3 0.0000 49.793255 21.828239  2.972219
4031  1  3 0.0000 49.793255 21.828239 19.168619
4032  1  3 0.0000 49.793255 21.828239 35.365019
4033  1  3 0.0000 49.793255 38.808919  2.972219
4034  1  3 0.0000 49.793255 38.808919 19.168619
4035  1  3 0.0000 49.793255 38.808919 35.365019
4036  1  3 0.0000 10.578055  4.847560  8.371019
4037  1  3 0.0000 10.578055  4.847560 24.567419
4038  1  3 0.0000 10.578055  4.847560 40.763819
4039  1  3 0.0000 10.578055 21.828239  8.371019
4040  1  3 0.0000 10.578055 21.828239 24.567419
4041  1  3 0.0000 10.578055 21.828239 40.763819
4042  1  3 0.0000 10.578055 38.808919  8.371019
4043  1  3 0.0000 10.578055 38.808919 24.567419
4044  1  3 0.0000 10.578055 38.808919 40.763819
4045  1  3 0.0000 30.185655  4.847560  8.371019
4046  1  3 0.0000 30.185655  4.847560 24.567419
4047  1  3 0.0000 30.185655  4.847560 40.763819
4048  1  3 0.0000 49.793255  4.847560  8.371019
4049  1  3 0.0000 49.793255  4.847560 24.567419
4050  1  3 0.0000 49.793255  4.847560 40.763819
4051  1  3 0.0000 49.793255 21.828239  8.371019
4052  1  3 0.0000 49.793255 21.828239 24.567419
4053  1  3 0.0000 49.793255 21.828239 40.763819
4054  1  3 0.0000 49.793255 38.808919  8.371019
4055  1  3 0.0000 49.793255 38.808919 24.567419
4056  1  3 0.0000 49.793255 38.808919 40.763819
4057  1  3 0.0000 10.578055  4.847560 13.769819
4058  1  3 0.0000 10.578055  4.847560 29.966219
4059  1  3 0.0000 10.578055  4.847560 46.162619
4060  1  3 0.0000 10.578055 21.828239 13.769819
4061  1  3 0.0000 10.578055 21.828239 29.966219
4062  1  3 0.0000 10.578055 21.828239 46.162619
4063  1  3 0.0000 10.578055 38.808919 13.769819
4064  1  3 0.0000 10.578055 38.808919 29.966219
4065  1  3 0.0000 10.578055 38.808919 46.162619
4066  1  3 0.0000 30.185655  4.847560 13.769819
4067  1  3 0.0000 30.185655  4.847560 29.966219
4068  1  3 0.0000 30.185655  4.847560 46.162619
4069  1  3 0.0000 49.793255  4.847560 13.769819
4070  1  3 0.0000 49.793255  4.847560 29.966219
4071  1  3 0.0000 49.793255  4.847560 46.162619
4072  1  3 0.0000 49.793255 21.828239 13.769819
4073  1  3 0.0000 49.793255 21.828239 29.966219
4074  1  3 0.0000 49.793255 21.828239 46.162619
4075  1  3 0.0000 49.793255 38.808919 13.769819
4076  1  3 0.0000 49.793255 38.808919 29.966219
4077  1  3 0.0000 49.793255 38.808919 46.162619
4078  1  3 0.0000  8.127105  9.092729  2.972219
4079  1  3 0.0000  8.127105  9.092729 19.168619
4080  1  3 0.0000  8.127105  9.092729 35.365019
4081  1  3 0.0000  8.127105 26.073409  2.972219
4082  1  3 0.0000  8.127105 26.073409 19.168619
4083  1  3 0.0000  8.127105 26.073409 35.365019
4084  1  3 0.0000  8.127105 43.054089  2.972219
4085  1  3 0.0000  8.127105 43.054089 19.168619
4086  1  3 0.0000  8.127105 43.054089 35.365019
4087  1  3 0.0000 47.342305  9.092729  2.972219
4088  1  3 0.0000 47.342305  9.092729 19.168619
4089  1  3 0.0000 47.342305  9.092729 35.365019
4090  1  3 0.0000 47.342305 43.054089  2.972219
4091  1  3 0.0000 47.342305 43.054089 19.168619
4092  1  3 0.0000 47.342305 43.054089 35.365019
4093  1  3 0.0000  8.127105  9.092729  8.371019
4094  1  3 0.0000  8.127105  9.092729 24.567419
4095  1  3 0.0000  8.127105  9.092729 40.763819
4096  1  3 0.0000  8.127105 26.073409  8.371019
4097  1  3 0.0000  8.127105 26.073409 24.567419
4098  1  3 0.0000  8.127105 26.073409 40.763819
4099  1  3 0.0000  8.127105 43.054089  8.371019
4100  1  3 0.0000  8.127105 43.054089 24.567419
4101  1  3 0.0000  8.127105 43.054089 40.763819
4102  1  3 0.0000 47.342305  9.092729  8.371019
4103  1  3 0.0000 47.342305  9.092729 24.567419
4104  1  3 0.0000 47.342305  9.092729 40.763819
4105  1  3 0.0000 47.342305 43.054089  8.371019
4106  1  3 0.0000 47.342305 43.054089 24.567419
4107  1  3 0.0000 47.342305 43.054089 40.763819
4108  1  3 0.0000  8.127105  9.092729 13.769819
4109  1  3 0.0000  8.127105  9.092729 29.966219
4110  1  3 0.0000  8.127105  9.092729 46.162619
4111  1  3 0.0000  8.127105 26.073409 13.769819
4112  1  3 0.0000  8.127105 26.073409 29.966219
4113  1  3 0.0000  8.127105 26.073409 46.162619
4114  1  3 0.0000  8.127105 43.054089 13.769819
4115  1  3 0.0000  8.127105 43.054089 29.966219
4116  1  3 0.0000  8.127105 43.054089 46.162619
4117  1  3 0.0000 47.342305  9.092729 13.769819
4118  1  3 0.0000 47.342305  9.092729 29.966219
4119  1  3 0.0000 47.342305  9.092729 46.162619
4120  1  3 0.0000 47.342305 43.054089 13.769819
4121  1  3 0.0000 47.342305 43.054089 29.966219
4122  1  3 0.0000 47.342305 43.054089 46.162619
4123  1  3 0.0000  5.676155 13.337899  2.972219
4124  1  3 0.0000  5.676155 13.337899 19.168619
4125  1  3 0.0000  5.676155 13.337899 35.365019
4126  1  3 0.0000  5.676155 30.318579  2.972219
4127  1  3 0.0000  5.676155 30.318579 19.168619
4128  1  3 0.0000  5.676155 30.318579 35.365019
4129  1  3 0.0000  5.676155 47.299259  2.972219
4130  1  3 0.0000  5.676155 47.299259 19.168619
4131  1  3 0.0000  5.676155 47.299259 35.365019
4132  1  3 0.0000 25.283755 47.299259  2.972219
4133  1  3 0.0000 25.283755 47.299259 19.168619
4134  1  3 0.0000 25.283755 47.299259 35.365019
4135  1  3 0.0000 44.891355 13.337899  2.972219
4136  1  3 0.0000 44.891355 13.337899 19.168619
4137  1  3 0.0000 44.891355 13.337899 35.365019
4138  1  3 0.0000 44.891355 47.299259  2.972219
4139  1  3 0.0000 44.891355 47.299259 19.168619
4140  1  3 0.0000 44.891355 47.299259 35.365019
4141  1  3 0.0000  5.676155 13.337899  8.371019
4142  1  3 0.0000  5.676155 13.337899 24.567419
4143  1  3 0.0000  5.676155 13.337899 40.763819
4144  1  3 0.0000  5.676155 30.318579  8.371019
4145  1  3 0.0000  5.676155 30.318579 24.567419
4146  1  3 0.0000  5.676155 30.318579 40.763819
4147  1  3 0.0000  5.676155 47.299259  8.371019
4148  1  3 0.0000  5.676155 47.299259 24.567419
4149  1  3 0.0000  5.676155 47.299259 40.763819
4150  1  3 0.0000 25.283755 47.299259  8.371019
4151  1  3 0.0000 25.283755 47.299259 24.567419
4152  1  3 0.0000 25.283755 47.299259 40.763819
4153  1  3 0.0000 44.891355 13.337899  8.371019
4154  1  3 0.0000 44.891355 13.337899 24.567419
4155  1  3 0.0000 44.891355 13.337899 40.763819
4156  1  3 0.0000 44.891355 47.299259  8.371019
4157  1  3 0.0000 44.891355 47.299259 24.567419
4158  1  3 0.0000 44.891355 47.299259 40.763819
4159  1  3 0.0000  5.676155 13.337899 13.769819
4160  1  3 0.0000  5.676155 13.337899 29.966219
4161  1  3 0.0000  5.676155 13.337899 46.162619
4162  1  3 0.0000  5.676155 30.318579 13.769819
4163  1  3 0.0000  5.676155 30.318579 29.966219
4164  1  3 0.0000  5.676155 30.318579 46.162619
4165  1  3 0.0000  5.676155 47.299259 13.769819
4166  1  3 0.0000  5.676155 47.299259 29.966219
4167  1  3 0.0000  5.676155 47.299259 46.162619
4168  1  3 0.0000 25.283755 47.299259 13.769819
4169  1  3 0.0000 25.283755 47.299259 29.966219
4170  1  3 0.0000 25.283755 47.299259 46.162619
4171  1  3 0.0000 44.891355 13.337899 13.769819
4172  1  3 0.0000 44.891355 13.337899 29.966219
4173  1  3 0.0000 44.891355 13.337899 46.162619
4174  1  3 0.0000 44.891355 47.299259 13.769819
4175  1  3 0.0000 44.891355 47.299259 29.966219
4176  1  3 0.0000 44.891355 47.299259 46.162619
4177  1  3 0.0000 17.930905  0.602390  2.972219
4178  1  3 0.0000 17.930905  0.602390 19.168619
4179  1  3 0.0000 17.930905  0.602390 35.365019
4180  1  3 0.0000 37.538505  0.602390  2.972219
4181  1  3 0.0000 37.538505  0.602390 19.168619
4182  1  3 0.0000 37.538505  0.602390 35.365019
4183  1  3 0.0000 57.146105  0.602390  2.972219
4184  1  3 0.0000 57.146105  0.602390 19.168619
4185  1  3 0.0000 57.146105  0.602390 35.365019
4186  1  3 0.0000 57.146105 17.583069  2.972219
4187  1  3 0.0000 57.146105 17.583069 19.168619
4188  1  3 0.0000 57.146105 17.583069 35.365019
4189  1  3 0.0000 57.146105 34.563749  2.972219
4190  1  3 0.0000 57.146105 34.563749 19.168619
4191  1  3 0.0000 57.146105 34.563749 35.365019
4192  1  3 0.0000 17.930905  0.602390  8.371019
4193  1  3 0.0000 17.930905  0.602390 24.567419
4194  1  3 0.0000 17.930905  0.602390 40.763819
4195  1  3 0.0000 37.538505  0.602390  8.371019
4196  1  3 0.0000 37.538505  0.602390 24.567419
4197  1  3 0.0000 37.538505  0.602390 40.763819
4198  1  3 0.0000 57.146105  0.602390  8.371019
4199  1  3 0.0000 57.146105  0.602390 24.567419
4200  1  3 0.0000 57.146105  0.602390 40.763819
4201  1  3 0.0000 57.146105 17.583069  8.371019
4202  1  3 0.0000 57.146105 17.583069 24.567419
4203  1  3 0.0000 57.146105 17.583069 40.763819
4204  1  3 0.0000 57.146105 34.563749  8.371019
4205  1  3 0.0000 57.146105 34.563749 24.567419
4206  1  3 0.0000 57.146105 34.563749 40.763819
4207  1  3 0.0000 17.930905  0.602390 13.769819
4208  1  3 0.0000 17.930905  0.602390 29.966219
4209  1  3 0.0000 17.930905  0.602390 46.162619
4210  1  3 0.0000 37.538505  0.602390 13.769819
4211  1  3 0.0000 37.538505  0.602390 29.966219
4212  1  3 0.0000 37.538505  0.602390 46.162619
4213  1  3 0.0000 57.146105  0.602390 13.769819
4214  1  3 0.0000 57.146105  0.602390 29.966219
4215  1  3 0.0000 57.146105  0.602390 46.162619
4216  1  3 0.0000 57.146105 17.583069 13.769819
4217  1  3 0.0000 57.146105 17.583069 29.966219
4218  1  3 0.0000 57.146105 17.583069 46.162619
4219  1  3 0.0000 57.146105 34.563749 13.769819
4220  1  3 0.0000 57.146105 34.563749 29.966219
4221  1  3 0.0000 57.146105 34.563749 46.162619
4222  1  3 0.0000 15.479955  4.847560  2.972219
4223  1  3 0.0000 15.479955  4.847560 19.168619
4224  1  3 0.0000 15.479955  4.847560 35.365019
4225  1  3 0.0000 15.479955 38.808919  2.972219
4226  1  3 0.0000 15.479955 38.808919 19.168619
4227  1  3 0.0000 15.479955 38.808919 35.365019
4228  1  3 0.0000 35.087555  4.847560  2.972219
4229  1  3 0.0000 35.087555  4.847560 19.168619
4230  1  3 0.0000 35.087555  4.847560 35.365019
4231  1  3 0.0000 54.695155  4.847560  2.972219
4232  1  3 0.0000 54.695155  4.847560 19.168619
4233  1  3 0.0000 54.695155  4.847560 35.365019
4234  1  3 0.0000 54.695155 21.828239  2.972219
4235  1  3 0.0000 54.695155 21.828239 19.168619
4236  1  3 0.0000 54.695155 21.828239 35.365019
4237  1  3 0.0000 54.695155 38.808919  2.972219
4238  1  3 0.0000 54.695155 38.808919 19.168619
4239  1  3 0.0000 54.695155 38.808919 35.365019
4240  1  3 0.0000 15.479955  4.847560  8.371019
4241  1  3 0.0000 15.479955  4.847560 24.567419
4242  1  3 0.0000 15.479955  4.847560 40.763819
4243  1  3 0.0000 15.479955 38.808919  8.371019
4244  1  3 0.0000 15.479955 38.808919 24.567419
4245  1  3 0.0000 15.479955 38.808919 40.763819
4246  1  3 0.0000 35.087555  4.847560  8.371019
4247  1  3 0.0000 35.087555  4.847560 24.567419
4248  1  3 0.0000 35.087555  4.847560 40.763819
4249  1  3 0.0000 54.695155  4.847560  8.371019
4250  1  3 0.0000 54.695155  4.847560 24.567419
4251  1  3 0.0000 54.695155  4.847560 40.763819
4252  1  3 0.0000 54.695155 21.828239  8.371019
4253  1  3 0.0000 54.695155 21.828239 24.567419
4254  1  3 0.0000 54.695155 21.828239 40.763819
4255  1  3 0.0000 54.695155 38.808919  8.371019
4256  1  3 0.0000 54.695155 38.808919 24.567419
4257  1  3 0.0000 54.695155 38.808919 40.763819
4258  1  3 0.0000 15.479955  4.847560 13.769819
4259  1  3 0.0000 15.479955  4.847560 29.966219
4260  1  3 0.0000 15.479955  4.847560 46.162619
4261  1  3 0.0000 15.479955 38.808919 13.769819
4262  1  3 0.0000 15.479955 38.808919 29.966219
4263  1  3 0.0000 15.479955 38.808919 46.162619
4264  1  3 0.0000 35.087555  4.847560 13.769819
4265  1  3 0.0000 35.087555  4.847560 29.966219
4266  1  3 0.0000 35.087555  4.847560 46.162619
4267  1  3 0.0000 54.695155  4.847560 13.769819
4268  1  3 0.0000 54.695155  4.847560 29.966219
4269  1  3 0.0000 54.695155  4.847560 46.162619
4270  1  3 0.0000 54.695155 21.828239 13.769819
4271  1  3 0.0000 54.695155 21.828239 29.966219
4272  1  3 0.0000 54.695155 21.828239 46.162619
4273  1  3 0.0000 54.695155 38.808919 13.769819
4274  1  3 0.0000 54.695155 38.808919 29.966219
4275  1  3 0.0000 54.695155 38.808919 46.162619
4276  1  3 0.0000 13.029005  9.092729  2.972219
4277  1  3 0.0000 13.029005  9.092729 19.168619
4278  1  3 0.0000 13.029005  9.092729 35.365019
4279  1  3 0.0000 13.029005 43.054089  2.972219
4280  1  3 0.0000 13.029005 43.054089 19.168619
4281  1  3 0.0000 13.029005 43.054089 35.365019
4282  1  3 0.0000 52.244205  9.092729  2.972219
4283  1  3 0.0000 52.244205  9.092729 19.168619
4284  1  3 0.0000 52.244205  9.092729 35.365019
4285  1  3 0.0000 52.244205 26.073409  2.972219
4286  1  3 0.0000 52.244205 26.073409 19.168619
4287  1  3 0.0000 52.244205 26.073409 35.365019
4288  1  3 0.0000 52.244205 43.054089  2.972219
4289  1  3 0.0000 52.244205 43.054089 19.168619
4290  1  3 0.0000 52.244205 43.054089 35.365019
4291  1  3 0.0000 13.029005  9.092729  8.371019
4292  1  3 0.0000 13.029005  9.092729 24.567419
4293  1  3 0.0000 13.029005  9.092729 40.763819
4294  1  3 0.0000 13.029005 43.054089  8.371019
4295  1  3 0.0000 13.029005 43.054089 24.567419
4296  1  3 0.0000 13.029005 43.054089 40.763819
4297  1  3 0.0000 52.244205  9.092729  8.371019
4298  1  3 0.0000 52.244205  9.092729 24.567419
4299  1  3 0.0000 52.244205  9.092729 40.763819
4300  1  3 0.0000 52.244205 26.073409  8.371019
4301  1  3 0.0000 52.244205 26.073409 24.567419
4302  1  3 0.0000 52.244205 26.073409 40.763819
4303  1  3 0.0000 52.244205 43.054089  8.371019
4304  1  3 0.0000 52.244205 43.054089 24.567419
4305  1  3 0.0000 52.244205 43.054089 40.763819
4306  1  3 0.0000 13.029005  9.092729 13.769819
4307  1  3 0.0000 13.029005  9.092729 29.966219
4308  1  3 0.0000 13.029005  9.092729 46.162619
4309  1  3 0.0000 13.029005 43.054089 13.769819
4310  1  3 0.0000 13.029005 43.054089 29.966219
4311  1  3 0.0000 13.029005 43.054089 46.162619
4312  1  3 0.0000 52.244205  9.092729 13.769819
4313  1  3 0.0000 52.244205  9.092729 29.966219
4314  1  3 0.0000 52.244205  9.092729 46.162619
4315  1  3 0.0000 52.244205 26.073409 13.769819
4316  1  3 0.0000 52.244205 26.073409 29.966219
4317  1  3 0.0000 52.244205 26.073409 46.162619
4318  1  3 0.0000 52.244205 43.054089 13.769819
4319  1  3 0.0000 52.244205 43.054089 29.966219
4320  1  3 0.0000 52.244205 43.054089 46.162619
4321  1  3 0.0000 10.578055 13.337899  2.972219
4322  1  3 0.0000 10.578055 13.337899 19.168619
4323  1  3 0.0000 10.578055 13.337899 35.365019
4324  1  3 0.0000 10.578055 30.318579  2.972219
4325  1  3 0.0000 10.578055 30.318579 19.168619
4326  1  3 0.0000 10.578055 30.318579 35.365019
4327  1  3 0.0000 10.578055 47.299259  2.972219
4328  1  3 0.0000 10.578055 47.299259 19.168619
4329  1  3 0.0000 10.578055 47.299259 35.365019
4330  1  3 0.0000 30.185655 47.299259  2.972219
4331  1  3 0.0000 30.185655 47.299259 19.168619
4332  1  3 0.0000 30.185655 47.299259 35.365019
4333  1  3 0.0000 49.793255 13.337899  2.972219
4334  1  3 0.0000 49.793255 13.337899 19.168619
4335  1  3 0.0000 49.793255 13.337899 35.365019
4336  1  3 0.0000 49.793255 30.318579  2.972219
4337  1  3 0.0000 49.793255 30.318579 19.168619
4338  1  3 0.0000 49.793255 30.318579 35.365019
4339  1  3 0.0000 49.793255 47.299259  2.972219
4340  1  3 0.0000 49.793255 47.299259 19.168619
4341  1  3 0.0000 49.793255 47.299259 35.365019
4342  1  3 0.0000 10.578055 13.337899  8.371019
4343  1  3 0.0000 10.578055 13.337899 24.567419
4344  1  3 0.0000 10.578055 13.337899 40.763819
4345  1  3 0.0000 10.578055 30.318579  8.371019
4346  1  3 0.0000 10.578055 30.318579 24.567419
4347  1  3 0.0000 10.578055 30.318579 40.763819
4348  1  3 0.0000 10.578055 47.299259  8.371019
4349  1  3 0.0000 10.578055 47.299259 24.567419
4350  1  3 0.0000 10.578055 47.299259 40.763819
4351  1  3 0.0000 30.185655 47.299259  8.371019
4352  1  3 0.0000 30.185655 47.299259 24.567419
4353  1  3 0.0000 30.185655 47.299259 40.763819
4354  1  3 0.0000 49.793255 13.337899  8.371019
4355  1  3 0.0000 49.793255 13.337899 24.567419
4356  1  3 0.0000 49.793255 13.337899 40.763819
4357  1  3 0.0000 49.793255 30.318579  8.371019
4358  1  3 0.0000 49.793255 30.318579 24.567419
4359  1  3 0.0000 49.793255 30.318579 40.763819
4360  1  3 0.0000 49.793255 47.299259  8.371019
4361  1  3 0.0000 49.793255 47.299259 24.567419
4362  1  3 0.0000 49.793255 47.299259 40.763819
4363  1  3 0.0000 10.578055 13.337899 13.769819
4364  1  3 0.0000 10.578055 13.337899 29.966219
4365  1  3 0.0000 10.578055 13.337899 46.162619
4366  1  3 0.0000 10.578055 30.318579 13.769819
4367  1  3 0.0000 10.578055 30.318579 29.966219
4368  1  3 0.0000 10.578055 30.318579 46.162619
4369  1  3 0.0000 10.578055 47.299259 13.769819
4370  1  3 0.0000 10.578055 47.299259 29.966219
4371  1  3 0.0000 10.578055 47.299259 46.162619
4372  1  3 0.0000 30.185655 47.299259 13.769819
4373  1  3 0.0000 30.185655 47.299259 29.966219
4374  1  3 0.0000 30.185655 47.299259 46.162619
4375  1  3 0.0000 49.793255 13.337899 13.769819
4376  1  3 0.0000 49.793255 13.337899 29.966219
4377  1  3 0.0000 49.793255 13.337899 46.162619
4378  1  3 0.0000 49.793255 30.318579 13.769819
4379  1  3 0.0000 49.793255 30.318579 29.966219
4380  1  3 0.0000 49.793255 30.318579 46.162619
4381  1  3 0.0000 49.793255 47.299259 13.769819
4382  1  3 0.0000 49.793255 47.299259 29.966219
4383  1  3 0.0000 49.793255 47.299259 46.162619
4384  1  3 0.0000  0.774255  4.847560  2.972219
4385  1  3 0.0000  0.774255  4.847560 19.168619
4386  1  3 0.0000  0.774255  4.847560 35.365019
4387  1  3 0.0000  0.774255 21.828239  2.972219
4388  1  3 0.0000  0.774255 21.828239 19.168619
4389  1  3 0.0000  0.774255 21.828239 35.365019
4390  1  3 0.0000  0.774255 38.808919  2.972219
4391  1  3 0.0000  0.774255 38.808919 19.168619
4392  1  3 0.0000  0.774255 38.808919 35.365019
4393  1  3 0.0000 20.381855  4.847560  2.972219
4394  1  3 0.0000 20.381855  4.847560 19.168619
4395  1  3 0.0000 20.381855  4.847560 35.365019
4396  1  3 0.0000 39.989455  4.847560  2.972219
4397  1  3 0.0000 39.989455  4.847560 19.168619
4398  1  3 0.0000 39.989455  4.847560 35.365019
4399  1  3 0.0000  0.774255  4.847560  8.371019
4400  1  3 0.0000  0.774255  4.847560 24.567419
4401  1  3 0.0000  0.774255  4.847560 40.763819
4402  1  3 0.0000  0.774255 21.828239  8.371019
4403  1  3 0.0000  0.774255 21.828239 24.567419
4404  1  3 0.0000  0.774255 21.828239 40.763819
4405  1  3 0.0000  0.774255 38.808919  8.371019
4406  1  3 0.0000  0.774255 38.808919 24.567419
4407  1  3 0.0000  0.774255 38.808919 40.763819
4408  1  3 0.0000 20.381855  4.847560  8.371019
4409  1  3 0.0000 20.381855  4.847560 24.567419
4410  1  3 0.0000 20.381855  4.847560 40.763819
4411  1  3 0.0000 39.989455  4.847560  8.371019
4412  1  3 0.0000 39.989455  4.847560 24.567419
4413  1  3 0.0000 39.989455  4.847560 40.763819
4414  1  3 0.0000  0.774255  4.847560 13.769819
4415  1  3 0.0000  0.774255  4.847560 29.966219
4416  1  3 0.0000  0.774255  4.847560 46.162619
4417  1  3 0.0000  0.774255 21.828239 13.769819
4418  1  3 0.0000  0.774255 21.828239 29.966219
4419  1  3 0.0000  0.774255 21.828239 46.162619
4420  1  3 0.0000  0.774255 38.808919 13.769819
4421  1  3 0.0000  0.774255 38.808919 29.966219
4422  1  3 0.0000  0.774255 38.808919 46.162619
4423  1  3 0.0000 20.381855  4.847560 13.769819
4424  1  3 0.0000 20.381855  4.847560 29.966219
4425  1  3 0.0000 20.381855  4.847560 46.162619
4426  1  3 0.0000 39.989455  4.847560 13.769819
4427  1  3 0.0000 39.989455  4.847560 29.966219
4428  1  3 0.0000 39.989455  4.847560 46.162619
4429  1  3 0.0000 17.930905  9.092729  2.972219
4430  1  3 0.0000 17.930905  9.092729 19.168619
4431  1  3 0.0000 17.930905  9.092729 35.365019
4432  1  3 0.0000 17.930905 43.054089  2.972219
4433  1  3 0.0000 17.930905 43.054089 19.168619
4434  1  3 0.0000 17.930905 43.054089 35.365019
4435  1  3 0.0000 37.538505  9.092729  2.972219
4436  1  3 0.0000 37.538505  9.092729 19.168619
4437  1  3 0.0000 37.538505  9.092729 35.365019
4438  1  3 0.0000 37.538505 43.054089  2.972219
4439  1  3 0.0000 37.538505 43.054089 19.168619
4440  1  3 0.0000 37.538505 43.054089 35.365019
4441  1  3 0.0000 57.146105  9.092729  2.972219
4442  1  3 0.0000 57.146105  9.092729 19.168619
4443  1  3 0.0000 57.146105  9.092729 35.365019
4444  1  3 0.0000 57.146105 26.073409  2.972219
4445  1  3 0.0000 57.146105 26.073409 19.168619
4446  1  3 0.0000 57.146105 26.073409 35.365019
4447  1  3 0.0000 57.146105 43.054089  2.972219
4448  1  3 0.0000 57.146105 43.054089 19.168619
4449  1  3 0.0000 57.146105 43.054089 35.365019
4450  1  3 0.0000 17.930905  9.092729  8.371019
4451  1  3 0.0000 17.930905  9.092729 24.567419
4452  1  3 0.0000 17.930905  9.092729 40.763819
4453  1  3 0.0000 17.930905 43.054089  8.371019
4454  1  3 0.0000 17.930905 43.054089 24.567419
4455  1  3 0.0000 17.930905 43.054089 40.763819
4456  1  3 0.0000 37.538505  9.092729  8.371019
4457  1  3 0.0000 37.538505  9.092729 24.567419
4458  1  3 0.0000 37.538505  9.092729 40.763819
4459  1  3 0.0000 37.538505 43.054089  8.371019
4460  1  3 0.0000 37.538505 43.054089 24.567419
4461  1  3 0.0000 37.538505 43.054089 40.763819
4462  1  3 0.0000 57.146105  9.092729  8.371019
4463  1  3 0.0000 57.146105  9.092729 24.567419
4464  1  3 0.0000 57.146105  9.092729 40.763819
4465  1  3 0.0000 57.146105 26.073409  8.371019
4466  1  3 0.0000 57.146105 26.073409 24.567419
4467  1  3 0.0000 57.146105 26.073409 40.763819
4468  1  3 0.0000 57.146105 43.054089  8.371019
4469  1  3 0.0000 57.146105 43.054089 24.567419
4470  1  3 0.0000 57.146105 43.054089 40.763819
4471  1  3 0.0000 17.930905  9.092729 13.769819
4472  1  3 0.0000 17.930905  9.092729 29.966219
4473  1  3 0.0000 17.930905  9.092729 46.162619
4474  1  3 0.0000 17.930905 43.054089 13.769819
4475  1  3 0.0000 17.930905 43.054089 29.966219
4476  1  3 0.0000 17.930905 43.054089 46.162619
4477  1  3 0.0000 37.538505  9.092729 13.769819
4478  1  3 0.0000 37.538505  9.092729 29.966219
4479  1  3 0.0000 37.538505  9.092729 46.162619
4480  1  3 0.0000 37.538505 43.054089 13.769819
4481  1  3 0.0000 37.538505 43.054089 29.966219
4482  1  3 0.0000 37.538505 43.054089 46.162619
4483  1  3 0.0000 57.146105  9.092729 13.769819
4484  1  3 0.0000 57.146105  9.092729 29.966219
4485  1  3 0.0000 57.146105  9.092729 46.162619
4486  1  3 0.0000 57.146105 26.073409 13.769819
4487  1  3 0.0000 57.146105 26.073409 29.966219
4488  1  3 0.0000 57.146105 26.073409 46.162619
4489  1  3 0.0000 57.146105 43.054089 13.769819
4490  1  3 0.0000 57.146105 43.054089 29.966219
4491  1  3 0.0000 57.146105 43.054089 46.162619
4492  1  3 0.0000 15.479955 13.337899  2.972219
4493  1  3 0.0000 15.479955 13.337899 19.168619
4494  1  3 0.0000 15.479955 13.337899 35.365019
4495  1  3 0.0000 15.479955 47.299259  2.972219
4496  1  3 0.0000 15.479955 47.299259 19.168619
4497  1  3 0.0000 15.479955 47.299259 35.365019
4498  1  3 0.0000 35.087555 47.299259  2.972219
4499  1  3 0.0000 35.087555 47.299259 19.168619
4500  1  3 0.0000 35.087555 47.299259 35.365019
4501  1  3 0.0000 54.695155 13.337899  2.972219
4502  1  3 0.0000 54.695155 13.337899 19.168619
4503  1  3 0.0000 54.695155 13.337899 35.365019
4504  1  3 0.0000 54.695155 30.318579  2.972219
4505  1  3 0.0000 54.695155 30.318579 19.168619
4506  1  3 0.0000 54.695155 30.318579 35.365019
4507  1  3 0.0000 54.695155 47.299259  2.972219
4508  1  3 0.0000 54.695155 47.299259 19.168619
4509  1  3 0.0000 54.695155 47.299259 35.365019
4510  1  3 0.0000 15.479955 13.337899  8.371019
4511  1  3 0.0000 15.479955 13.337899 24.567419
4512  1  3 0.0000 15.479955 13.337899 40.763819
4513  1  3 0.0000 15.479955 47.299259  8.371019
4514  1  3 0.0000 15.479955 47.299259 24.567419
4515  1  3 0.0000 15.479955 47.299259 40.763819
4516  1  3 0.0000 35.087555 47.299259  8.371019
4517  1  3 0.0000 35.087555 47.299259 24.567419
4518  1  3 0.0000 35.087555 47.299259 40.763819
4519  1  3 0.0000 54.695155 13.337899  8.371019
4520  1  3 0.0000 54.695155 13.337899 24.567419
4521  1  3 0.0000 54.695155 13.337899 40.763819
4522  1  3 0.0000 54.695155 30.318579  8.371019
4523  1  3 0.0000 54.695155 30.318579 24.567419
4524  1  3 0.0000 54.695155 30.318579 40.763819
4525  1  3 0.0000 54.695155 47.299259  8.371019
4526  1  3 0.0000 54.695155 47.299259 24.567419
4527  1  3 0.0000 54.695155 47.299259 40.763819
4528  1  3 0.0000 15.479955 13.337899 13.769819
4529  1  3 0.0000 15.479955 13.337899 29.966219
4530  1  3 0.0000 15.479955 13.337899 46.162619
4531  1  3 0.0000 15.479955 47.299259 13.769819
4532  1  3 0.0000 15.479955 47.299259 29.966219
4533  1  3 0.0000 15.479955 47.299259 46.162619
4534  1  3 0.0000 35.087555 47.299259 13.769819
4535  1  3 0.0000 35.087555 47.299259 29.966219
4536  1  3 0.0000 35.087555 47.299259 46.162619
4537  1  3 0.0000 54.695155 13.337899 13.769819
4538  1  3 0.0000 54.695155 13.337899 29.966219
4539  1  3 0.0000 54.695155 13.337899 46.162619
4540  1  3 0.0000 54.695155 30.318579 13.769819
4541  1  3 0.0000 54.695155 30.318579 29.966219
4542  1  3 0.0000 54.695155 30.318579 46.162619
4543  1  3 0.0000 54.695155 47.299259 13.769819
4544  1  3 0.0000 54.695155 47.299259 29.966219
4545  1  3 0.0000 54.695155 47.299259 46.162619
4546  1  3 0.0000  0.774255 13.337899  2.972219
4547  1  3 0.0000  0.774255 13.337899 19.168619
4548  1  3 0.0000  0.774255 13.337899 35.365019
4549  1  3 0.0000  0.774255 30.318579  2.972219
4550  1  3 0.0000  0.774255 30.318579 19.168619
4551  1  3 0.0000  0.774255 30.318579 35.365019
4552  1  3 0.0000  0.774255 47.299259  2.972219
4553  1  3 0.0000  0.774255 47.299259 19.168619
4554  1  3 0.0000  0.774255 47.299259 35.365019
4555  1  3 0.0000 20.381855 47.299259  2.972219
4556  1  3 0.0000 20.381855 47.299259 19.168619
4557  1  3 0.0000 20.381855 47.299259 35.365019
4558  1  3 0.0000 39.989455 47.299259  2.972219
4559  1  3 0.0000 39.989455 47.299259 19.168619
4560  1  3 0.0000 39.989455 47.299259 35.365019
4561  1  3 0.0000  0.774255 13.337899  8.371019
4562  1  3 0.0000  0.774255 13.337899 24.567419
4563  1  3 0.0000  0.774255 13.337899 40.763819
4564  1  3 0.0000  0.774255 30.318579  8.371019
4565  1  3 0.0000  0.774255 30.318579 24.567419
4566  1  3 0.0000  0.774255 30.318579 40.763819
4567  1  3 0.0000  0.774255 47.299259  8.371019
4568  1  3 0.0000  0.774255 47.299259 24.567419
4569  1  3 0.0000  0.774255 47.299259 40.763819
4570  1  3 0.0000 20.381855 47.299259  8.371019
4571  1  3 0.0000 20.381855 47.299259 24.567419
4572  1  3 0.0000 20.381855 47.299259 40.763819
4573  1  3 0.0000 39.989455 47.299259  8.371019
4574  1  3 0.0000 39.989455 47.299259 24.567419
4575  1  3 0.0000 39.989455 47.299259 40.763819
4576  1  3 0.0000  0.774255 13.337899 13.769819
4577  1  3 0.0000  0.774255 13.337899 29.966219
4578  1  3 0.0000  0.774255 13.337899 46.162619
4579  1  3 0.0000  0.774255 30.318579 13.769819
4580  1  3 0.0000  0.774255 30.318579 29.966219
4581  1  3 0.0000  0.774255 30.318579 46.162619
4582  1  3 0.0000  0.774255 47.299259 13.769819
4583  1  3 0.0000  0.774255 47.299259 29.966219
4584  1  3 0.0000  0.774255 47.299259 46.162619
4585  1  3 0.0000 20.381855 47.299259 13.769819
4586  1  3 0.0000 20.381855 47.299259 29.966219
4587  1  3 0.0000 20.381855 47.299259 46.162619
4588  1  3 0.0000 39.989455 47.299259 13.769819
4589  1  3 0.0000 39.989455 47.299259 29.966219
4590  1  3 0.0000 39.989455 47.299259 46.162619
4591  1  3 0.0000  2.767613  2.491915  4.771819
4592  1  3 0.0000  2.767613  2.491915 20.968219
4593  1  3 0.0000  2.767613  2.491915 37.164619
4594  1  3 0.0000  2.767613 19.472594  4.771819
4595  1  3 0.0000  2.767613 19.472594 20.968219
4596  1  3 0.0000  2.767613 19.472594 37.164619
4597  1  3 0.0000  2.767613 36.453274  4.771819
4598  1  3 0.0000  2.767613 36.453274 20.968219
4599  1  3 0.0000  2.767613 36.453274 37.164619
4600  1  3 0.0000 22.375213  2.491915  4.771819
4601  1  3 0.0000 22.375213  2.491915 20.968219
4602  1  3 0.0000 22.375213  2.491915 37.164619
4603  1  3 0.0000 41.982813  2.491915  4.771819
4604  1  3 0.0000 41.982813  2.491915 20.968219
4605  1  3 0.0000 41.982813  2.491915 37.164619
4606  1  3 0.0000  2.767613  2.491915 10.170619
4607  1  3 0.0000  2.767613  2.491915 26.367019
4608  1  3 0.0000  2.767613  2.491915 42.563419
4609  1  3 0.0000  2.767613 19.472594 10.170619
4610  1  3 0.0000  2.767613 19.472594 26.367019
4611  1  3 0.0000  2.767613 19.472594 42.563419
4612  1  3 0.0000  2.767613 36.453274 10.170619
4613  1  3 0.0000  2.767613 36.453274 26.367019
4614  1  3 0.0000  2.767613 36.453274 42.563419
4615  1  3 0.0000 22.375213  2.491915 10.170619
4616  1  3 0.0000 22.375213  2.491915 26.367019
4617  1  3 0.0000 22.375213  2.491915 42.563419
4618  1  3 0.0000 41.982813  2.491915 10.170619
4619  1  3 0.0000 41.982813  2.491915 26.367019
4620  1  3 0.0000 41.982813  2.491915 42.563419
4621  1  3 0.0000  2.767613  2.491915 15.569419
4622  1  3 0.0000  2.767613  2.491915 31.765819
4623  1  3 0.0000  2.767613  2.491915 47.962219
4624  1  3 0.0000  2.767613 19.472594 15.569419
4625  1  3 0.0000  2.767613 19.472594 31.765819
4626  1  3 0.0000  2.767613 19.472594 47.962219
4627  1  3 0.0000  2.767613 36.453274 15.569419
4628  1  3 0.0000  2.767613 36.453274 31.765819
4629  1  3 0.0000  2.767613 36.453274 47.962219
4630  1  3 0.0000 22.375213  2.491915 15.569419
4631  1  3 0.0000 22.375213  2.491915 31.765819
4632  1  3 0.0000 22.375213  2.491915 47.962219
4633  1  3 0.0000 41.982813  2.491915 15.569419
4634  1  3 0.0000 41.982813  2.491915 31.765819
4635  1  3 0.0000 41.982813  2.491915 47.962219
4636  1  3 0.0000  7.669513  2.491915  4.771819
4637  1  3 0.0000  7.669513  2.491915 20.968219
4638  1  3 0.0000  7.669513  2.491915 37.164619
4639  1  3 0.0000  7.669513 19.472594  4.771819
4640  1  3 0.0000  7.669513 19.472594 20.968219
4641  1  3 0.0000  7.669513 19.472594 37.164619
4642  1  3 0.0000  7.669513 36.453274  4.771819
4643  1  3 0.0000  7.669513 36.453274 20.968219
4644  1  3 0.0000  7.669513 36.453274 37.164619
4645  1  3 0.0000 27.277113  2.491915  4.771819
4646  1  3 0.0000 27.277113  2.491915 20.968219
4647  1  3 0.0000 27.277113  2.491915 37.164619
4648  1  3 0.0000 46.884713  2.491915  4.771819
4649  1  3 0.0000 46.884713  2.491915 20.968219
4650  1  3 0.0000 46.884713  2.491915 37.164619
4651  1  3 0.0000 46.884713 19.472594  4.771819
4652  1  3 0.0000 46.884713 19.472594 20.968219
4653  1  3 0.0000 46.884713 19.472594 37.164619
4654  1  3 0.0000 46.884713 36.453274  4.771819
4655  1  3 0.0000 46.884713 36.453274 20.968219
4656  1  3 0.0000 46.884713 36.453274 37.164619
4657  1  3 0.0000  7.669513  2.491915 10.170619
4658  1  3 0.0000  7.669513  2.491915 26.367019
4659  1  3 0.0000  7.669513  2.491915 42.563419
4660  1  3 0.0000  7.669513 19.472594 10.170619
4661  1  3 0.0000  7.669513 19.472594 26.367019
4662  1  3 0.0000  7.669513 19.472594 42.563419
4663  1  3 0.0000  7.669513 36.453274 10.170619
4664  1  3 0.0000  7.669513 36.453274 26.367019
4665  1  3 0.0000  7.669513 36.453274 42.563419
4666  1  3 0.0000 27.277113  2.491915 10.170619
4667  1  3 0.0000 27.277113  2.491915 26.367019
4668  1  3 0.0000 27.277113  2.491915 42.563419
4669  1  3 0.0000 46.884713  2.491915 10.170619
4670  1  3 0.0000 46.884713  2.491915 26.367019
4671  1  3 0.0000 46.884713  2.491915 42.563419
4672  1  3 0.0000 46.884713 19.472594 10.170619
4673  1  3 0.0000 46.884713 19.472594 26.367019
4674  1  3 0.0000 46.884713 19.472594 42.563419
4675  1  3 0.0000 46.884713 36.453274 10.170619
4676  1  3 0.0000 46.884713 36.453274 26.367019
4677  1  3 0.0000 46.884713 36.453274 42.563419
4678  1  3 0.0000  7.669513  2.491915 15.569419
4679  1  3 0.0000  7.669513  2.491915 31.765819
4680  1  3 0.0000  7.669513  2.491915 47.962219
4681  1  3 0.0000  7.669513 19.472594 15.569419
4682  1  3 0.0000  7.669513 19.472594 31.765819
4683  1  3 0.0000  7.669513 19.472594 47.962219
4684  1  3 0.0000  7.669513 36.453274 15.569419
4685  1  3 0.0000  7.669513 36.453274 31.765819
4686  1  3 0.0000  7.669513 36.453274 47.962219
4687  1  3 0.0000 27.277113  2.491915 15.569419
4688  1  3 0.0000 27.277113  2.491915 31.765819
4689  1  3 0.0000 27.277113  2.491915 47.962219
4690  1  3 0.0000 46.884713  2.491915 15.569419
4691  1  3 0.0000 46.884713  2.491915 31.765819
4692  1  3 0.0000 46.884713  2.491915 47.962219
4693  1  3 0.0000 46.884713 19.472594 15.569419
4694  1  3 0.0000 46.884713 19.472594 31.765819
4695  1  3 0.0000 46.884713 19.472594 47.962219
4696  1  3 0.0000 46.884713 36.453274 15.569419
4697  1  3 0.0000 46.884713 36.453274 31.765819
4698  1  3 0.0000 46.884713 36.453274 47.962219
4699  1  3 0.0000  5.218563  6.737085  4.771819
4700  1  3 0.0000  5.218563  6.737085 20.968219
4701  1  3 0.0000  5.218563  6.737085 37.164619
4702  1  3 0.0000  5.218563 23.717764  4.771819
4703  1  3 0.0000  5.218563 23.717764 20.968219
4704  1  3 0.0000  5.218563 23.717764 37.164619
4705  1  3 0.0000  5.218563 40.698444  4.771819
4706  1  3 0.0000  5.218563 40.698444 20.968219
4707  1  3 0.0000  5.218563 40.698444 37.164619
4708  1  3 0.0000 24.826163  6.737085  4.771819
4709  1  3 0.0000 24.826163  6.737085 20.968219
4710  1  3 0.0000 24.826163  6.737085 37.164619
4711  1  3 0.0000 44.433763  6.737085  4.771819
4712  1  3 0.0000 44.433763  6.737085 20.968219
4713  1  3 0.0000 44.433763  6.737085 37.164619
4714  1  3 0.0000 44.433763 40.698444  4.771819
4715  1  3 0.0000 44.433763 40.698444 20.968219
4716  1  3 0.0000 44.433763 40.698444 37.164619
4717  1  3 0.0000  5.218563  6.737085 10.170619
4718  1  3 0.0000  5.218563  6.737085 26.367019
4719  1  3 0.0000  5.218563  6.737085 42.563419
4720  1  3 0.0000  5.218563 23.717764 10.170619
4721  1  3 0.0000  5.218563 23.717764 26.367019
4722  1  3 0.0000  5.218563 23.717764 42.563419
4723  1  3 0.0000  5.218563 40.698444 10.170619
4724  1  3 0.0000  5.218563 40.698444 26.367019
4725  1  3 0.0000  5.218563 40.698444 42.563419
4726  1  3 0.0000 24.826163  6.737085 10.170619
4727  1  3 0.0000 24.826163  6.737085 26.367019
4728  1  3 0.0000 24.826163  6.737085 42.563419
4729  1  3 0.0000 44.433763  6.737085 10.170619
4730  1  3 0.0000 44.433763  6.737085 26.367019
4731  1  3 0.0000 44.433763  6.737085 42.563419
4732  1  3 0.0000 44.433763 40.698444 10.170619
4733  1  3 0.0000 44.433763 40.698444 26.367019
4734  1  3 0.0000 44.433763 40.698444 42.563419
4735  1  3 0.0000  5.218563  6.737085 15.569419
4736  1  3 0.0000  5.218563  6.737085 31.765819
4737  1  3 0.0000  5.218563  6.737085 47.962219
4738  1  3 0.0000  5.218563 23.717764 15.569419
4739  1  3 0.0000  5.218563 23.717764 31.765819
4740  1  3 0.0000  5.218563 23.717764 47.962219
4741  1  3 0.0000  5.218563 40.698444 15.569419
4742  1  3 0.0000  5.218563 40.698444 31.765819
4743  1  3 0.0000  5.218563 40.698444 47.962219
4744  1  3 0.0000 24.826163  6.737085 15.569419
4745  1  3 0.0000 24.826163  6.737085 31.765819
4746  1  3 0.0000 24.826163  6.737085 47.962219
4747  1  3 0.0000 44.433763  6.737085 15.569419
4748  1  3 0.0000 44.433763  6.737085 31.765819
4749  1  3 0.0000 44.433763  6.737085 47.962219
4750  1  3 0.0000 44.433763 40.698444 15.569419
4751  1  3 0.0000 44.433763 40.698444 31.765819
4752  1  3 0.0000 44.433763 40.698444 47.962219
4753  1  3 0.0000  2.767613 10.982255  4.771819
4754  1  3 0.0000  2.767613 10.982255 20.968219
4755  1  3 0.0000  2.767613 10.982255 37.164619
4756  1  3 0.0000  2.767613 27.962934  4.771819
4757  1  3 0.0000  2.767613 27.962934 20.968219
4758  1  3 0.0000  2.767613 27.962934 37.164619
4759  1  3 0.0000  2.767613 44.943614  4.771819
4760  1  3 0.0000  2.767613 44.943614 20.968219
4761  1  3 0.0000  2.767613 44.943614 37.164619
4762  1  3 0.0000 22.375213 44.943614  4.771819
4763  1  3 0.0000 22.375213 44.943614 20.968219
4764  1  3 0.0000 22.375213 44.943614 37.164619
4765  1  3 0.0000 41.982813 10.982255  4.771819
4766  1  3 0.0000 41.982813 10.982255 20.968219
4767  1  3 0.0000 41.982813 10.982255 37.164619
4768  1  3 0.0000 41.982813 44.943614  4.771819
4769  1  3 0.0000 41.982813 44.943614 20.968219
4770  1  3 0.0000 41.982813 44.943614 37.164619
4771  1  3 0.0000  2.767613 10.982255 10.170619
4772  1  3 0.0000  2.767613 10.982255 26.367019
4773  1  3 0.0000  2.767613 10.982255 42.563419
4774  1  3 0.0000  2.767613 27.962934 10.170619
4775  1  3 0.0000  2.767613 27.962934 26.367019
4776  1  3 0.0000  2.767613 27.962934 42.563419
4777  1  3 0.0000  2.767613 44.943614 10.170619
4778  1  3 0.0000  2.767613 44.943614 26.367019
4779  1  3 0.0000  2.767613 44.943614 42.563419
4780  1  3 0.0000 22.375213 44.943614 10.170619
4781  1  3 0.0000 22.375213 44.943614 26.367019
4782  1  3 0.0000 22.375213 44.943614 42.563419
4783  1  3 0.0000 41.982813 10.982255 10.170619
4784  1  3 0.0000 41.982813 10.982255 26.367019
4785  1  3 0.0000 41.982813 10.982255 42.563419
4786  1  3 0.0000 41.982813 44.943614 10.170619
4787  1  3 0.0000 41.982813 44.943614 26.367019
4788  1  3 0.0000 41.982813 44.943614 42.563419
4789  1  3 0.0000  2.767613 10.982255 15.569419
4790  1  3 0.0000  2.767613 10.982255 31.765819
4791  1  3 0.0000  2.767613 10.982255 47.962219
4792  1  3 0.0000  2.767613 27.962934 15.569419
4793  1  3 0.0000  2.767613 27.962934 31.765819
4794  1  3 0.0000  2.767613 27.962934 47.962219
4795  1  3 0.0000  2.767613 44.943614 15.569419
4796  1  3 0.0000  2.767613 44.943614 31.765819
4797  1  3 0.0000  2.767613 44.943614 47.962219
4798  1  3 0.0000 22.375213 44.943614 15.569419
4799  1  3 0.0000 22.375213 44.943614 31.765819
4800  1  3 0.0000 22.375213 44.943614 47.962219
4801  1  3 0.0000 41.982813 10.982255 15.569419
4802  1  3 0.0000 41.982813 10.982255 31.765819
4803  1  3 0.0000 41.982813 10.982255 47.962219
4804  1  3 0.0000 41.982813 44.943614 15.569419
4805  1  3 0.0000 41.982813 44.943614 31.765819
4806  1  3 0.0000 41.982813 44.943614 47.962219
4807  1  3 0.0000 12.571413  2.491915  4.771819
4808  1  3 0.0000 12.571413  2.491915 20.968219
4809  1  3 0.0000 12.571413  2.491915 37.164619
4810  1  3 0.0000 12.571413 36.453274  4.771819
4811  1  3 0.0000 12.571413 36.453274 20.968219
4812  1  3 0.0000 12.571413 36.453274 37.164619
4813  1  3 0.0000 32.179013  2.491915  4.771819
4814  1  3 0.0000 32.179013  2.491915 20.968219
4815  1  3 0.0000 32.179013  2.491915 37.164619
4816  1  3 0.0000 51.786613  2.491915  4.771819
4817  1  3 0.0000 51.786613  2.491915 20.968219
4818  1  3 0.0000 51.786613  2.491915 37.164619
4819  1  3 0.0000 51.786613 19.472594  4.771819
4820  1  3 0.0000 51.786613 19.472594 20.968219
4821  1  3 0.0000 51.786613 19.472594 37.164619
4822  1  3 0.0000 51.786613 36.453274  4.771819
4823  1  3 0.0000 51.786613 36.453274 20.968219
4824  1  3 0.0000 51.786613 36.453274 37.164619
4825  1  3 0.0000 12.571413  2.491915 10.170619
4826  1  3 0.0000 12.571413  2.491915 26.367019
4827  1  3 0.0000 12.571413  2.491915 42.563419
4828  1  3 0.0000 12.571413 36.453274 10.170619
4829  1  3 0.0000 12.571413 36.453274 26.367019
4830  1  3 0.0000 12.571413 36.453274 42.563419
4831  1  3 0.0000 32.179013  2.491915 10.170619
4832  1  3 0.0000 32.179013  2.491915 26.367019
4833  1  3 0.0000 32.179013  2.491915 42.563419
4834  1  3 0.0000 51.786613  2.491915 10.170619
4835  1  3 0.0000 51.786613  2.491915 26.367019
4836  1  3 0.0000 51.786613  2.491915 42.563419
4837  1  3 0.0000 51.786613 19.472594 10.170619
4838  1  3 0.0000 51.786613 19.472594 26.367019
4839  1  3 0.0000 51.786613 19.472594 42.563419
4840  1  3 0.0000 51.786613 36.453274 10.170619
4841  1  3 0.0000 51.786613 36.453274 26.367019
4842  1  3 0.0000 51.786613 36.453274 42.563419
4843  1  3 0.0000 12.571413  2.491915 15.569419
4844  1  3 0.0000 12.571413  2.491915 31.765819
4845  1  3 0.0000 12.571413  2.491915 47.962219
4846  1  3 0.0000 12.571413 36.453274 15.569419
4847  1  3 0.0000 12.571413 36.453274 31.765819
4848  1  3 0.0000 12.571413 36.453274 47.962219
4849  1  3 0.0000 32.179013  2.491915 15.569419
4850  1  3 0.0000 32.179013  2.491915 31.765819
4851  1  3 0.0000 32.179013  2.491915 47.962219
4852  1  3 0.0000 51.786613  2.491915 15.569419
4853  1  3 0.0000 51.786613  2.491915 31.765819
4854  1  3 0.0000 51.786613  2.491915 47.962219
4855  1  3 0.0000 51.786613 19.472594 15.569419
4856  1  3 0.0000 51.786613 19.472594 31.765819
4857  1  3 0.0000 51.786613 19.472594 47.962219
4858  1  3 0.0000 51.786613 36.453274 15.569419
4859  1  3 0.0000 51.786613 36.453274 31.765819
4860  1  3 0.0000 51.786613 36.453274 47.962219
4861  1  3 0.0000 10.120463  6.737085  4.771819
4862  1  3 0.0000 10.120463  6.737085 20.968219
4863  1  3 0.0000 10.120463  6.737085 37.164619
4864  1  3 0.0000 10.120463 23.717764  4.771819
4865  1  3 0.0000 10.120463 23.717764 20.968219
4866  1  3 0.0000 10.120463 23.717764 37.164619
4867  1  3 0.0000 10.120463 40.698444  4.771819
4868  1  3 0.0000 10.120463 40.698444 20.968219
4869  1  3 0.0000 10.120463 40.698444 37.164619
4870  1  3 0.0000 29.728063  6.737085  4.771819
4871  1  3 0.0000 29.728063  6.737085 20.968219
4872  1  3 0.0000 29.728063  6.737085 37.164619
4873  1  3 0.0000 49.335663  6.737085  4.771819
4874  1  3 0.0000 49.335663  6.737085 20.968219
4875  1  3 0.0000 49.335663  6.737085 37.164619
4876  1  3 0.0000 49.335663 23.717764  4.771819
4877  1  3 0.0000 49.335663 23.717764 20.968219
4878  1  3 0.0000 49.335663 23.717764 37.164619
4879  1  3 0.0000 49.335663 40.698444  4.771819
4880  1  3 0.0000 49.335663 40.698444 20.968219
4881  1  3 0.0000 49.335663 40.698444 37.164619
4882  1  3 0.0000 10.120463  6.737085 10.170619
4883  1  3 0.0000 10.120463  6.737085 26.367019
4884  1  3 0.0000 10.120463  6.737085 42.563419
4885  1  3 0.0000 10.120463 23.717764 10.170619
4886  1  3 0.0000 10.120463 23.717764 26.367019
4887  1  3 0.0000 10.120463 23.717764 42.563419
4888  1  3 0.0000 10.120463 40.698444 10.170619
4889  1  3 0.0000 10.120463 40.698444 26.367019
4890  1  3 0.0000 10.120463 40.698444 42.563419
4891  1  3 0.0000 29.728063  6.737085 10.170619
4892  1  3 0.0000 29.728063  6.737085 26.367019
4893  1  3 0.0000 29.728063  6.737085 42.563419
4894  1  3 0.0000 49.335663  6.737085 10.170619
4895  1  3 0.0000 49.335663  6.737085 26.367019
4896  1  3 0.0000 49.335663  6.737085 42.563419
4897  1  3 0.0000 49.335663 23.717764 10.170619
4898  1  3 0.0000 49.335663 23.717764 26.367019
4899  1  3 0.0000 49.335663 23.717764 42.563419
4900  1  3 0.0000 49.335663 40.698444 10.170619
4901  1  3 0.0000 49.335663 40.698444 26.367019
4902  1  3 0.0000 49.335663 40.698444 42.563419
4903  1  3 0.0000 10.120463  6.737085 15.569419
4904  1  3 0.0000 10.120463  6.737085 31.765819
4905  1  3 0.0000 10.120463  6.737085 47.962219
4906  1  3 0.0000 10.120463 23.717764 15.569419
4907  1  3 0.0000 10.120463 23.717764 31.765819
4908  1  3 0.0000 10.120463 23.717764 47.962219
4909  1  3 0.0000 10.120463 40.698444 15.569419
4910  1  3 0.0000 10.120463 40.698444 31.765819
4911  1  3 0.0000 10.120463 40.698444 47.962219
4912  1  3 0.0000 29.728063  6.737085 15.569419
4913  1  3 0.0000 29.728063  6.737085 31.765819
4914  1  3 0.0000 29.728063  6.737085 47.962219
4915  1  3 0.0000 49.335663  6.737085 15.569419
4916  1  3 0.0000 49.335663  6.737085 31.765819
4917  1  3 0.0000 49.335663  6.737085 47.962219
4918  1  3 0.0000 49.335663 23.717764 15.569419
4919  1  3 0.0000 49.335663 23.717764 31.765819
4920  1  3 0.0000 49.335663 23.717764 47.962219
4921  1  3 0.0000 49.335663 40.698444 15.569419
4922  1  3 0.0000 49.335663 40.698444 31.765819
4923  1  3 0.0000 49.335663 40.698444 47.962219
4924  1  3 0.0000  7.669513 10.982255  4.771819
4925  1  3 0.0000  7.669513 10.982255 20.968219
4926  1  3 0.0000  7.669513 10.982255 37.164619
4927  1  3 0.0000  7.669513 27.962934  4.771819
4928  1  3 0.0000  7.669513 27.962934 20.968219
4929  1  3 0.0000  7.669513 27.962934 37.164619
4930  1  3 0.0000  7.669513 44.943614  4.771819
4931  1  3 0.0000  7.669513 44.943614 20.968219
4932  1  3 0.0000  7.669513 44.943614 37.164619
4933  1  3 0.0000 27.277113 44.943614  4.771819
4934  1  3 0.0000 27.277113 44.943614 20.968219
4935  1  3 0.0000 27.277113 44.943614 37.164619
4936  1  3 0.0000 46.884713 10.982255  4.771819
4937  1  3 0.0000 46.884713 10.982255 20.968219
4938  1  3 0.0000 46.884713 10.982255 37.164619
4939  1  3 0.0000 46.884713 27.962934  4.771819
4940  1  3 0.0000 46.884713 27.962934 20.968219
4941  1  3 0.0000 46.884713 27.962934 37.164619
4942  1  3 0.0000 46.884713 44.943614  4.771819
4943  1  3 0.0000 46.884713 44.943614 20.968219
4944  1  3 0.0000 46.884713 44.943614 37.164619
4945  1  3 0.0000  7.669513 10.982255 10.170619
4946  1  3 0.0000  7.669513 10.982255 26.367019
4947  1  3 0.0000  7.669513 10.982255 42.563419
4948  1  3 0.0000  7.669513 27.962934 10.170619
4949  1  3 0.0000  7.669513 27.962934 26.367019
4950  1  3 0.0000  7.669513 27.962934 42.563419
4951  1  3 0.0000  7.669513 44.943614 10.170619
4952  1  3 0.0000  7.669513 44.943614 26.367019
4953  1  3 0.0000  7.669513 44.943614 42.563419
4954  1  3 0.0000 27.277113 44.943614 10.170619
4955  1  3 0.0000 27.277113 44.943614 26.367019
4956  1  3 0.0000 27.277113 44.943614 42.563419
4957  1  3 0.0000 46.884713 10.982255 10.170619
4958  1  3 0.0000 46.884713 10.982255 26.367019
4959  1  3 0.0000 46.884713 10.982255 42.563419
4960  1  3 0.0000 46.884713 27.962934 10.170619
4961  1  3 0.0000 46.884713 27.962934 26.367019
4962  1  3 0.0000 46.884713 27.962934 42.563419
4963  1  3 0.0000 46.884713 44.943614 10.170619
4964  1  3 0.0000 46.884713 44.943614 26.367019
4965  1  3 0.0000 46.884713 44.943614 42.563419
4966  1  3 0.0000  7.669513 10.982255 15.569419
4967  1  3 0.0000  7.669513 10.982255 31.765819
4968  1  3 0.0000  7.669513 10.982255 47.962219
4969  1  3 0.0000  7.669513 27.962934 15.569419
4970  1  3 0.0000  7.669513 27.962934 31.765819
4971  1  3 0.0000  7.669513 27.962934 47.962219
4972  1  3 0.0000  7.669513 44.943614 15.569419
4973  1  3 0.0000  7.669513 44.943614 31.765819
4974  1  3 0.0000  7.669513 44.943614 47.962219
4975  1  3 0.0000 27.277113 44.943614 15.569419
4976  1  3 0.0000 27.277113 44.943614 31.765819
4977  1  3 0.0000 27.277113 44.943614 47.962219
4978  1  3 0.0000 46.884713 10.982255 15.569419
4979  1  3 0.0000 46.884713 10.982255 31.765819
4980  1  3 0.0000 46.884713 10.982255 47.962219
4981  1  3 0.0000 46.884713 27.962934 15.569419
4982  1  3 0.0000 46.884713 27.962934 31.765819
4983  1  3 0.0000 46.884713 27.962934 47.962219
4984  1  3 0.0000 46.884713 44.943614 15.569419
4985  1  3 0.0000 46.884713 44.943614 31.765819
4986  1  3 0.0000 46.884713 44.943614 47.962219
4987  1  3 0.0000  5.218563 15.227425  4.771819
4988  1  3 0.0000  5.218563 15.227425 20.968219
4989  1  3 0.0000  5.218563 15.227425 37.164619
4990  1  3 0.0000  5.218563 32.208104  4.771819
4991  1  3 0.0000  5.218563 32.208104 20.968219
4992  1  3 0.0000  5.218563 32.208104 37.164619
4993  1  3 0.0000  5.218563 49.188784  4.771819
4994  1  3 0.0000  5.218563 49.188784 20.968219
4995  1  3 0.0000  5.218563 49.188784 37.164619
4996  1  3 0.0000 24.826163 49.188784  4.771819
4997  1  3 0.0000 24.826163 49.188784 20.968219
4998  1  3 0.0000 24.826163 49.188784 37.164619
4999  1  3 0.0000 44.433763 15.227425  4.771819
5000  1  3 0.0000 44.433763 15.227425 20.968219
5001  1  3 0.0000 44.433763 15.227425 37.164619
5002  1  3 0.0000 44.433763 49.188784  4.771819
5003  1  3 0.0000 44.433763 49.188784 20.968219
5004  1  3 0.0000 44.433763 49.188784 37.164619
5005  1  3 0.0000  5.218563 15.227425 10.170619
5006  1  3 0.0000  5.218563 15.227425 26.367019
5007  1  3 0.0000  5.218563 15.227425 42.563419
5008  1  3 0.0000  5.218563 32.208104 10.170619
5009  1  3 0.0000  5.218563 32.208104 26.367019
5010  1  3 0.0000  5.218563 32.208104 42.563419
5011  1  3 0.0000  5.218563 49.188784 10.170619
5012  1  3 0.0000  5.218563 49.188784 26.367019
5013  1  3 0.0000  5.218563 49.188784 42.563419
5014  1  3 0.0000 24.826163 49.188784 10.170619
5015  1  3 0.0000 24.826163 49.188784 26.367019
5016  1  3 0.0000 24.826163 49.188784 42.563419
5017  1  3 0.0000 44.433763 15.227425 10.170619
5018  1  3 0.0000 44.433763 15.227425 26.367019
5019  1  3 0.0000 44.433763 15.227425 42.563419
5020  1  3 0.0000 44.433763 49.188784 10.170619
5021  1  3 0.0000 44.433763 49.188784 26.367019
5022  1  3 0.0000 44.433763 49.188784 42.563419
5023  1  3 0.0000  5.218563 15.227425 15.569419
5024  1  3 0.0000  5.218563 15.227425 31.765819
5025  1  3 0.0000  5.218563 15.227425 47.962219
5026  1  3 0.0000  5.218563 32.208104 15.569419
5027  1  3 0.0000  5.218563 32.208104 31.765819
5028  1  3 0.0000  5.218563 32.208104 47.962219
5029  1  3 0.0000  5.218563 49.188784 15.569419
5030  1  3 0.0000  5.218563 49.188784 31.765819
5031  1  3 0.0000  5.218563 49.188784 47.962219
5032  1  3 0.0000 24.826163 49.188784 15.569419
5033  1  3 0.0000 24.826163 49.188784 31.765819
5034  1  3 0.0000 24.826163 49.188784 47.962219
5035  1  3 0.0000 44.433763 15.227425 15.569419
5036  1  3 0.0000 44.433763 15.227425 31.765819
5037  1  3 0.0000 44.433763 15.227425 47.962219
5038  1  3 0.0000 44.433763 49.188784 15.569419
5039  1  3 0.0000 44.433763 49.188784 31.765819
5040  1  3 0.0000 44.433763 49.188784 47.962219
5041  1  3 0.0000 17.473313  2.491915  4.771819
5042  1  3 0.0000 17.473313  2.491915 20.968219
5043  1  3 0.0000 17.473313  2.491915 37.164619
5044  1  3 0.0000 37.080913  2.491915  4.771819
5045  1  3 0.0000 37.080913  2.491915 20.968219
5046  1  3 0.0000 37.080913  2.491915 37.164619
5047  1  3 0.0000 56.688513  2.491915  4.771819
5048  1  3 0.0000 56.688513  2.491915 20.968219
5049  1  3 0.0000 56.688513  2.491915 37.164619
5050  1  3 0.0000 56.688513 19.472594  4.771819
5051  1  3 0.0000 56.688513 19.472594 20.968219
5052  1  3 0.0000 56.688513 19.472594 37.164619
5053  1  3 0.0000 56.688513 36.453274  4.771819
5054  1  3 0.0000 56.688513 36.453274 20.968219
5055  1  3 0.0000 56.688513 36.453274 37.164619
5056  1  3 0.0000 17.473313  2.491915 10.170619
5057  1  3 0.0000 17.473313  2.491915 26.367019
5058  1  3 0.0000 17.473313  2.491915 42.563419
5059  1  3 0.0000 37.080913  2.491915 10.170619
5060  1  3 0.0000 37.080913  2.491915 26.367019
5061  1  3 0.0000 37.080913  2.491915 42.563419
5062  1  3 0.0000 56.688513  2.491915 10.170619
5063  1  3 0.0000 56.688513  2.491915 26.367019
5064  1  3 0.0000 56.688513  2.491915 42.563419
5065  1  3 0.0000 56.688513 19.472594 10.170619
5066  1  3 0.0000 56.688513 19.472594 26.367019
5067  1  3 0.0000 56.688513 19.472594 42.563419
5068  1  3 0.0000 56.688513 36.453274 10.170619
5069  1  3 0.0000 56.688513 36.453274 26.367019
5070  1  3 0.0000 56.688513 36.453274 42.563419
5071  1  3 0.0000 17.473313  2.491915 15.569419
5072  1  3 0.0000 17.473313  2.491915 31.765819
5073  1  3 0.0000 17.473313  2.491915 47.962219
5074  1  3 0.0000 37.080913  2.491915 15.569419
5075  1  3 0.0000 37.080913  2.491915 31.765819
5076  1  3 0.0000 37.080913  2.491915 47.962219
5077  1  3 0.0000 56.688513  2.491915 15.569419
5078  1  3 0.0000 56.688513  2.491915 31.765819
5079  1  3 0.0000 56.688513  2.491915 47.962219
5080  1  3 0.0000 56.688513 19.472594 15.569419
5081  1  3 0.0000 56.688513 19.472594 31.765819
5082  1  3 0.0000 56.688513 19.472594 47.962219
5083  1  3 0.0000 56.688513 36.453274 15.569419
5084  1  3 0.0000 56.688513 36.453274 31.765819
5085  1  3 0.0000 56.688513 36.453274 47.962219
5086  1  3 0.0000 15.022363  6.737085  4.771819
5087  1  3 0.0000 15.022363  6.737085 20.968219
5088  1  3 0.0000 15.022363  6.737085 37.164619
5089  1  3 0.0000 15.022363 40.698444  4.771819
5090  1  3 0.0000 15.022363 40.698444 20.968219
5091  1  3 0.0000 15.022363 40.698444 37.164619
5092  1  3 0.0000 34.629963  6.737085  4.771819
5093  1  3 0.0000 34.629963  6.737085 20.968219
5094  1  3 0.0000 34.629963  6.737085 37.164619
5095  1  3 0.0000 54.237563  6.737085  4.771819
5096  1  3 0.0000 54.237563  6.737085 20.968219
5097  1  3 0.0000 54.237563  6.737085 37.164619
5098  1  3 0.0000 54.237563 23.717764  4.771819
5099  1  3 0.0000 54.237563 23.717764 20.968219
5100  1  3 0.0000 54.237563 23.717764 37.164619
5101  1  3 0.0000 54.237563 40.698444  4.771819
5102  1  3 0.0000 54.237563 40.698444 20.968219
5103  1  3 0.0000 54.237563 40.698444 37.164619
5104  1  3 0.0000 15.022363  6.737085 10.170619
5105  1  3 0.0000 15.022363  6.737085 26.367019
5106  1  3 0.0000 15.022363  6.737085 42.563419
5107  1  3 0.0000 15.022363 40.698444 10.170619
5108  1  3 0.0000 15.022363 40.698444 26.367019
5109  1  3 0.0000 15.022363 40.698444 42.563419
5110  1  3 0.0000 34.629963  6.737085 10.170619
5111  1  3 0.0000 34.629963  6.737085 26.367019
5112  1  3 0.0000 34.629963  6.737085 42.563419
5113  1  3 0.0000 54.237563  6.737085 10.170619
5114  1  3 0.0000 54.237563  6.737085 26.367019
5115  1  3 0.0000 54.237563  6.737085 42.563419
5116  1  3 0.0000 54.237563 23.717764 10.170619
5117  1  3 0.0000 54.237563 23.717764 26.367019
5118  1  3 0.0000 54.237563 23.717764 42.563419
5119  1  3 0.0000 54.237563 40.698444 10.170619
5120  1  3 0.0000 54.237563 40.698444 26.367019
5121  1  3 0.0000 54.237563 40.698444 42.563419
5122  1  3 0.0000 15.022363  6.737085 15.569419
5123  1  3 0.0000 15.022363  6.737085 31.765819
5124  1  3 0.0000 15.022363  6.737085 47.962219
5125  1  3 0.0000 15.022363 40.698444 15.569419
5126  1  3 0.0000 15.022363 40.698444 31.765819
5127  1  3 0.0000 15.022363 40.698444 47.962219
5128  1  3 0.0000 34.629963  6.737085 15.569419
5129  1  3 0.0000 34.629963  6.737085 31.765819
5130  1  3 0.0000 34.629963  6.737085 47.962219
5131  1  3 0.0000 54.237563  6.737085 15.569419
5132  1  3 0.0000 54.237563  6.737085 31.765819
5133  1  3 0.0000 54.237563  6.737085 47.962219
5134  1  3 0.0000 54.237563 23.717764 15.569419
5135  1  3 0.0000 54.237563 23.717764 31.765819
5136  1  3 0.0000 54.237563 23.717764 47.962219
5137  1  3 0.0000 54.237563 40.698444 15.569419
5138  1  3 0.0000 54.237563 40.698444 31.765819
5139  1  3 0.0000 54.237563 40.698444 47.962219
5140  1  3 0.0000 12.571413 10.982255  4.771819
5141  1  3 0.0000 12.571413 10.982255 20.968219
5142  1  3 0.0000 12.571413 10.982255 37.164619
5143  1  3 0.0000 12.571413 44.943614  4.771819
5144  1  3 0.0000 12.571413 44.943614 20.968219
5145  1  3 0.0000 12.571413 44.943614 37.164619
5146  1  3 0.0000 32.179013 44.943614  4.771819
5147  1  3 0.0000 32.179013 44.943614 20.968219
5148  1  3 0.0000 32.179013 44.943614 37.164619
5149  1  3 0.0000 51.786613 10.982255  4.771819
5150  1  3 0.0000 51.786613 10.982255 20.968219
5151  1  3 0.0000 51.786613 10.982255 37.164619
5152  1  3 0.0000 51.786613 27.962934  4.771819
5153  1  3 0.0000 51.786613 27.962934 20.968219
5154  1  3 0.0000 51.786613 27.962934 37.164619
5155  1  3 0.0000 51.786613 44.943614  4.771819
5156  1  3 0.0000 51.786613 44.943614 20.968219
5157  1  3 0.0000 51.786613 44.943614 37.164619
5158  1  3 0.0000 12.571413 10.982255 10.170619
5159  1  3 0.0000 12.571413 10.982255 26.367019
5160  1  3 0.0000 12.571413 10.982255 42.563419
5161  1  3 0.0000 12.571413 44.943614 10.170619
5162  1  3 0.0000 12.571413 44.943614 26.367019
5163  1  3 0.0000 12.571413 44.943614 42.563419
5164  1  3 0.0000 32.179013 44.943614 10.170619
5165  1  3 0.0000 32.179013 44.943614 26.367019
5166  1  3 0.0000 32.179013 44.943614 42.563419
5167  1  3 0.0000 51.786613 10.982255 10.170619
5168  1  3 0.0000 51.786613 10.982255 26.367019
5169  1  3 0.0000 51.786613 10.982255 42.563419
5170  1  3 0.0000 51.786613 27.962934 10.170619
5171  1  3 0.0000 51.786613 27.962934 26.367019
5172  1  3 0.0000 51.786613 27.962934 42.563419
5173  1  3 0.0000 51.786613 44.943614 10.170619
5174  1  3 0.0000 51.786613 44.943614 26.367019
5175  1  3 0.0000 51.786613 44.943614 42.563419
5176  1  3 0.0000 12.571413 10.982255 15.569419
5177  1  3 0.0000 12.571413 10.982255 31.765819
5178  1  3 0.0000 12.571413 10.982255 47.962219
5179  1  3 0.0000 12.571413 44.943614 15.569419
5180  1  3 0.0000 12.571413 44.943614 31.765819
5181  1  3 0.0000 12.571413 44.943614 47.962219
5182  1  3 0.0000 32.179013 44.943614 15.569419
5183  1  3 0.0000 32.179013 44.943614 31.765819
5184  1  3 0.0000 32.179013 44.943614 47.962219
5185  1  3 0.0000 51.786613 10.982255 15.569419
5186  1  3 0.0000 51.786613 10.982255 31.765819
5187  1  3 0.0000 51.786613 10.982255 47.962219
5188  1  3 0.0000 51.786613 27.962934 15.569419
5189  1  3 0.0000 51.786613 27.962934 31.765819
5190  1  3 0.0000 51.786613 27.962934 47.962219
5191  1  3 0.0000 51.786613 44.943614 15.569419
5192  1  3 0.0000 51.786613 44.943614 31.765819
5193  1  3 0.0000 51.786613 44.943614 47.962219
5194  1  3 0.0000 10.120463 15.227425  4.771819
5195  1  3 0.0000 10.120463 15.227425 20.968219
5196  1  3 0.0000 10.120463 15.227425 37.164619
5197  1  3 0.0000 10.120463 32.208104  4.771819
5198  1  3 0.0000 10.120463 32.208104 20.968219
5199  1  3 0.0000 10.120463 32.208104 37.164619
5200  1  3 0.0000 10.120463 49.188784  4.771819
5201  1  3 0.0000 10.120463 49.188784 20.968219
5202  1  3 0.0000 10.120463 49.188784 37.164619
5203  1  3 0.0000 29.728063 49.188784  4.771819
5204  1  3 0.0000 29.728063 49.188784 20.968219
5205  1  3 0.0000 29.728063 49.188784 37.164619
5206  1  3 0.0000 49.335663 15.227425  4.771819
5207  1  3 0.0000 49.335663 15.227425 20.968219
5208  1  3 0.0000 49.335663 15.227425 37.164619
5209  1  3 0.0000 49.335663 32.208104  4.771819
5210  1  3 0.0000 49.335663 32.208104 20.968219
5211  1  3 0.0000 49.335663 32.208104 37.164619
5212  1  3 0.0000 49.335663 49.188784  4.771819
5213  1  3 0.0000 49.335663 49.188784 20.968219
5214  1  3 0.0000 49.335663 49.188784 37.164619
5215  1  3 0.0000 10.120463 15.227425 10.170619
5216  1  3 0.0000 10.120463 15.227425 26.367019
5217  1  3 0.0000 10.120463 15.227425 42.563419
5218  1  3 0.0000 10.120463 32.208104 10.170619
5219  1  3 0.0000 10.120463 32.208104 26.367019
5220  1  3 0.0000 10.120463 32.208104 42.563419
5221  1  3 0.0000 10.120463 49.188784 10.170619
5222  1  3 0.0000 10.120463 49.188784 26.367019
5223  1  3 0.0000 10.120463 49.188784 42.563419
5224  1  3 0.0000 29.728063 49.188784 10.170619
5225  1  3 0.0000 29.728063 49.188784 26.367019
5226  1  3 0.0000 29.728063 49.188784 42.563419
5227  1  3 0.0000 49.335663 15.227425 10.170619
5228  1  3 0.0000 49.335663 15.227425 26.367019
5229  1  3 0.0000 49.335663 15.227425 42.563419
5230  1  3 0.0000 49.335663 32.208104 10.170619
5231  1  3 0.0000 49.335663 32.208104 26.367019
5232  1  3 0.0000 49.335663 32.208104 42.563419
5233  1  3 0.0000 49.335663 49.188784 10.170619
5234  1  3 0.0000 49.335663 49.188784 26.367019
5235  1  3 0.0000 49.335663 49.188784 42.563419
5236  1  3 0.0000 10.120463 15.227425 15.569419
5237  1  3 0.0000 10.120463 15.227425 31.765819
5238  1  3 0.0000 10.120463 15.227425 47.962219
5239  1  3 0.0000 10.120463 32.208104 15.569419
5240  1  3 0.0000 10.120463 32.208104 31.765819
5241  1  3 0.0000 10.120463 32.208104 47.962219
5242  1  3 0.0000 10.120463 49.188784 15.569419
5243  1  3 0.0000 10.120463 49.188784 31.765819
5244  1  3 0.0000 10.120463 49.188784 47.962219
5245  1  3 0.0000 29.728063 49.188784 15.569419
5246  1  3 0.0000 29.728063 49.188784 31.765819
5247  1  3 0.0000 29.728063 49.188784 47.962219
5248  1  3 0.0000 49.335663 15.227425 15.569419
5249  1  3 0.0000 49.335663 15.227425 31.765819
5250  1  3 0.0000 49.335663 15.227425 47.962219
5251  1  3 0.0000 49.335663 32.208104 15.569419
5252  1  3 0.0000 49.335663 32.208104 31.765819
5253  1  3 0.0000 49.335663 32.208104 47.962219
5254  1  3 0.0000 49.335663 49.188784 15.569419
5255  1  3 0.0000 49.335663 49.188784 31.765819
5256  1  3 0.0000 49.335663 49.188784 47.962219
5257  1  3 0.0000  0.316663  6.737085  4.771819
5258  1  3 0.0000  0.316663  6.737085 20.968219
5259  1  3 0.0000  0.316663  6.737085 37.164619
5260  1  3 0.0000  0.316663 23.717764  4.771819
5261  1  3 0.0000  0.316663 23.717764 20.968219
5262  1  3 0.0000  0.316663 23.717764 37.164619
5263  1  3 0.0000  0.316663 40.698444  4.771819
5264  1  3 0.0000  0.316663 40.698444 20.968219
5265  1  3 0.0000  0.316663 40.698444 37.164619
5266  1  3 0.0000 19.924263  6.737085  4.771819
5267  1  3 0.0000 19.924263  6.737085 20.968219
5268  1  3 0.0000 19.924263  6.737085 37.164619
5269  1  3 0.0000 39.531863  6.737085  4.771819
5270  1  3 0.0000 39.531863  6.737085 20.968219
5271  1  3 0.0000 39.531863  6.737085 37.164619
5272  1  3 0.0000 39.531863 40.698444  4.771819
5273  1  3 0.0000 39.531863 40.698444 20.968219
5274  1  3 0.0000 39.531863 40.698444 37.164619
5275  1  3 0.0000  0.316663  6.737085 10.170619
5276  1  3 0.0000  0.316663  6.737085 26.367019
5277  1  3 0.0000  0.316663  6.737085 42.563419
5278  1  3 0.0000  0.316663 23.717764 10.170619
5279  1  3 0.0000  0.316663 23.717764 26.367019
5280  1  3 0.0000  0.316663 23.717764 42.563419
5281  1  3 0.0000  0.316663 40.698444 10.170619
5282  1  3 0.0000  0.316663 40.698444 26.367019
5283  1  3 0.0000  0.316663 40.698444 42.563419
5284  1  3 0.0000 19.924263  6.737085 10.170619
5285  1  3 0.0000 19.924263  6.737085 26.367019
5286  1  3 0.0000 19.924263  6.737085 42.563419
5287  1  3 0.0000 39.531863  6.737085 10.170619
5288  1  3 0.0000 39.531863  6.737085 26.367019
5289  1  3 0.0000 39.531863  6.737085 42.563419
5290  1  3 0.0000 39.531863 40.698444 10.170619
5291  1  3 0.0000 39.531863 40.698444 26.367019
5292  1  3 0.0000 39.531863 40.698444 42.563419
5293  1  3 0.0000  0.316663  6.737085 15.569419
5294  1  3 0.0000  0.316663  6.737085 31.765819
5295  1  3 0.0000  0.316663  6.737085 47.962219
5296  1  3 0.0000  0.316663 23.717764 15.569419
5297  1  3 0.0000  0.316663 23.717764 31.765819
5298  1  3 0.0000  0.316663 23.717764 47.962219
5299  1  3 0.0000  0.316663 40.698444 15.569419
5300  1  3 0.0000  0.316663 40.698444 31.765819
5301  1  3 0.0000  0.316663 40.698444 47.962219
5302  1  3 0.0000 19.924263  6.737085 15.569419
5303  1  3 0.0000 19.924263  6.737085 31.765819
5304  1  3 0.0000 19.924263  6.737085 47.962219
5305  1  3 0.0000 39.531863  6.737085 15.569419
5306  1  3 0.0000 39.531863  6.737085 31.765819
5307  1  3 0.0000 39.531863  6.737085 47.962219
5308  1  3 0.0000 39.531863 40.698444 15.569419
5309  1  3 0.0000 39.531863 40.698444 31.765819
5310  1  3 0.0000 39.531863 40.698444 47.962219
5311  1  3 0.0000 17.473313 10.982255  4.771819
5312  1  3 0.0000 17.473313 10.982255 20.968219
5313  1  3 0.0000 17.473313 10.982255 37.164619
5314  1  3 0.0000 17.473313 44.943614  4.771819
5315  1  3 0.0000 17.473313 44.943614 20.968219
5316  1  3 0.0000 17.473313 44.943614 37.164619
5317  1  3 0.0000 37.080913 44.943614  4.771819
5318  1  3 0.0000 37.080913 44.943614 20.968219
5319  1  3 0.0000 37.080913 44.943614 37.164619
5320  1  3 0.0000 56.688513 10.982255  4.771819
5321  1  3 0.0000 56.688513 10.982255 20.968219
5322  1  3 0.0000 56.688513 10.982255 37.164619
5323  1  3 0.0000 56.688513 27.962934  4.771819
5324  1  3 0.0000 56.688513 27.962934 20.968219
5325  1  3 0.0000 56.688513 27.962934 37.164619
5326  1  3 0.0000 56.688513 44.943614  4.771819
5327  1  3 0.0000 56.688513 44.943614 20.968219
5328  1  3 0.0000 56.688513 44.943614 37.164619
5329  1  3 0.0000 17.473313 10.982255 10.170619
5330  1  3 0.0000 17.473313 10.982255 26.367019
5331  1  3 0.0000 17.473313 10.982255 42.563419
5332  1  3 0.0000 17.473313 44.943614 10.170619
5333  1  3 0.0000 17.473313 44.943614 26.367019
5334  1  3 0.0000 17.473313 44.943614 42.563419
5335  1  3 0.0000 37.080913 44.943614 10.170619
5336  1  3 0.0000 37.080913 44.943614 26.367019
5337  1  3 0.0000 37.080913 44.943614 42.563419
5338  1  3 0.0000 56.688513 10.982255 10.170619
5339  1  3 0.0000 56.688513 10.982255 26.367019
5340  1  3 0.0000 56.688513 10.982255 42.563419
5341  1  3 0.0000 56.688513 27.962934 10.170619
5342  1  3 0.0000 56.688513 27.962934 26.367019
5343  1  3 0.0000 56.688513 27.962934 42.563419
5344  1  3 0.0000 56.688513 44.943614 10.170619
5345  1  3 0.0000 56.688513 44.943614 26.367019
5346  1  3 0.0000 56.688513 44.943614 42.563419
5347  1  3 0.0000 17.473313 10.982255 15.569419
5348  1  3 0.0000 17.473313 10.982255 31.765819
5349  1  3 0.0000 17.473313 10.982255 47.962219
5350  1  3 0.0000 17.473313 44.943614 15.569419
5351  1  3 0.0000 17.473313 44.943614 31.765819
5352  1  3 0.0000 17.473313 44.943614 47.962219
5353  1  3 0.0000 37.080913 44.943614 15.569419
5354  1  3 0.0000 37.080913 44.943614 31.765819
5355  1  3 0.0000 37.080913 44.943614 47.962219
5356  1  3 0.0000 56.688513 10.982255 15.569419
5357  1  3 0.0000 56.688513 10.982255 31.765819
5358  1  3 0.0000 56.688513 10.982255 47.962219
5359  1  3 0.0000 56.688513 27.962934 15.569419
5360  1  3 0.0000 56.688513 27.962934 31.765819
5361  1  3 0.0000 56.688513 27.962934 47.962219
5362  1  3 0.0000 56.688513 44.943614 15.569419
5363  1  3 0.0000 56.688513 44.943614 31.765819
5364  1  3 0.0000 56.688513 44.943614 47.962219
5365  1  3 0.0000 15.022363 49.188784  4.771819
5366  1  3 0.0000 15.022363 49.188784 20.968219
5367  1  3 0.0000 15.022363 49.188784 37.164619
5368  1  3 0.0000 34.629963 49.188784  4.771819
5369  1  3 0.0000 34.629963 49.188784 20.968219
5370  1  3 0.0000 34.629963 49.188784 37.164619
5371  1  3 0.0000 54.237563 15.227425  4.771819
5372  1  3 0.0000 54.237563 15.227425 20.968219
5373  1  3 0.0000 54.237563 15.227425 37.164619
5374  1  3 0.0000 54.237563 32.208104  4.771819
5375  1  3 0.0000 54.237563 32.208104 20.968219
5376  1  3 0.0000 54.237563 32.208104 37.164619
5377  1  3 0.0000 54.237563 49.188784  4.771819
5378  1  3 0.0000 54.237563 49.188784 20.968219
5379  1  3 0.0000 54.237563 49.188784 37.164619
5380  1  3 0.0000 15.022363 49.188784 10.170619
5381  1  3 0.0000 15.022363 49.188784 26.367019
5382  1  3 0.0000 15.022363 49.188784 42.563419
5383  1  3 0.0000 34.629963 49.188784 10.170619
5384  1  3 0.0000 34.629963 49.188784 26.367019
5385  1  3 0.0000 34.629963 49.188784 42.563419
5386  1  3 0.0000 54.237563 15.227425 10.170619
5387  1  3 0.0000 54.237563 15.227425 26.367019
5388  1  3 0.0000 54.237563 15.227425 42.563419
5389  1  3 0.0000 54.237563 32.208104 10.170619
5390  1  3 0.0000 54.237563 32.208104 26.367019
5391  1  3 0.0000 54.237563 32.208104 42.563419
5392  1  3 0.0000 54.237563 49.188784 10.170619
5393  1  3 0.0000 54.237563 49.188784 26.367019
5394  1  3 0.0000 54.237563 49.188784 42.563419
5395  1  3 0.0000 15.022363 49.188784 15.569419
5396  1  3 0.0000 15.022363 49.188784 31.765819
5397  1  3 0.0000 15.022363 49.188784 47.962219
5398  1  3 0.0000 34.629963 49.188784 15.569419
5399  1  3 0.0000 34.629963 49.188784 31.765819
5400  1  3 0.0000 34.629963 49.188784 47.962219
5401  1  3 0.0000 54.237563 15.227425 15.569419
5402  1  3 0.0000 54.237563 15.227425 31.765819
5403  1  3 0.0000 54.237563 15.227425 47.962219
5404  1  3 0.0000 54.237563 32.208104 15.569419
5405  1  3 0.0000 54.237563 32.208104 31.765819
5406  1  3 0.0000 54.237563 32.208104 47.962219
5407  1  3 0.0000 54.237563 49.188784 15.569419
5408  1  3 0.0000 54.237563 49.188784 31.765819
5409  1  3 0.0000 54.237563 49.188784 47.962219
5410  1  3 0.0000  0.316663 15.227425  4.771819
5411  1  3 0.0000  0.316663 15.227425 20.968219
5412  1  3 0.0000  0.316663 15.227425 37.164619
5413  1  3 0.0000  0.316663 32.208104  4.771819
5414  1  3 0.0000  0.316663 32.208104 20.968219
5415  1  3 0.0000  0.316663 32.208104 37.164619
5416  1  3 0.0000  0.316663 49.188784  4.771819
5417  1  3 0.0000  0.316663 49.188784 20.968219
5418  1  3 0.0000  0.316663 49.188784 37.164619
5419  1  3 0.0000 19.924263 49.188784  4.771819
5420  1  3 0.0000 19.924263 49.188784 20.968219
5421  1  3 0.0000 19.924263 49.188784 37.164619
5422  1  3 0.0000 39.531863 49.188784  4.771819
5423  1  3 0.0000 39.531863 49.188784 20.968219
5424  1  3 0.0000 39.531863 49.188784 37.164619
5425  1  3 0.0000  0.316663 15.227425 10.170619
5426  1  3 0.0000  0.316663 15.227425 26.367019
5427  1  3 0.0000  0.316663 15.227425 42.563419
5428  1  3 0.0000  0.316663 32.208104 10.170619
5429  1  3 0.0000  0.316663 32.208104 26.367019
5430  1  3 0.0000  0.316663 32.208104 42.563419
5431  1  3 0.0000  0.316663 49.188784 10.170619
5432  1  3 0.0000  0.316663 49.188784 26.367019
5433  1  3 0.0000  0.316663 49.188784 42.563419
5434  1  3 0.0000 19.924263 49.188784 10.170619
5435  1  3 0.0000 19.924263 49.188784 26.367019
5436  1  3 0.0000 19.924263 49.188784 42.563419
5437  1  3 0.0000 39.531863 49.188784 10.170619
5438  1  3 0.0000 39.531863 49.188784 26.367019
5439  1  3 0.0000 39.531863 49.188784 42.563419
5440  1  3 0.0000  0.316663 15.227425 15.569419
5441  1  3 0.0000  0.316663 15.227425 31.765819
5442  1  3 0.0000  0.316663 15.227425 47.962219
5443  1  3 0.0000  0.316663 32.208104 15.569419
5444  1  3 0.0000  0.316663 32.208104 31.765819
5445  1  3 0.0000  0.316663 32.208104 47.962219
5446  1  3 0.0000  0.316663 49.188784 15.569419
5447  1  3 0.0000  0.316663 49.188784 31.765819
5448  1  3 0.0000  0.316663 49.188784 47.962219
5449  1  3 0.0000 19.924263 49.188784 15.569419
5450  1  3 0.0000 19.924263 49.188784 31.765819
5451  1  3 0.0000 19.924263 49.188784 47.962219
5452  1  3 0.0000 39.531863 49.188784 15.569419
5453  1  3 0.0000 39.531863 49.188784 31.765819
5454  1  3 0.0000 39.531863 49.188784 47.962219
5455  1  3 0.0000  0.316663  1.753255  4.226181
5456  1  3 0.0000  0.316663  1.753255 20.422581
5457  1  3 0.0000  0.316663  1.753255 36.618981
5458  1  3 0.0000  0.316663 18.733935  4.226181
5459  1  3 0.0000  0.316663 18.733935 20.422581
5460  1  3 0.0000  0.316663 18.733935 36.618981
5461  1  3 0.0000  0.316663 35.714615  4.226181
5462  1  3 0.0000  0.316663 35.714615 20.422581
5463  1  3 0.0000  0.316663 35.714615 36.618981
5464  1  3 0.0000 19.924263  1.753255  4.226181
5465  1  3 0.0000 19.924263  1.753255 20.422581
5466  1  3 0.0000 19.924263  1.753255 36.618981
5467  1  3 0.0000 39.531863  1.753255  4.226181
5468  1  3 0.0000 39.531863  1.753255 20.422581
5469  1  3 0.0000 39.531863  1.753255 36.618981
5470  1  3 0.0000  0.316663  1.753255  9.624981
5471  1  3 0.0000  0.316663  1.753255 25.821381
5472  1  3 0.0000  0.316663  1.753255 42.017781
5473  1  3 0.0000  0.316663 18.733935  9.624981
5474  1  3 0.0000  0.316663 18.733935 25.821381
5475  1  3 0.0000  0.316663 18.733935 42.017781
5476  1  3 0.0000  0.316663 35.714615  9.624981
5477  1  3 0.0000  0.316663 35.714615 25.821381
5478  1  3 0.0000  0.316663 35.714615 42.017781
5479  1  3 0.0000 19.924263  1.753255  9.624981
5480  1  3 0.0000 19.924263  1.753255 25.821381
5481  1  3 0.0000 19.924263  1.753255 42.017781
5482  1  3 0.0000 39.531863  1.753255  9.624981
5483  1  3 0.0000 39.531863  1.753255 25.821381
5484  1  3 0.0000 39.531863  1.753255 42.017781
5485  1  3 0.0000  0.316663  1.753255 15.023781
5486  1  3 0.0000  0.316663  1.753255 31.220181
5487  1  3 0.0000  0.316663  1.753255 47.416581
5488  1  3 0.0000  0.316663 18.733935 15.023781
5489  1  3 0.0000  0.316663 18.733935 31.220181
5490  1  3 0.0000  0.316663 18.733935 47.416581
5491  1  3 0.0000  0.316663 35.714615 15.023781
5492  1  3 0.0000  0.316663 35.714615 31.220181
5493  1  3 0.0000  0.316663 35.714615 47.416581
5494  1  3 0.0000 19.924263  1.753255 15.023781
5495  1  3 0.0000 19.924263  1.753255 31.220181
5496  1  3 0.0000 19.924263  1.753255 47.416581
5497  1  3 0.0000 39.531863  1.753255 15.023781
5498  1  3 0.0000 39.531863  1.753255 31.220181
5499  1  3 0.0000 39.531863  1.753255 47.416581
5500  1  3 0.0000  5.218563  1.753255  4.226181
5501  1  3 0.0000  5.218563  1.753255 20.422581
5502  1  3 0.0000  5.218563  1.753255 36.618981
5503  1  3 0.0000  5.218563 18.733935  4.226181
5504  1  3 0.0000  5.218563 18.733935 20.422581
5505  1  3 0.0000  5.218563 18.733935 36.618981
5506  1  3 0.0000  5.218563 35.714615  4.226181
5507  1  3 0.0000  5.218563 35.714615 20.422581
5508  1  3 0.0000  5.218563 35.714615 36.618981
5509  1  3 0.0000 24.826163  1.753255  4.226181
5510  1  3 0.0000 24.826163  1.753255 20.422581
5511  1  3 0.0000 24.826163  1.753255 36.618981
5512  1  3 0.0000 44.433763  1.753255  4.226181
5513  1  3 0.0000 44.433763  1.753255 20.422581
5514  1  3 0.0000 44.433763  1.753255 36.618981
5515  1  3 0.0000 44.433763 35.714615  4.226181
5516  1  3 0.0000 44.433763 35.714615 20.422581
5517  1  3 0.0000 44.433763 35.714615 36.618981
5518  1  3 0.0000  5.218563  1.753255  9.624981
5519  1  3 0.0000  5.218563  1.753255 25.821381
5520  1  3 0.0000  5.218563  1.753255 42.017781
5521  1  3 0.0000  5.218563 18.733935  9.624981
5522  1  3 0.0000  5.218563 18.733935 25.821381
5523  1  3 0.0000  5.218563 18.733935 42.017781
5524  1  3 0.0000  5.218563 35.714615  9.624981
5525  1  3 0.0000  5.218563 35.714615 25.821381
5526  1  3 0.0000  5.218563 35.714615 42.017781
5527  1  3 0.0000 24.826163  1.753255  9.624981
5528  1  3 0.0000 24.826163  1.753255 25.821381
5529  1  3 0.0000 24.826163  1.753255 42.017781
5530  1  3 0.0000 44.433763  1.753255  9.624981
5531  1  3 0.0000 44.433763  1.753255 25.821381
5532  1  3 0.0000 44.433763  1.753255 42.017781
5533  1  3 0.0000 44.433763 35.714615  9.624981
5534  1  3 0.0000 44.433763 35.714615 25.821381
5535  1  3 0.0000 44.433763 35.714615 42.017781
5536  1  3 0.0000  5.218563  1.753255 15.023781
5537  1  3 0.0000  5.218563  1.753255 31.220181
5538  1  3 0.0000  5.218563  1.753255 47.416581
5539  1  3 0.0000  5.218563 18.733935 15.023781
5540  1  3 0.0000  5.218563 18.733935 31.220181
5541  1  3 0.0000  5.218563 18.733935 47.416581
5542  1  3 0.0000  5.218563 35.714615 15.023781
5543  1  3 0.0000  5.218563 35.714615 31.220181
5544  1  3 0.0000  5.218563 35.714615 47.416581
5545  1  3 0.0000 24.826163  1.753255 15.023781
5546  1  3 0.0000 24.826163  1.753255 31.220181
5547  1  3 0.0000 24.826163  1.753255 47.416581
5548  1  3 0.0000 44.433763  1.753255 15.023781
5549  1  3 0.0000 44.433763  1.753255 31.220181
5550  1  3 0.0000 44.433763  1.753255 47.416581
5551  1  3 0.0000 44.433763 35.714615 15.023781
5552  1  3 0.0000 44.433763 35.714615 31.220181
5553  1  3 0.0000 44.433763 35.714615 47.416581
5554  1  3 0.0000  2.767613  5.998425  4.226181
5555  1  3 0.0000  2.767613  5.998425 20.422581
5556  1  3 0.0000  2.767613  5.998425 36.618981
5557  1  3 0.0000  2.767613 22.979105  4.226181
5558  1  3 0.0000  2.767613 22.979105 20.422581
5559  1  3 0.0000  2.767613 22.979105 36.618981
5560  1  3 0.0000  2.767613 39.959785  4.226181
5561  1  3 0.0000  2.767613 39.959785 20.422581
5562  1  3 0.0000  2.767613 39.959785 36.618981
5563  1  3 0.0000 22.375213  5.998425  4.226181
5564  1  3 0.0000 22.375213  5.998425 20.422581
5565  1  3 0.0000 22.375213  5.998425 36.618981
5566  1  3 0.0000 41.982813  5.998425  4.226181
5567  1  3 0.0000 41.982813  5.998425 20.422581
5568  1  3 0.0000 41.982813  5.998425 36.618981
5569  1  3 0.0000 41.982813 39.959785  4.226181
5570  1  3 0.0000 41.982813 39.959785 20.422581
5571  1  3 0.0000 41.982813 39.959785 36.618981
5572  1  3 0.0000  2.767613  5.998425  9.624981
5573  1  3 0.0000  2.767613  5.998425 25.821381
5574  1  3 0.0000  2.767613  5.998425 42.017781
5575  1  3 0.0000  2.767613 22.979105  9.624981
5576  1  3 0.0000  2.767613 22.979105 25.821381
5577  1  3 0.0000  2.767613 22.979105 42.017781
5578  1  3 0.0000  2.767613 39.959785  9.624981
5579  1  3 0.0000  2.767613 39.959785 25.821381
5580  1  3 0.0000  2.767613 39.959785 42.017781
5581  1  3 0.0000 22.375213  5.998425  9.624981
5582  1  3 0.0000 22.375213  5.998425 25.821381
5583  1  3 0.0000 22.375213  5.998425 42.017781
5584  1  3 0.0000 41.982813  5.998425  9.624981
5585  1  3 0.0000 41.982813  5.998425 25.821381
5586  1  3 0.0000 41.982813  5.998425 42.017781
5587  1  3 0.0000 41.982813 39.959785  9.624981
5588  1  3 0.0000 41.982813 39.959785 25.821381
5589  1  3 0.0000 41.982813 39.959785 42.017781
5590  1  3 0.0000  2.767613  5.998425 15.023781
5591  1  3 0.0000  2.767613  5.998425 31.220181
5592  1  3 0.0000  2.767613  5.998425 47.416581
5593  1  3 0.0000  2.767613 22.979105 15.023781
5594  1  3 0.0000  2.767613 22.979105 31.220181
5595  1  3 0.0000  2.767613 22.979105 47.416581
5596  1  3 0.0000  2.767613 39.959785 15.023781
5597  1  3 0.0000  2.767613 39.959785 31.220181
5598  1  3 0.0000  2.767613 39.959785 47.416581
5599  1  3 0.0000 22.375213  5.998425 15.023781
5600  1  3 0.0000 22.375213  5.998425 31.220181
5601  1  3 0.0000 22.375213  5.998425 47.416581
5602  1  3 0.0000 41.982813  5.998425 15.023781
5603  1  3 0.0000 41.982813  5.998425 31.220181
5604  1  3 0.0000 41.982813  5.998425 47.416581
5605  1  3 0.0000 41.982813 39.959785 15.023781
5606  1  3 0.0000 41.982813 39.959785 31.220181
5607  1  3 0.0000 41.982813 39.959785 47.416581
5608  1  3 0.0000  0.316663 10.243595  4.226181
5609  1  3 0.0000  0.316663 10.243595 20.422581
5610  1  3 0.0000  0.316663 10.243595 36.618981
5611  1  3 0.0000  0.316663 27.224275  4.226181
5612  1  3 0.0000  0.316663 27.224275 20.422581
5613  1  3 0.0000  0.316663 27.224275 36.618981
5614  1  3 0.0000  0.316663 44.204954  4.226181
5615  1  3 0.0000  0.316663 44.204954 20.422581
5616  1  3 0.0000  0.316663 44.204954 36.618981
5617  1  3 0.0000 19.924263 44.204954  4.226181
5618  1  3 0.0000 19.924263 44.204954 20.422581
5619  1  3 0.0000 19.924263 44.204954 36.618981
5620  1  3 0.0000 39.531863 10.243595  4.226181
5621  1  3 0.0000 39.531863 10.243595 20.422581
5622  1  3 0.0000 39.531863 10.243595 36.618981
5623  1  3 0.0000 39.531863 44.204954  4.226181
5624  1  3 0.0000 39.531863 44.204954 20.422581
5625  1  3 0.0000 39.531863 44.204954 36.618981
5626  1  3 0.0000  0.316663 10.243595  9.624981
5627  1  3 0.0000  0.316663 10.243595 25.821381
5628  1  3 0.0000  0.316663 10.243595 42.017781
5629  1  3 0.0000  0.316663 27.224275  9.624981
5630  1  3 0.0000  0.316663 27.224275 25.821381
5631  1  3 0.0000  0.316663 27.224275 42.017781
5632  1  3 0.0000  0.316663 44.204954  9.624981
5633  1  3 0.0000  0.316663 44.204954 25.821381
5634  1  3 0.0000  0.316663 44.204954 42.017781
5635  1  3 0.0000 19.924263 44.204954  9.624981
5636  1  3 0.0000 19.924263 44.204954 25.821381
5637  1  3 0.0000 19.924263 44.204954 42.017781
5638  1  3 0.0000 39.531863 10.243595  9.624981
5639  1  3 0.0000 39.531863 10.243595 25.821381
5640  1  3 0.0000 39.531863 10.243595 42.017781
5641  1  3 0.0000 39.531863 44.204954  9.624981
5642  1  3 0.0000 39.531863 44.204954 25.821381
5643  1  3 0.0000 39.531863 44.204954 42.017781
5644  1  3 0.0000  0.316663 10.243595 15.023781
5645  1  3 0.0000  0.316663 10.243595 31.220181
5646  1  3 0.0000  0.316663 10.243595 47.416581
5647  1  3 0.0000  0.316663 27.224275 15.023781
5648  1  3 0.0000  0.316663 27.224275 31.220181
5649  1  3 0.0000  0.316663 27.224275 47.416581
5650  1  3 0.0000  0.316663 44.204954 15.023781
5651  1  3 0.0000  0.316663 44.204954 31.220181
5652  1  3 0.0000  0.316663 44.204954 47.416581
5653  1  3 0.0000 19.924263 44.204954 15.023781
5654  1  3 0.0000 19.924263 44.204954 31.220181
5655  1  3 0.0000 19.924263 44.204954 47.416581
5656  1  3 0.0000 39.531863 10.243595 15.023781
5657  1  3 0.0000 39.531863 10.243595 31.220181
5658  1  3 0.0000 39.531863 10.243595 47.416581
5659  1  3 0.0000 39.531863 44.204954 15.023781
5660  1  3 0.0000 39.531863 44.204954 31.220181
5661  1  3 0.0000 39.531863 44.204954 47.416581
5662  1  3 0.0000 10.120463  1.753255  4.226181
5663  1  3 0.0000 10.120463  1.753255 20.422581
5664  1  3 0.0000 10.120463  1.753255 36.618981
5665  1  3 0.0000 10.120463 18.733935  4.226181
5666  1  3 0.0000 10.120463 18.733935 20.422581
5667  1  3 0.0000 10.120463 18.733935 36.618981
5668  1  3 0.0000 10.120463 35.714615  4.226181
5669  1  3 0.0000 10.120463 35.714615 20.422581
5670  1  3 0.0000 10.120463 35.714615 36.618981
5671  1  3 0.0000 29.728063  1.753255  4.226181
5672  1  3 0.0000 29.728063  1.753255 20.422581
5673  1  3 0.0000 29.728063  1.753255 36.618981
5674  1  3 0.0000 49.335663  1.753255  4.226181
5675  1  3 0.0000 49.335663  1.753255 20.422581
5676  1  3 0.0000 49.335663  1.753255 36.618981
5677  1  3 0.0000 49.335663 18.733935  4.226181
5678  1  3 0.0000 49.335663 18.733935 20.422581
5679  1  3 0.0000 49.335663 18.733935 36.618981
5680  1  3 0.0000 49.335663 35.714615  4.226181
5681  1  3 0.0000 49.335663 35.714615 20.422581
5682  1  3 0.0000 49.335663 35.714615 36.618981
5683  1  3 0.0000 10.120463  1.753255  9.624981
5684  1  3 0.0000 10.120463  1.753255 25.821381
5685  1  3 0.0000 10.120463  1.753255 42.017781
5686  1  3 0.0000 10.120463 18.733935  9.624981
5687  1  3 0.0000 10.120463 18.733935 25.821381
5688  1  3 0.0000 10.120463 18.733935 42.017781
5689  1  3 0.0000 10.120463 35.714615  9.624981
5690  1  3 0.0000 10.120463 35.714615 25.821381
5691  1  3 0.0000 10.120463 35.714615 42.017781
5692  1  3 0.0000 29.728063  1.753255  9.624981
5693  1  3 0.0000 29.728063  1.753255 25.821381
5694  1  3 0.0000 29.728063  1.753255 42.017781
5695  1  3 0.0000 49.335663  1.753255  9.624981
5696  1  3 0.0000 49.335663  1.753255 25.821381
5697  1  3 0.0000 49.335663  1.753255 42.017781
5698  1  3 0.0000 49.335663 18.733935  9.624981
5699  1  3 0.0000 49.335663 18.733935 25.821381
5700  1  3 0.0000 49.335663 18.733935 42.017781
5701  1  3 0.0000 49.335663 35.714615  9.624981
5702  1  3 0.0000 49.335663 35.714615 25.821381
5703  1  3 0.0000 49.335663 35.714615 42.017781
5704  1  3 0.0000 10.120463  1.753255 15.023781
5705  1  3 0.0000 10.120463  1.753255 31.220181
5706  1  3 0.0000 10.120463  1.753255 47.416581
5707  1  3 0.0000 10.120463 18.733935 15.023781
5708  1  3 0.0000 10.120463 18.733935 31.220181
5709  1  3 0.0000 10.120463 18.733935 47.416581
5710  1  3 0.0000 10.120463 35.714615 15.023781
5711  1  3 0.0000 10.120463 35.714615 31.220181
5712  1  3 0.0000 10.120463 35.714615 47.416581
5713  1  3 0.0000 29.728063  1.753255 15.023781
5714  1  3 0.0000 29.728063  1.753255 31.220181
5715  1  3 0.0000 29.728063  1.753255 47.416581
5716  1  3 0.0000 49.335663  1.753255 15.023781
5717  1  3 0.0000 49.335663  1.753255 31.220181
5718  1  3 0.0000 49.335663  1.753255 47.416581
5719  1  3 0.0000 49.335663 18.733935 15.023781
5720  1  3 0.0000 49.335663 18.733935 31.220181
5721  1  3 0.0000 49.335663 18.733935 47.416581
5722  1  3 0.0000 49.335663 35.714615 15.023781
5723  1  3 0.0000 49.335663 35.714615 31.220181
5724  1  3 0.0000 49.335663 35.714615 47.416581
5725  1  3 0.0000  7.669513  5.998425  4.226181
5726  1  3 0.0000  7.669513  5.998425 20.422581
5727  1  3 0.0000  7.669513  5.998425 36.618981
5728  1  3 0.0000  7.669513 22.979105  4.226181
5729  1  3 0.0000  7.669513 22.979105 20.422581
5730  1  3 0.0000  7.669513 22.979105 36.618981
5731  1  3 0.0000  7.669513 39.959785  4.226181
5732  1  3 0.0000  7.669513 39.959785 20.422581
5733  1  3 0.0000  7.669513 39.959785 36.618981
5734  1  3 0.0000 27.277113  5.998425  4.226181
5735  1  3 0.0000 27.277113  5.998425 20.422581
5736  1  3 0.0000 27.277113  5.998425 36.618981
5737  1  3 0.0000 46.884713  5.998425  4.226181
5738  1  3 0.0000 46.884713  5.998425 20.422581
5739  1  3 0.0000 46.884713  5.998425 36.618981
5740  1  3 0.0000 46.884713 22.979105  4.226181
5741  1  3 0.0000 46.884713 22.979105 20.422581
5742  1  3 0.0000 46.884713 22.979105 36.618981
5743  1  3 0.0000 46.884713 39.959785  4.226181
5744  1  3 0.0000 46.884713 39.959785 20.422581
5745  1  3 0.0000 46.884713 39.959785 36.618981
5746  1  3 0.0000  7.669513  5.998425  9.624981
5747  1  3 0.0000  7.669513  5.998425 25.821381
5748  1  3 0.0000  7.669513  5.998425 42.017781
5749  1  3 0.0000  7.669513 22.979105  9.624981
5750  1  3 0.0000  7.669513 22.979105 25.821381
5751  1  3 0.0000  7.669513 22.979105 42.017781
5752  1  3 0.0000  7.669513 39.959785  9.624981
5753  1  3 0.0000  7.669513 39.959785 25.821381
5754  1  3 0.0000  7.669513 39.959785 42.017781
5755  1  3 0.0000 27.277113  5.998425  9.624981
5756  1  3 0.0000 27.277113  5.998425 25.821381
5757  1  3 0.0000 27.277113  5.998425 42.017781
5758  1  3 0.0000 46.884713  5.998425  9.624981
5759  1  3 0.0000 46.884713  5.998425 25.821381
5760  1  3 0.0000 46.884713  5.998425 42.017781
5761  1  3 0.0000 46.884713 22.979105  9.624981
5762  1  3 0.0000 46.884713 22.979105 25.821381
5763  1  3 0.0000 46.884713 22.979105 42.017781
5764  1  3 0.0000 46.884713 39.959785  9.624981
5765  1  3 0.0000 46.884713 39.959785 25.821381
5766  1  3 0.0000 46.884713 39.959785 42.017781
5767  1  3 0.0000  7.669513  5.998425 15.023781
5768  1  3 0.0000  7.669513  5.998425 31.220181
5769  1  3 0.0000  7.669513  5.998425 47.416581
5770  1  3 0.0000  7.669513 22.979105 15.023781
5771  1  3 0.0000  7.669513 22.979105 31.220181
5772  1  3 0.0000  7.669513 22.979105 47.416581
5773  1  3 0.0000  7.669513 39.959785 15.023781
5774  1  3 0.0000  7.669513 39.959785 31.220181
5775  1  3 0.0000  7.669513 39.959785 47.416581
5776  1  3 0.0000 27.277113  5.998425 15.023781
5777  1  3 0.0000 27.277113  5.998425 31.220181
5778  1  3 0.0000 27.277113  5.998425 47.416581
5779  1  3 0.0000 46.884713  5.998425 15.023781
5780  1  3 0.0000 46.884713  5.998425 31.220181
5781  1  3 0.0000 46.884713  5.998425 47.416581
5782  1  3 0.0000 46.884713 22.979105 15.023781
5783  1  3 0.0000 46.884713 22.979105 31.220181
5784  1  3 0.0000 46.884713 22.979105 47.416581
5785  1  3 0.0000 46.884713 39.959785 15.023781
5786  1  3 0.0000 46.884713 39.959785 31.220181
5787  1  3 0.0000 46.884713 39.959785 47.416581
5788  1  3 0.0000  5.218563 10.243595  4.226181
5789  1  3 0.0000  5.218563 10.243595 20.422581
5790  1  3 0.0000  5.218563 10.243595 36.618981
5791  1  3 0.0000  5.218563 27.224275  4.226181
5792  1  3 0.0000  5.218563 27.224275 20.422581
5793  1  3 0.0000  5.218563 27.224275 36.618981
5794  1  3 0.0000  5.218563 44.204954  4.226181
5795  1  3 0.0000  5.218563 44.204954 20.422581
5796  1  3 0.0000  5.218563 44.204954 36.618981
5797  1  3 0.0000 24.826163 44.204954  4.226181
5798  1  3 0.0000 24.826163 44.204954 20.422581
5799  1  3 0.0000 24.826163 44.204954 36.618981
5800  1  3 0.0000 44.433763 10.243595  4.226181
5801  1  3 0.0000 44.433763 10.243595 20.422581
5802  1  3 0.0000 44.433763 10.243595 36.618981
5803  1  3 0.0000 44.433763 44.204954  4.226181
5804  1  3 0.0000 44.433763 44.204954 20.422581
5805  1  3 0.0000 44.433763 44.204954 36.618981
5806  1  3 0.0000  5.218563 10.243595  9.624981
5807  1  3 0.0000  5.218563 10.243595 25.821381
5808  1  3 0.0000  5.218563 10.243595 42.017781
5809  1  3 0.0000  5.218563 27.224275  9.624981
5810  1  3 0.0000  5.218563 27.224275 25.821381
5811  1  3 0.0000  5.218563 27.224275 42.017781
5812  1  3 0.0000  5.218563 44.204954  9.624981
5813  1  3 0.0000  5.218563 44.204954 25.821381
5814  1  3 0.0000  5.218563 44.204954 42.017781
5815  1  3 0.0000 24.826163 44.204954  9.624981
5816  1  3 0.0000 24.826163 44.204954 25.821381
5817  1  3 0.0000 24.826163 44.204954 42.017781
5818  1  3 0.0000 44.433763 10.243595  9.624981
5819  1  3 0.0000 44.433763 10.243595 25.821381
5820  1  3 0.0000 44.433763 10.243595 42.017781
5821  1  3 0.0000 44.433763 44.204954  9.624981
5822  1  3 0.0000 44.433763 44.204954 25.821381
5823  1  3 0.0000 44.433763 44.204954 42.017781
5824  1  3 0.0000  5.218563 10.243595 15.023781
5825  1  3 0.0000  5.218563 10.243595 31.220181
5826  1  3 0.0000  5.218563 10.243595 47.416581
5827  1  3 0.0000  5.218563 27.224275 15.023781
5828  1  3 0.0000  5.218563 27.224275 31.220181
5829  1  3 0.0000  5.218563 27.224275 47.416581
5830  1  3 0.0000  5.218563 44.204954 15.023781
5831  1  3 0.0000  5.218563 44.204954 31.220181
5832  1  3 0.0000  5.218563 44.204954 47.416581
5833  1  3 0.0000 24.826163 44.204954 15.023781
5834  1  3 0.0000 24.826163 44.204954 31.220181
5835  1  3 0.0000 24.826163 44.204954 47.416581
5836  1  3 0.0000 44.433763 10.243595 15.023781
5837  1  3 0.0000 44.433763 10.243595 31.220181
5838  1  3 0.0000 44.433763 10.243595 47.416581
5839  1  3 0.0000 44.433763 44.204954 15.023781
5840  1  3 0.0000 44.433763 44.204954 31.220181
5841  1  3 0.0000 44.433763 44.204954 47.416581
5842  1  3 0.0000  2.767613 14.488765  4.226181
5843  1  3 0.0000  2.767613 14.488765 20.422581
5844  1  3 0.0000  2.767613 14.488765 36.618981
5845  1  3 0.0000  2.767613 31.469445  4.226181
5846  1  3 0.0000  2.767613 31.469445 20.422581
5847  1  3 0.0000  2.767613 31.469445 36.618981
5848  1  3 0.0000  2.767613 48.450124  4.226181
5849  1  3 0.0000  2.767613 48.450124 20.422581
5850  1  3 0.0000  2.767613 48.450124 36.618981
5851  1  3 0.0000 22.375213 48.450124  4.226181
5852  1  3 0.0000 22.375213 48.450124 20.422581
5853  1  3 0.0000 22.375213 48.450124 36.618981
5854  1  3 0.0000 41.982813 48.450124  4.226181
5855  1  3 0.0000 41.982813 48.450124 20.422581
5856  1  3 0.0000 41.982813 48.450124 36.618981
5857  1  3 0.0000  2.767613 14.488765  9.624981
5858  1  3 0.0000  2.767613 14.488765 25.821381
5859  1  3 0.0000  2.767613 14.488765 42.017781
5860  1  3 0.0000  2.767613 31.469445  9.624981
5861  1  3 0.0000  2.767613 31.469445 25.821381
5862  1  3 0.0000  2.767613 31.469445 42.017781
5863  1  3 0.0000  2.767613 48.450124  9.624981
5864  1  3 0.0000  2.767613 48.450124 25.821381
5865  1  3 0.0000  2.767613 48.450124 42.017781
5866  1  3 0.0000 22.375213 48.450124  9.624981
5867  1  3 0.0000 22.375213 48.450124 25.821381
5868  1  3 0.0000 22.375213 48.450124 42.017781
5869  1  3 0.0000 41.982813 48.450124  9.624981
5870  1  3 0.0000 41.982813 48.450124 25.821381
5871  1  3 0.0000 41.982813 48.450124 42.017781
5872  1  3 0.0000  2.767613 14.488765 15.023781
5873  1  3 0.0000  2.767613 14.488765 31.220181
5874  1  3 0.0000  2.767613 14.488765 47.416581
5875  1  3 0.0000  2.767613 31.469445 15.023781
5876  1  3 0.0000  2.767613 31.469445 31.220181
5877  1  3 0.0000  2.767613 31.469445 47.416581
5878  1  3 0.0000  2.767613 48.450124 15.023781
5879  1  3 0.0000  2.767613 48.450124 31.220181
5880  1  3 0.0000  2.767613 48.450124 47.416581
5881  1  3 0.0000 22.375213 48.450124 15.023781
5882  1  3 0.0000 22.375213 48.450124 31.220181
5883  1  3 0.0000 22.375213 48.450124 47.416581
5884  1  3 0.0000 41.982813 48.450124 15.023781
5885  1  3 0.0000 41.982813 48.450124 31.220181
5886  1  3 0.0000 41.982813 48.450124 47.416581
5887  1  3 0.0000 15.022363  1.753255  4.226181
5888  1  3 0.0000 15.022363  1.753255 20.422581
5889  1  3 0.0000 15.022363  1.753255 36.618981
5890  1  3 0.0000 34.629963  1.753255  4.226181
5891  1  3 0.0000 34.629963  1.753255 20.422581
5892  1  3 0.0000 34.629963  1.753255 36.618981
5893  1  3 0.0000 54.237563  1.753255  4.226181
5894  1  3 0.0000 54.237563  1.753255 20.422581
5895  1  3 0.0000 54.237563  1.753255 36.618981
5896  1  3 0.0000 54.237563 18.733935  4.226181
5897  1  3 0.0000 54.237563 18.733935 20.422581
5898  1  3 0.0000 54.237563 18.733935 36.618981
5899  1  3 0.0000 54.237563 35.714615  4.226181
5900  1  3 0.0000 54.237563 35.714615 20.422581
5901  1  3 0.0000 54.237563 35.714615 36.618981
5902  1  3 0.0000 15.022363  1.753255  9.624981
5903  1  3 0.0000 15.022363  1.753255 25.821381
5904  1  3 0.0000 15.022363  1.753255 42.017781
5905  1  3 0.0000 34.629963  1.753255  9.624981
5906  1  3 0.0000 34.629963  1.753255 25.821381
5907  1  3 0.0000 34.629963  1.753255 42.017781
5908  1  3 0.0000 54.237563  1.753255  9.624981
5909  1  3 0.0000 54.237563  1.753255 25.821381
5910  1  3 0.0000 54.237563  1.753255 42.017781
5911  1  3 0.0000 54.237563 18.733935  9.624981
5912  1  3 0.0000 54.237563 18.733935 25.821381
5913  1  3 0.0000 54.237563 18.733935 42.017781
5914  1  3 0.0000 54.237563 35.714615  9.624981
5915  1  3 0.0000 54.237563 35.714615 25.821381
5916  1  3 0.0000 54.237563 35.714615 42.017781
5917  1  3 0.0000 15.022363  1.753255 15.023781
5918  1  3 0.0000 15.022363  1.753255 31.220181
5919  1  3 0.0000 15.022363  1.753255 47.416581
5920  1  3 0.0000 34.629963  1.753255 15.023781
5921  1  3 0.0000 34.629963  1.753255 31.220181
5922  1  3 0.0000 34.629963  1.753255 47.416581
5923  1  3 0.0000 54.237563  1.753255 15.023781
5924  1  3 0.0000 54.237563  1.753255 31.220181
5925  1  3 0.0000 54.237563  1.753255 47.416581
5926  1  3 0.0000 54.237563 18.733935 15.023781
5927  1  3 0.0000 54.237563 18.733935 31.220181
5928  1  3 0.0000 54.237563 18.733935 47.416581
5929  1  3 0.0000 54.237563 35.714615 15.023781
5930  1  3 0.0000 54.237563 35.714615 31.220181
5931  1  3 0.0000 54.237563 35.714615 47.416581
5932  1  3 0.0000 12.571413  5.998425  4.226181
5933  1  3 0.0000 12.571413  5.998425 20.422581
5934  1  3 0.0000 12.571413  5.998425 36.618981
5935  1  3 0.0000 12.571413 39.959785  4.226181
5936  1  3 0.0000 12.571413 39.959785 20.422581
5937  1  3 0.0000 12.571413 39.959785 36.618981
5938  1  3 0.0000 32.179013  5.998425  4.226181
5939  1  3 0.0000 32.179013  5.998425 20.422581
5940  1  3 0.0000 32.179013  5.998425 36.618981
5941  1  3 0.0000 51.786613  5.998425  4.226181
5942  1  3 0.0000 51.786613  5.998425 20.422581
5943  1  3 0.0000 51.786613  5.998425 36.618981
5944  1  3 0.0000 51.786613 22.979105  4.226181
5945  1  3 0.0000 51.786613 22.979105 20.422581
5946  1  3 0.0000 51.786613 22.979105 36.618981
5947  1  3 0.0000 51.786613 39.959785  4.226181
5948  1  3 0.0000 51.786613 39.959785 20.422581
5949  1  3 0.0000 51.786613 39.959785 36.618981
5950  1  3 0.0000 12.571413  5.998425  9.624981
5951  1  3 0.0000 12.571413  5.998425 25.821381
5952  1  3 0.0000 12.571413  5.998425 42.017781
5953  1  3 0.0000 12.571413 39.959785  9.624981
5954  1  3 0.0000 12.571413 39.959785 25.821381
5955  1  3 0.0000 12.571413 39.959785 42.017781
5956  1  3 0.0000 32.179013  5.998425  9.624981
5957  1  3 0.0000 32.179013  5.998425 25.821381
5958  1  3 0.0000 32.179013  5.998425 42.017781
5959  1  3 0.0000 51.786613  5.998425  9.624981
5960  1  3 0.0000 51.786613  5.998425 25.821381
5961  1  3 0.0000 51.786613  5.998425 42.017781
5962  1  3 0.0000 51.786613 22.979105  9.624981
5963  1  3 0.0000 51.786613 22.979105 25.821381
5964  1  3 0.0000 51.786613 22.979105 42.017781
5965  1  3 0.0000 51.786613 39.959785  9.624981
5966  1  3 0.0000 51.786613 39.959785 25.821381
5967  1  3 0.0000 51.786613 39.959785 42.017781
5968  1  3 0.0000 12.571413  5.998425 15.023781
5969  1  3 0.0000 12.571413  5.998425 31.220181
5970  1  3 0.0000 12.571413  5.998425 47.416581
5971  1  3 0.0000 12.571413 39.959785 15.023781
5972  1  3 0.0000 12.571413 39.959785 31.220181
5973  1  3 0.0000 12.571413 39.959785 47.416581
5974  1  3 0.0000 32.179013  5.998425 15.023781
5975  1  3 0.0000 32.179013  5.998425 31.220181
5976  1  3 0.0000 32.179013  5.998425 47.416581
5977  1  3 0.0000 51.786613  5.998425 15.023781
5978  1  3 0.0000 51.786613  5.998425 31.220181
5979  1  3 0.0000 51.786613  5.998425 47.416581
5980  1  3 0.0000 51.786613 22.979105 15.023781
5981  1  3 0.0000 51.786613 22.979105 31.220181
5982  1  3 0.0000 51.786613 22.979105 47.416581
5983  1  3 0.0000 51.786613 39.959785 15.023781
5984  1  3 0.0000 51.786613 39.959785 31.220181
5985  1  3 0.0000 51.786613 39.959785 47.416581
5986  1  3 0.0000 10.120463 10.243595  4.226181
5987  1  3 0.0000 10.120463 10.243595 20.422581
5988  1  3 0.0000 10.120463 10.243595 36.618981
5989  1  3 0.0000 10.120463 27.224275  4.226181
5990  1  3 0.0000 10.120463 27.224275 20.422581
5991  1  3 0.0000 10.120463 27.224275 36.618981
5992  1  3 0.0000 10.120463 44.204954  4.226181
5993  1  3 0.0000 10.120463 44.204954 20.422581
5994  1  3 0.0000 10.120463 44.204954 36.618981
5995  1  3 0.0000 29.728063 44.204954  4.226181
5996  1  3 0.0000 29.728063 44.204954 20.422581
5997  1  3 0.0000 29.728063 44.204954 36.618981
5998  1  3 0.0000 49.335663 10.243595  4.226181
5999  1  3 0.0000 49.335663 10.243595 20.422581
6000  1  3 0.0000 49.335663 10.243595 36.618981
6001  1  3 0.0000 49.335663 27.224275  4.226181
6002  1  3 0.0000 49.335663 27.224275 20.422581
6003  1  3 0.0000 49.335663 27.224275 36.618981
6004  1  3 0.0000 49.335663 44.204954  4.226181
6005  1  3 0.0000 49.335663 44.204954 20.422581
6006  1  3 0.0000 49.335663 44.204954 36.618981
6007  1  3 0.0000 10.120463 10.243595  9.624981
6008  1  3 0.0000 10.120463 10.243595 25.821381
6009  1  3 0.0000 10.120463 10.243595 42.017781
6010  1  3 0.0000 10.120463 27.224275  9.624981
6011  1  3 0.0000 10.120463 27.224275 25.821381
6012  1  3 0.0000 10.120463 27.224275 42.017781
6013  1  3 0.0000 10.120463 44.204954  9.624981
6014  1  3 0.0000 10.120463 44.204954 25.821381
6015  1  3 0.0000 10.120463 44.204954 42.017781
6016  1  3 0.0000 29.728063 44.204954  9.624981
6017  1  3 0.0000 29.728063 44.204954 25.821381
6018  1  3 0.0000 29.728063 44.204954 42.017781
6019  1  3 0.0000 49.335663 10.243595  9.624981
6020  1  3 0.0000 49.335663 10.243595 25.821381
6021  1  3 0.0000 49.335663 10.243595 42.017781
6022  1  3 0.0000 49.335663 27.224275  9.624981
6023  1  3 0.0000 49.335663 27.224275 25.821381
6024  1  3 0.0000 49.335663 27.224275 42.017781
6025  1  3 0.0000 49.335663 44.204954  9.624981
6026  1  3 0.0000 49.335663 44.204954 25.821381
6027  1  3 0.0000 49.335663 44.204954 42.017781
6028  1  3 0.0000 10.120463 10.243595 15.023781
6029  1  3 0.0000 10.120463 10.243595 31.220181
6030  1  3 0.0000 10.120463 10.243595 47.416581
6031  1  3 0.0000 10.120463 27.224275 15.023781
6032  1  3 0.0000 10.120463 27.224275 31.220181
6033  1  3 0.0000 10.120463 27.224275 47.416581
6034  1  3 0.0000 10.120463 44.204954 15.023781
6035  1  3 0.0000 10.120463 44.204954 31.220181
6036  1  3 0.0000 10.120463 44.204954 47.416581
6037  1  3 0.0000 29.728063 44.204954 15.023781
6038  1  3 0.0000 29.728063 44.204954 31.220181
6039  1  3 0.0000 29.728063 44.204954 47.416581
6040  1  3 0.0000 49.335663 10.243595 15.023781
6041  1  3 0.0000 49.335663 10.243595 31.220181
6042  1  3 0.0000 49.335663 10.243595 47.416581
6043  1  3 0.0000 49.335663 27.224275 15.023781
6044  1  3 0.0000 49.335663 27.224275 31.220181
6045  1  3 0.0000 49.335663 27.224275 47.416581
6046  1  3 0.0000 49.335663 44.204954 15.023781
6047  1  3 0.0000 49.335663 44.204954 31.220181
6048  1  3 0.0000 49.335663 44.204954 47.416581
6049  1  3 0.0000  7.669513 14.488765  4.226181
6050  1  3 0.0000  7.669513 14.488765 20.422581
6051  1  3 0.0000  7.669513 14.488765 36.618981
6052  1  3 0.0000  7.669513 31.469445  4.226181
6053  1  3 0.0000  7.669513 31.469445 20.422581
6054  1  3 0.0000  7.669513 31.469445 36.618981
6055  1  3 0.0000  7.669513 48.450124  4.226181
6056  1  3 0.0000  7.669513 48.450124 20.422581
6057  1  3 0.0000  7.669513 48.450124 36.618981
6058  1  3 0.0000 27.277113 48.450124  4.226181
6059  1  3 0.0000 27.277113 48.450124 20.422581
6060  1  3 0.0000 27.277113 48.450124 36.618981
6061  1  3 0.0000 46.884713 14.488765  4.226181
6062  1  3 0.0000 46.884713 14.488765 20.422581
6063  1  3 0.0000 46.884713 14.488765 36.618981
6064  1  3 0.0000 46.884713 31.469445  4.226181
6065  1  3 0.0000 46.884713 31.469445 20.422581
6066  1  3 0.0000 46.884713 31.469445 36.618981
6067  1  3 0.0000 46.884713 48.450124  4.226181
6068  1  3 0.0000 46.884713 48.450124 20.422581
6069  1  3 0.0000 46.884713 48.450124 36.618981
6070  1  3 0.0000  7.669513 14.488765  9.624981
6071  1  3 0.0000  7.669513 14.488765 25.821381
6072  1  3 0.0000  7.669513 14.488765 42.017781
6073  1  3 0.0000  7.669513 31.469445  9.624981
6074  1  3 0.0000  7.669513 31.469445 25.821381
6075  1  3 0.0000  7.669513 31.469445 42.017781
6076  1  3 0.0000  7.669513 48.450124  9.624981
6077  1  3 0.0000  7.669513 48.450124 25.821381
6078  1  3 0.0000  7.669513 48.450124 42.017781
6079  1  3 0.0000 27.277113 48.450124  9.624981
6080  1  3 0.0000 27.277113 48.450124 25.821381
6081  1  3 0.0000 27.277113 48.450124 42.017781
6082  1  3 0.0000 46.884713 14.488765  9.624981
6083  1  3 0.0000 46.884713 14.488765 25.821381
6084  1  3 0.0000 46.884713 14.488765 42.017781
6085  1  3 0.0000 46.884713 31.469445  9.624981
6086  1  3 0.0000 46.884713 31.469445 25.821381
6087  1  3 0.0000 46.884713 31.469445 42.017781
6088  1  3 0.0000 46.884713 48.450124  9.624981
6089  1  3 0.0000 46.884713 48.450124 25.821381
6090  1  3 0.0000 46.884713 48.450124 42.017781
6091  1  3 0.0000  7.669513 14.488765 15.023781
6092  1  3 0.0000  7.669513 14.488765 31.220181
6093  1  3 0.0000  7.669513 14.488765 47.416581
6094  1  3 0.0000  7.669513 31.469445 15.023781
6095  1  3 0.0000  7.669513 31.469445 31.220181
6096  1  3 0.0000  7.669513 31.469445 47.416581
6097  1  3 0.0000  7.669513 48.450124 15.023781
6098  1  3 0.0000  7.669513 48.450124 31.220181
6099  1  3 0.0000  7.669513 48.450124 47.416581
6100  1  3 0.0000 27.277113 48.450124 15.023781
6101  1  3 0.0000 27.277113 48.450124 31.220181
6102  1  3 0.0000 27.277113 48.450124 47.416581
6103  1  3 0.0000 46.884713 14.488765 15.023781
6104  1  3 0.0000 46.884713 14.488765 31.220181
6105  1  3 0.0000 46.884713 14.488765 47.416581
6106  1  3 0.0000 46.884713 31.469445 15.023781
6107  1  3 0.0000 46.884713 31.469445 31.220181
6108  1  3 0.0000 46.884713 31.469445 47.416581
6109  1  3 0.0000 46.884713 48.450124 15.023781
6110  1  3 0.0000 46.884713 48.450124 31.220181
6111  1  3 0.0000 46.884713 48.450124 47.416581
6112  1  3 0.0000 17.473313  5.998425  4.226181
6113  1  3 0.0000 17.473313  5.998425 20.422581
6114  1  3 0.0000 17.473313  5.998425 36.618981
6115  1  3 0.0000 17.473313 39.959785  4.226181
6116  1  3 0.0000 17.473313 39.959785 20.422581
6117  1  3 0.0000 17.473313 39.959785 36.618981
6118  1  3 0.0000 37.080913  5.998425  4.226181
6119  1  3 0.0000 37.080913  5.998425 20.422581
6120  1  3 0.0000 37.080913  5.998425 36.618981
6121  1  3 0.0000 56.688513  5.998425  4.226181
6122  1  3 0.0000 56.688513  5.998425 20.422581
6123  1  3 0.0000 56.688513  5.998425 36.618981
6124  1  3 0.0000 56.688513 22.979105  4.226181
6125  1  3 0.0000 56.688513 22.979105 20.422581
6126  1  3 0.0000 56.688513 22.979105 36.618981
6127  1  3 0.0000 56.688513 39.959785  4.226181
6128  1  3 0.0000 56.688513 39.959785 20.422581
6129  1  3 0.0000 56.688513 39.959785 36.618981
6130  1  3 0.0000 17.473313  5.998425  9.624981
6131  1  3 0.0000 17.473313  5.998425 25.821381
6132  1  3 0.0000 17.473313  5.998425 42.017781
6133  1  3 0.0000 17.473313 39.959785  9.624981
6134  1  3 0.0000 17.473313 39.959785 25.821381
6135  1  3 0.0000 17.473313 39.959785 42.017781
6136  1  3 0.0000 37.080913  5.998425  9.624981
6137  1  3 0.0000 37.080913  5.998425 25.821381
6138  1  3 0.0000 37.080913  5.998425 42.017781
6139  1  3 0.0000 56.688513  5.998425  9.624981
6140  1  3 0.0000 56.688513  5.998425 25.821381
6141  1  3 0.0000 56.688513  5.998425 42.017781
6142  1  3 0.0000 56.688513 22.979105  9.624981
6143  1  3 0.0000 56.688513 22.979105 25.821381
6144  1  3 0.0000 56.688513 22.979105 42.017781
6145  1  3 0.0000 56.688513 39.959785  9.624981
6146  1  3 0.0000 56.688513 39.959785 25.821381
6147  1  3 0.0000 56.688513 39.959785 42.017781
6148  1  3 0.0000 17.473313  5.998425 15.023781
6149  1  3 0.0000 17.473313  5.998425 31.220181
6150  1  3 0.0000 17.473313  5.998425 47.416581
6151  1  3 0.0000 17.473313 39.959785 15.023781
6152  1  3 0.0000 17.473313 39.959785 31.220181
6153  1  3 0.0000 17.473313 39.959785 47.416581
6154  1  3 0.0000 37.080913  5.998425 15.023781
6155  1  3 0.0000 37.080913  5.998425 31.220181
6156  1  3 0.0000 37.080913  5.998425 47.416581
6157  1  3 0.0000 56.688513  5.998425 15.023781
6158  1  3 0.0000 56.688513  5.998425 31.220181
6159  1  3 0.0000 56.688513  5.998425 47.416581
6160  1  3 0.0000 56.688513 22.979105 15.023781
6161  1  3 0.0000 56.688513 22.979105 31.220181
6162  1  3 0.0000 56.688513 22.979105 47.416581
6163  1  3 0.0000 56.688513 39.959785 15.023781
6164  1  3 0.0000 56.688513 39.959785 31.220181
6165  1  3 0.0000 56.688513 39.959785 47.416581
6166  1  3 0.0000 15.022363 10.243595  4.226181
6167  1  3 0.0000 15.022363 10.243595 20.422581
6168  1  3 0.0000 15.022363 10.243595 36.618981
6169  1  3 0.0000 15.022363 44.204954  4.226181
6170  1  3 0.0000 15.022363 44.204954 20.422581
6171  1  3 0.0000 15.022363 44.204954 36.618981
6172  1  3 0.0000 34.629963 44.204954  4.226181
6173  1  3 0.0000 34.629963 44.204954 20.422581
6174  1  3 0.0000 34.629963 44.204954 36.618981
6175  1  3 0.0000 54.237563 10.243595  4.226181
6176  1  3 0.0000 54.237563 10.243595 20.422581
6177  1  3 0.0000 54.237563 10.243595 36.618981
6178  1  3 0.0000 54.237563 27.224275  4.226181
6179  1  3 0.0000 54.237563 27.224275 20.422581
6180  1  3 0.0000 54.237563 27.224275 36.618981
6181  1  3 0.0000 54.237563 44.204954  4.226181
6182  1  3 0.0000 54.237563 44.204954 20.422581
6183  1  3 0.0000 54.237563 44.204954 36.618981
6184  1  3 0.0000 15.022363 10.243595  9.624981
6185  1  3 0.0000 15.022363 10.243595 25.821381
6186  1  3 0.0000 15.022363 10.243595 42.017781
6187  1  3 0.0000 15.022363 44.204954  9.624981
6188  1  3 0.0000 15.022363 44.204954 25.821381
6189  1  3 0.0000 15.022363 44.204954 42.017781
6190  1  3 0.0000 34.629963 44.204954  9.624981
6191  1  3 0.0000 34.629963 44.204954 25.821381
6192  1  3 0.0000 34.629963 44.204954 42.017781
6193  1  3 0.0000 54.237563 10.243595  9.624981
6194  1  3 0.0000 54.237563 10.243595 25.821381
6195  1  3 0.0000 54.237563 10.243595 42.017781
6196  1  3 0.0000 54.237563 27.224275  9.624981
6197  1  3 0.0000 54.237563 27.224275 25.821381
6198  1  3 0.0000 54.237563 27.224275 42.017781
6199  1  3 0.0000 54.237563 44.204954  9.624981
6200  1  3 0.0000 54.237563 44.204954 25.821381
6201  1  3 0.0000 54.237563 44.204954 42.017781
6202  1  3 0.0000 15.022363 10.243595 15.023781
6203  1  3 0.0000 15.022363 10.243595 31.220181
6204  1  3 0.0000 15.022363 10.243595 47.416581
6205  1  3 0.0000 15.022363 44.204954 15.023781
6206  1  3 0.0000 15.022363 44.204954 31.220181
6207  1  3 0.0000 15.022363 44.204954 47.416581
6208  1  3 0.0000 34.629963 44.204954 15.023781
6209  1  3 0.0000 34.629963 44.204954 31.220181
6210  1  3 0.0000 34.629963 44.204954 47.416581
6211  1  3 0.0000 54.237563 10.243595 15.023781
6212  1  3 0.0000 54.237563 10.243595 31.220181
6213  1  3 0.0000 54.237563 10.243595 47.416581
6214  1  3 0.0000 54.237563 27.224275 15.023781
6215  1  3 0.0000 54.237563 27.224275 31.220181
6216  1  3 0.0000 54.237563 27.224275 47.416581
6217  1  3 0.0000 54.237563 44.204954 15.023781
6218  1  3 0.0000 54.237563 44.204954 31.220181
6219  1  3 0.0000 54.237563 44.204954 47.416581
6220  1  3 0.0000 12.571413 14.488765  4.226181
6221  1  3 0.0000 12.571413 14.488765 20.422581
6222  1  3 0.0000 12.571413 14.488765 36.618981
6223  1  3 0.0000 12.571413 48.450124  4.226181
6224  1  3 0.0000 12.571413 48.450124 20.422581
6225  1  3 0.0000 12.571413 48.450124 36.618981
6226  1  3 0.0000 32.179013 48.450124  4.226181
6227  1  3 0.0000 32.179013 48.450124 20.422581
6228  1  3 0.0000 32.179013 48.450124 36.618981
6229  1  3 0.0000 51.786613 14.488765  4.226181
6230  1  3 0.0000 51.786613 14.488765 20.422581
6231  1  3 0.0000 51.786613 14.488765 36.618981
6232  1  3 0.0000 51.786613 31.469445  4.226181
6233  1  3 0.0000 51.786613 31.469445 20.422581
6234  1  3 0.0000 51.786613 31.469445 36.618981
6235  1  3 0.0000 51.786613 48.450124  4.226181
6236  1  3 0.0000 51.786613 48.450124 20.422581
6237  1  3 0.0000 51.786613 48.450124 36.618981
6238  1  3 0.0000 12.571413 14.488765  9.624981
6239  1  3 0.0000 12.571413 14.488765 25.821381
6240  1  3 0.0000 12.571413 14.488765 42.017781
6241  1  3 0.0000 12.571413 48.450124  9.624981
6242  1  3 0.0000 12.571413 48.450124 25.821381
6243  1  3 0.0000 12.571413 48.450124 42.017781
6244  1  3 0.0000 32.179013 48.450124  9.624981
6245  1  3 0.0000 32.179013 48.450124 25.821381
6246  1  3 0.0000 32.179013 48.450124 42.017781
6247  1  3 0.0000 51.786613 14.488765  9.624981
6248  1  3 0.0000 51.786613 14.488765 25.821381
6249  1  3 0.0000 51.786613 14.488765 42.017781
6250  1  3 0.0000 51.786613 31.469445  9.624981
6251  1  3 0.0000 51.786613 31.469445 25.821381
6252  1  3 0.0000 51.786613 31.469445 42.017781
6253  1  3 0.0000 51.786613 48.450124  9.624981
6254  1  3 0.0000 51.786613 48.450124 25.821381
6255  1  3 0.0000 51.786613 48.450124 42.017781
6256  1  3 0.0000 12.571413 14.488765 15.023781
6257  1  3 0.0000 12.571413 14.488765 31.220181
6258  1  3 0.0000 12.571413 14.488765 47.416581
6259  1  3 0.0000 12.571413 48.450124 15.023781
6260  1  3 0.0000 12.571413 48.450124 31.220181
6261  1  3 0.0000 12.571413 48.450124 47.416581
6262  1  3 0.0000 32.179013 48.450124 15.023781
6263  1  3 0.0000 32.179013 48.450124 31.220181
6264  1  3 0.0000 32.179013 48.450124 47.416581
6265  1  3 0.0000 51.786613 14.488765 15.023781
6266  1  3 0.0000 51.786613 14.488765 31.220181
6267  1  3 0.0000 51.786613 14.488765 47.416581
6268  1  3 0.0000 51.786613 31.469445 15.023781
6269  1  3 0.0000 51.786613 31.469445 31.220181
6270  1  3 0.0000 51.786613 31.469445 47.416581
6271  1  3 0.0000 51.786613 48.450124 15.023781
6272  1  3 0.0000 51.786613 48.450124 31.220181
6273  1  3 0.0000 51.786613 48.450124 47.416581
6274  1  3 0.0000 17.473313 48.450124  4.226181
6275  1  3 0.0000 17.473313 48.450124 20.422581
6276  1  3 0.0000 17.473313 48.450124 36.618981
6277  1  3 0.0000 37.080913 48.450124  4.226181
6278  1  3 0.0000 37.080913 48.450124 20.422581
6279  1  3 0.0000 37.080913 48.450124 36.618981
6280  1  3 0.0000 56.688513 14.488765  4.226181
6281  1  3 0.0000 56.688513 14.488765 20.422581
6282  1  3 0.0000 56.688513 14.488765 36.618981
6283  1  3 0.0000 56.688513 31.469445  4.226181
6284  1  3 0.0000 56.688513 31.469445 20.422581
6285  1  3 0.0000 56.688513 31.469445 36.618981
6286  1  3 0.0000 56.688513 48.450124  4.226181
6287  1  3 0.0000 56.688513 48.450124 20.422581
6288  1  3 0.0000 56.688513 48.450124 36.618981
6289  1  3 0.0000 17.473313 48.450124  9.624981
6290  1  3 0.0000 17.473313 48.450124 25.821381
6291  1  3 0.0000 17.473313 48.450124 42.017781
6292  1  3 0.0000 37.080913 48.450124  9.624981
6293  1  3 0.0000 37.080913 48.450124 25.821381
6294  1  3 0.0000 37.080913 48.450124 42.017781
6295  1  3 0.0000 56.688513 14.488765  9.624981
6296  1  3 0.0000 56.688513 14.488765 25.821381
6297  1  3 0.0000 56.688513 14.488765 42.017781
6298  1  3 0.0000 56.688513 31.469445  9.624981
6299  1  3 0.0000 56.688513 31.469445 25.821381
6300  1  3 0.0000 56.688513 31.469445 42.017781
6301  1  3 0.0000 56.688513 48.450124  9.624981
6302  1  3 0.0000 56.688513 48.450124 25.821381
6303  1  3 0.0000 56.688513 48.450124 42.017781
6304  1  3 0.0000 17.473313 48.450124 15.023781
6305  1  3 0.0000 17.473313 48.450124 31.220181
6306  1  3 0.0000 17.473313 48.450124 47.416581
6307  1  3 0.0000 37.080913 48.450124 15.023781
6308  1  3 0.0000 37.080913 48.450124 31.220181
6309  1  3 0.0000 37.080913 48.450124 47.416581
6310  1  3 0.0000 56.688513 14.488765 15.023781
6311  1  3 0.0000 56.688513 14.488765 31.220181
6312  1  3 0.0000 56.688513 14.488765 47.416581
6313  1  3 0.0000 56.688513 31.469445 15.023781
6314  1  3 0.0000 56.688513 31.469445 31.220181
6315  1  3 0.0000 56.688513 31.469445 47.416581
6316  1  3 0.0000 56.688513 48.450124 15.023781
6317  1  3 0.0000 56.688513 48.450124 31.220181
6318  1  3 0.0000 56.688513 48.450124 47.416581
6319  1  3 0.0000  0.774255  3.642780  0.626981
6320  1  3 0.0000  0.774255  3.642780 16.823381
6321  1  3 0.0000  0.774255  3.642780 33.019781
6322  1  3 0.0000  0.774255 20.623460  0.626981
6323  1  3 0.0000  0.774255 20.623460 16.823381
6324  1  3 0.0000  0.774255 20.623460 33.019781
6325  1  3 0.0000  0.774255 37.604140  0.626981
6326  1  3 0.0000  0.774255 37.604140 16.823381
6327  1  3 0.0000  0.774255 37.604140 33.019781
6328  1  3 0.0000 20.381855  3.642780  0.626981
6329  1  3 0.0000 20.381855  3.642780 16.823381
6330  1  3 0.0000 20.381855  3.642780 33.019781
6331  1  3 0.0000 39.989455  3.642780  0.626981
6332  1  3 0.0000 39.989455  3.642780 16.823381
6333  1  3 0.0000 39.989455  3.642780 33.019781
6334  1  3 0.0000  0.774255  3.642780  6.025781
6335  1  3 0.0000  0.774255  3.642780 22.222181
6336  1  3 0.0000  0.774255  3.642780 38.418581
6337  1  3 0.0000  0.774255 20.623460  6.025781
6338  1  3 0.0000  0.774255 20.623460 22.222181
6339  1  3 0.0000  0.774255 20.623460 38.418581
6340  1  3 0.0000  0.774255 37.604140  6.025781
6341  1  3 0.0000  0.774255 37.604140 22.222181
6342  1  3 0.0000  0.774255 37.604140 38.418581
6343  1  3 0.0000 20.381855  3.642780  6.025781
6344  1  3 0.0000 20.381855  3.642780 22.222181
6345  1  3 0.0000 20.381855  3.642780 38.418581
6346  1  3 0.0000 39.989455  3.642780  6.025781
6347  1  3 0.0000 39.989455  3.642780 22.222181
6348  1  3 0.0000 39.989455  3.642780 38.418581
6349  1  3 0.0000  0.774255  3.642780 11.424581
6350  1  3 0.0000  0.774255  3.642780 27.620981
6351  1  3 0.0000  0.774255  3.642780 43.817381
6352  1  3 0.0000  0.774255 20.623460 11.424581
6353  1  3 0.0000  0.774255 20.623460 27.620981
6354  1  3 0.0000  0.774255 20.623460 43.817381
6355  1  3 0.0000  0.774255 37.604140 11.424581
6356  1  3 0.0000  0.774255 37.604140 27.620981
6357  1  3 0.0000  0.774255 37.604140 43.817381
6358  1  3 0.0000 20.381855  3.642780 11.424581
6359  1  3 0.0000 20.381855  3.642780 27.620981
6360  1  3 0.0000 20.381855  3.642780 43.817381
6361  1  3 0.0000 39.989455  3.642780 11.424581
6362  1  3 0.0000 39.989455  3.642780 27.620981
6363  1  3 0.0000 39.989455  3.642780 43.817381
6364  1  3 0.0000  5.676155  3.642780  0.626981
6365  1  3 0.0000  5.676155  3.642780 16.823381
6366  1  3 0.0000  5.676155  3.642780 33.019781
6367  1  3 0.0000  5.676155 20.623460  0.626981
6368  1  3 0.0000  5.676155 20.623460 16.823381
6369  1  3 0.0000  5.676155 20.623460 33.019781
6370  1  3 0.0000  5.676155 37.604140  0.626981
6371  1  3 0.0000  5.676155 37.604140 16.823381
6372  1  3 0.0000  5.676155 37.604140 33.019781
6373  1  3 0.0000 25.283755  3.642780  0.626981
6374  1  3 0.0000 25.283755  3.642780 16.823381
6375  1  3 0.0000 25.283755  3.642780 33.019781
6376  1  3 0.0000 44.891355  3.642780  0.626981
6377  1  3 0.0000 44.891355  3.642780 16.823381
6378  1  3 0.0000 44.891355  3.642780 33.019781
6379  1  3 0.0000 44.891355 37.604140  0.626981
6380  1  3 0.0000 44.891355 37.604140 16.823381
6381  1  3 0.0000 44.891355 37.604140 33.019781
6382  1  3 0.0000  5.676155  3.642780  6.025781
6383  1  3 0.0000  5.676155  3.642780 22.222181
6384  1  3 0.0000  5.676155  3.642780 38.418581
6385  1  3 0.0000  5.676155 20.623460  6.025781
6386  1  3 0.0000  5.676155 20.623460 22.222181
6387  1  3 0.0000  5.676155 20.623460 38.418581
6388  1  3 0.0000  5.676155 37.604140  6.025781
6389  1  3 0.0000  5.676155 37.604140 22.222181
6390  1  3 0.0000  5.676155 37.604140 38.418581
6391  1  3 0.0000 25.283755  3.642780  6.025781
6392  1  3 0.0000 25.283755  3.642780 22.222181
6393  1  3 0.0000 25.283755  3.642780 38.418581
6394  1  3 0.0000 44.891355  3.642780  6.025781
6395  1  3 0.0000 44.891355  3.642780 22.222181
6396  1  3 0.0000 44.891355  3.642780 38.418581
6397  1  3 0.0000 44.891355 37.604140  6.025781
6398  1  3 0.0000 44.891355 37.604140 22.222181
6399  1  3 0.0000 44.891355 37.604140 38.418581
6400  1  3 0.0000  5.676155  3.642780 11.424581
6401  1  3 0.0000  5.676155  3.642780 27.620981
6402  1  3 0.0000  5.676155  3.642780 43.817381
6403  1  3 0.0000  5.676155 20.623460 11.424581
6404  1  3 0.0000  5.676155 20.623460 27.620981
6405  1  3 0.0000  5.676155 20.623460 43.817381
6406  1  3 0.0000  5.676155 37.604140 11.424581
6407  1  3 0.0000  5.676155 37.604140 27.620981
6408  1  3 0.0000  5.676155 37.604140 43.817381
6409  1  3 0.0000 25.283755  3.642780 11.424581
6410  1  3 0.0000 25.283755  3.642780 27.620981
6411  1  3 0.0000 25.283755  3.642780 43.817381
6412  1  3 0.0000 44.891355  3.642780 11.424581
6413  1  3 0.0000 44.891355  3.642780 27.620981
6414  1  3 0.0000 44.891355  3.642780 43.817381
6415  1  3 0.0000 44.891355 37.604140 11.424581
6416  1  3 0.0000 44.891355 37.604140 27.620981
6417  1  3 0.0000 44.891355 37.604140 43.817381
6418  1  3 0.0000  3.225205  7.887950  0.626981
6419  1  3 0.0000  3.225205  7.887950 16.823381
6420  1  3 0.0000  3.225205  7.887950 33.019781
6421  1  3 0.0000  3.225205 24.868630  0.626981
6422  1  3 0.0000  3.225205 24.868630 16.823381
6423  1  3 0.0000  3.225205 24.868630 33.019781
6424  1  3 0.0000  3.225205 41.849310  0.626981
6425  1  3 0.0000  3.225205 41.849310 16.823381
6426  1  3 0.0000  3.225205 41.849310 33.019781
6427  1  3 0.0000 22.832805  7.887950  0.626981
6428  1  3 0.0000 22.832805  7.887950 16.823381
6429  1  3 0.0000 22.832805  7.887950 33.019781
6430  1  3 0.0000 22.832805 41.849310  0.626981
6431  1  3 0.0000 22.832805 41.849310 16.823381
6432  1  3 0.0000 22.832805 41.849310 33.019781
6433  1  3 0.0000 42.440405  7.887950  0.626981
6434  1  3 0.0000 42.440405  7.887950 16.823381
6435  1  3 0.0000 42.440405  7.887950 33.019781
6436  1  3 0.0000 42.440405 41.849310  0.626981
6437  1  3 0.0000 42.440405 41.849310 16.823381
6438  1  3 0.0000 42.440405 41.849310 33.019781
6439  1  3 0.0000  3.225205  7.887950  6.025781
6440  1  3 0.0000  3.225205  7.887950 22.222181
6441  1  3 0.0000  3.225205  7.887950 38.418581
6442  1  3 0.0000  3.225205 24.868630  6.025781
6443  1  3 0.0000  3.225205 24.868630 22.222181
6444  1  3 0.0000  3.225205 24.868630 38.418581
6445  1  3 0.0000  3.225205 41.849310  6.025781
6446  1  3 0.0000  3.225205 41.849310 22.222181
6447  1  3 0.0000  3.225205 41.849310 38.418581
6448  1  3 0.0000 22.832805  7.887950  6.025781
6449  1  3 0.0000 22.832805  7.887950 22.222181
6450  1  3 0.0000 22.832805  7.887950 38.418581
6451  1  3 0.0000 22.832805 41.849310  6.025781
6452  1  3 0.0000 22.832805 41.849310 22.222181
6453  1  3 0.0000 22.832805 41.849310 38.418581
6454  1  3 0.0000 42.440405  7.887950  6.025781
6455  1  3 0.0000 42.440405  7.887950 22.222181
6456  1  3 0.0000 42.440405  7.887950 38.418581
6457  1  3 0.0000 42.440405 41.849310  6.025781
6458  1  3 0.0000 42.440405 41.849310 22.222181
6459  1  3 0.0000 42.440405 41.849310 38.418581
6460  1  3 0.0000  3.225205  7.887950 11.424581
6461  1  3 0.0000  3.225205  7.887950 27.620981
6462  1  3 0.0000  3.225205  7.887950 43.817381
6463  1  3 0.0000  3.225205 24.868630 11.424581
6464  1  3 0.0000  3.225205 24.868630 27.620981
6465  1  3 0.0000  3.225205 24.868630 43.817381
6466  1  3 0.0000  3.225205 41.849310 11.424581
6467  1  3 0.0000  3.225205 41.849310 27.620981
6468  1  3 0.0000  3.225205 41.849310 43.817381
6469  1  3 0.0000 22.832805  7.887950 11.424581
6470  1  3 0.0000 22.832805  7.887950 27.620981
6471  1  3 0.0000 22.832805  7.887950 43.817381
6472  1  3 0.0000 22.832805 41.849310 11.424581
6473  1  3 0.0000 22.832805 41.849310 27.620981
6474  1  3 0.0000 22.832805 41.849310 43.817381
6475  1  3 0.0000 42.440405  7.887950 11.424581
6476  1  3 0.0000 42.440405  7.887950 27.620981
6477  1  3 0.0000 42.440405  7.887950 43.817381
6478  1  3 0.0000 42.440405 41.849310 11.424581
6479  1  3 0.0000 42.440405 41.849310 27.620981
6480  1  3 0.0000 42.440405 41.849310 43.817381
6481  1  3 0.0000  0.774255 12.133120  0.626981
6482  1  3 0.0000  0.774255 12.133120 16.823381
6483  1  3 0.0000  0.774255 12.133120 33.019781
6484  1  3 0.0000  0.774255 29.113800  0.626981
6485  1  3 0.0000  0.774255 29.113800 16.823381
6486  1  3 0.0000  0.774255 29.113800 33.019781
6487  1  3 0.0000  0.774255 46.094480  0.626981
6488  1  3 0.0000  0.774255 46.094480 16.823381
6489  1  3 0.0000  0.774255 46.094480 33.019781
6490  1  3 0.0000 20.381855 46.094480  0.626981
6491  1  3 0.0000 20.381855 46.094480 16.823381
6492  1  3 0.0000 20.381855 46.094480 33.019781
6493  1  3 0.0000 39.989455 46.094480  0.626981
6494  1  3 0.0000 39.989455 46.094480 16.823381
6495  1  3 0.0000 39.989455 46.094480 33.019781
6496  1  3 0.0000  0.774255 12.133120  6.025781
6497  1  3 0.0000  0.774255 12.133120 22.222181
6498  1  3 0.0000  0.774255 12.133120 38.418581
6499  1  3 0.0000  0.774255 29.113800  6.025781
6500  1  3 0.0000  0.774255 29.113800 22.222181
6501  1  3 0.0000  0.774255 29.113800 38.418581
6502  1  3 0.0000  0.774255 46.094480  6.025781
6503  1  3 0.0000  0.774255 46.094480 22.222181
6504  1  3 0.0000  0.774255 46.094480 38.418581
6505  1  3 0.0000 20.381855 46.094480  6.025781
6506  1  3 0.0000 20.381855 46.094480 22.222181
6507  1  3 0.0000 20.381855 46.094480 38.418581
6508  1  3 0.0000 39.989455 46.094480  6.025781
6509  1  3 0.0000 39.989455 46.094480 22.222181
6510  1  3 0.0000 39.989455 46.094480 38.418581
6511  1  3 0.0000  0.774255 12.133120 11.424581
6512  1  3 0.0000  0.774255 12.133120 27.620981
6513  1  3 0.0000  0.774255 12.133120 43.817381
6514  1  3 0.0000  0.774255 29.113800 11.424581
6515  1  3 0.0000  0.774255 29.113800 27.620981
6516  1  3 0.0000  0.774255 29.113800 43.817381
6517  1  3 0.0000  0.774255 46.094480 11.424581
6518  1  3 0.0000  0.774255 46.094480 27.620981
6519  1  3 0.0000  0.774255 46.094480 43.817381
6520  1  3 0.0000 20.381855 46.094480 11.424581
6521  1  3 0.0000 20.381855 46.094480 27.620981
6522  1  3 0.0000 20.381855 46.094480 43.817381
6523  1  3 0.0000 39.989455 46.094480 11.424581
6524  1  3 0.0000 39.989455 46.094480 27.620981
6525  1  3 0.0000 39.989455 46.094480 43.817381
6526  1  3 0.0000 10.578055  3.642780  0.626981
6527  1  3 0.0000 10.578055  3.642780 16.823381
6528  1  3 0.0000 10.578055  3.642780 33.019781
6529  1  3 0.0000 10.578055 20.623460  0.626981
6530  1  3 0.0000 10.578055 20.623460 16.823381
6531  1  3 0.0000 10.578055 20.623460 33.019781
6532  1  3 0.0000 10.578055 37.604140  0.626981
6533  1  3 0.0000 10.578055 37.604140 16.823381
6534  1  3 0.0000 10.578055 37.604140 33.019781
6535  1  3 0.0000 30.185655  3.642780  0.626981
6536  1  3 0.0000 30.185655  3.642780 16.823381
6537  1  3 0.0000 30.185655  3.642780 33.019781
6538  1  3 0.0000 49.793255  3.642780  0.626981
6539  1  3 0.0000 49.793255  3.642780 16.823381
6540  1  3 0.0000 49.793255  3.642780 33.019781
6541  1  3 0.0000 49.793255 20.623460  0.626981
6542  1  3 0.0000 49.793255 20.623460 16.823381
6543  1  3 0.0000 49.793255 20.623460 33.019781
6544  1  3 0.0000 49.793255 37.604140  0.626981
6545  1  3 0.0000 49.793255 37.604140 16.823381
6546  1  3 0.0000 49.793255 37.604140 33.019781
6547  1  3 0.0000 10.578055  3.642780  6.025781
6548  1  3 0.0000 10.578055  3.642780 22.222181
6549  1  3 0.0000 10.578055  3.642780 38.418581
6550  1  3 0.0000 10.578055 20.623460  6.025781
6551  1  3 0.0000 10.578055 20.623460 22.222181
6552  1  3 0.0000 10.578055 20.623460 38.418581
6553  1  3 0.0000 10.578055 37.604140  6.025781
6554  1  3 0.0000 10.578055 37.604140 22.222181
6555  1  3 0.0000 10.578055 37.604140 38.418581
6556  1  3 0.0000 30.185655  3.642780  6.025781
6557  1  3 0.0000 30.185655  3.642780 22.222181
6558  1  3 0.0000 30.185655  3.642780 38.418581
6559  1  3 0.0000 49.793255  3.642780  6.025781
6560  1  3 0.0000 49.793255  3.642780 22.222181
6561  1  3 0.0000 49.793255  3.642780 38.418581
6562  1  3 0.0000 49.793255 20.623460  6.025781
6563  1  3 0.0000 49.793255 20.623460 22.222181
6564  1  3 0.0000 49.793255 20.623460 38.418581
6565  1  3 0.0000 49.793255 37.604140  6.025781
6566  1  3 0.0000 49.793255 37.604140 22.222181
6567  1  3 0.0000 49.793255 37.604140 38.418581
6568  1  3 0.0000 10.578055  3.642780 11.424581
6569  1  3 0.0000 10.578055  3.642780 27.620981
6570  1  3 0.0000 10.578055  3.642780 43.817381
6571  1  3 0.0000 10.578055 20.623460 11.424581
6572  1  3 0.0000 10.578055 20.623460 27.620981
6573  1  3 0.0000 10.578055 20.623460 43.817381
6574  1  3 0.0000 10.578055 37.604140 11.424581
6575  1  3 0.0000 10.578055 37.604140 27.620981
6576  1  3 0.0000 10.578055 37.604140 43.817381
6577  1  3 0.0000 30.185655  3.642780 11.424581
6578  1  3 0.0000 30.185655  3.642780 27.620981
6579  1  3 0.0000 30.185655  3.642780 43.817381
6580  1  3 0.0000 49.793255  3.642780 11.424581
6581  1  3 0.0000 49.793255  3.642780 27.620981
6582  1  3 0.0000 49.793255  3.642780 43.817381
6583  1  3 0.0000 49.793255 20.623460 11.424581
6584  1  3 0.0000 49.793255 20.623460 27.620981
6585  1  3 0.0000 49.793255 20.623460 43.817381
6586  1  3 0.0000 49.793255 37.604140 11.424581
6587  1  3 0.0000 49.793255 37.604140 27.620981
6588  1  3 0.0000 49.793255 37.604140 43.817381
6589  1  3 0.0000  8.127105  7.887950  0.626981
6590  1  3 0.0000  8.127105  7.887950 16.823381
6591  1  3 0.0000  8.127105  7.887950 33.019781
6592  1  3 0.0000  8.127105 24.868630  0.626981
6593  1  3 0.0000  8.127105 24.868630 16.823381
6594  1  3 0.0000  8.127105 24.868630 33.019781
6595  1  3 0.0000  8.127105 41.849310  0.626981
6596  1  3 0.0000  8.127105 41.849310 16.823381
6597  1  3 0.0000  8.127105 41.849310 33.019781
6598  1  3 0.0000 47.342305  7.887950  0.626981
6599  1  3 0.0000 47.342305  7.887950 16.823381
6600  1  3 0.0000 47.342305  7.887950 33.019781
6601  1  3 0.0000 47.342305 41.849310  0.626981
6602  1  3 0.0000 47.342305 41.849310 16.823381
6603  1  3 0.0000 47.342305 41.849310 33.019781
6604  1  3 0.0000  8.127105  7.887950  6.025781
6605  1  3 0.0000  8.127105  7.887950 22.222181
6606  1  3 0.0000  8.127105  7.887950 38.418581
6607  1  3 0.0000  8.127105 24.868630  6.025781
6608  1  3 0.0000  8.127105 24.868630 22.222181
6609  1  3 0.0000  8.127105 24.868630 38.418581
6610  1  3 0.0000  8.127105 41.849310  6.025781
6611  1  3 0.0000  8.127105 41.849310 22.222181
6612  1  3 0.0000  8.127105 41.849310 38.418581
6613  1  3 0.0000 47.342305  7.887950  6.025781
6614  1  3 0.0000 47.342305  7.887950 22.222181
6615  1  3 0.0000 47.342305  7.887950 38.418581
6616  1  3 0.0000 47.342305 41.849310  6.025781
6617  1  3 0.0000 47.342305 41.849310 22.222181
6618  1  3 0.0000 47.342305 41.849310 38.418581
6619  1  3 0.0000  8.127105  7.887950 11.424581
6620  1  3 0.0000  8.127105  7.887950 27.620981
6621  1  3 0.0000  8.127105  7.887950 43.817381
6622  1  3 0.0000  8.127105 24.868630 11.424581
6623  1  3 0.0000  8.127105 24.868630 27.620981
6624  1  3 0.0000  8.127105 24.868630 43.817381
6625  1  3 0.0000  8.127105 41.849310 11.424581
6626  1  3 0.0000  8.127105 41.849310 27.620981
6627  1  3 0.0000  8.127105 41.849310 43.817381
6628  1  3 0.0000 47.342305  7.887950 11.424581
6629  1  3 0.0000 47.342305  7.887950 27.620981
6630  1  3 0.0000 47.342305  7.887950 43.817381
6631  1  3 0.0000 47.342305 41.849310 11.424581
6632  1  3 0.0000 47.342305 41.849310 27.620981
6633  1  3 0.0000 47.342305 41.849310 43.817381
6634  1  3 0.0000  5.676155 12.133120  0.626981
6635  1  3 0.0000  5.676155 12.133120 16.823381
6636  1  3 0.0000  5.676155 12.133120 33.019781
6637  1  3 0.0000  5.676155 29.113800  0.626981
6638  1  3 0.0000  5.676155 29.113800 16.823381
6639  1  3 0.0000  5.676155 29.113800 33.019781
6640  1  3 0.0000  5.676155 46.094480  0.626981
6641  1  3 0.0000  5.676155 46.094480 16.823381
6642  1  3 0.0000  5.676155 46.094480 33.019781
6643  1  3 0.0000 25.283755 46.094480  0.626981
6644  1  3 0.0000 25.283755 46.094480 16.823381
6645  1  3 0.0000 25.283755 46.094480 33.019781
6646  1  3 0.0000 44.891355 12.133120  0.626981
6647  1  3 0.0000 44.891355 12.133120 16.823381
6648  1  3 0.0000 44.891355 12.133120 33.019781
6649  1  3 0.0000 44.891355 46.094480  0.626981
6650  1  3 0.0000 44.891355 46.094480 16.823381
6651  1  3 0.0000 44.891355 46.094480 33.019781
6652  1  3 0.0000  5.676155 12.133120  6.025781
6653  1  3 0.0000  5.676155 12.133120 22.222181
6654  1  3 0.0000  5.676155 12.133120 38.418581
6655  1  3 0.0000  5.676155 29.113800  6.025781
6656  1  3 0.0000  5.676155 29.113800 22.222181
6657  1  3 0.0000  5.676155 29.113800 38.418581
6658  1  3 0.0000  5.676155 46.094480  6.025781
6659  1  3 0.0000  5.676155 46.094480 22.222181
6660  1  3 0.0000  5.676155 46.094480 38.418581
6661  1  3 0.0000 25.283755 46.094480  6.025781
6662  1  3 0.0000 25.283755 46.094480 22.222181
6663  1  3 0.0000 25.283755 46.094480 38.418581
6664  1  3 0.0000 44.891355 12.133120  6.025781
6665  1  3 0.0000 44.891355 12.133120 22.222181
6666  1  3 0.0000 44.891355 12.133120 38.418581
6667  1  3 0.0000 44.891355 46.094480  6.025781
6668  1  3 0.0000 44.891355 46.094480 22.222181
6669  1  3 0.0000 44.891355 46.094480 38.418581
6670  1  3 0.0000  5.676155 12.133120 11.424581
6671  1  3 0.0000  5.676155 12.133120 27.620981
6672  1  3 0.0000  5.676155 12.133120 43.817381
6673  1  3 0.0000  5.676155 29.113800 11.424581
6674  1  3 0.0000  5.676155 29.113800 27.620981
6675  1  3 0.0000  5.676155 29.113800 43.817381
6676  1  3 0.0000  5.676155 46.094480 11.424581
6677  1  3 0.0000  5.676155 46.094480 27.620981
6678  1  3 0.0000  5.676155 46.094480 43.817381
6679  1  3 0.0000 25.283755 46.094480 11.424581
6680  1  3 0.0000 25.283755 46.094480 27.620981
6681  1  3 0.0000 25.283755 46.094480 43.817381
6682  1  3 0.0000 44.891355 12.133120 11.424581
6683  1  3 0.0000 44.891355 12.133120 27.620981
6684  1  3 0.0000 44.891355 12.133120 43.817381
6685  1  3 0.0000 44.891355 46.094480 11.424581
6686  1  3 0.0000 44.891355 46.094480 27.620981
6687  1  3 0.0000 44.891355 46.094480 43.817381
6688  1  3 0.0000  3.225205 16.378290  0.626981
6689  1  3 0.0000  3.225205 16.378290 16.823381
6690  1  3 0.0000  3.225205 16.378290 33.019781
6691  1  3 0.0000  3.225205 33.358970  0.626981
6692  1  3 0.0000  3.225205 33.358970 16.823381
6693  1  3 0.0000  3.225205 33.358970 33.019781
6694  1  3 0.0000  3.225205 50.339650  0.626981
6695  1  3 0.0000  3.225205 50.339650 16.823381
6696  1  3 0.0000  3.225205 50.339650 33.019781
6697  1  3 0.0000 22.832805 50.339650  0.626981
6698  1  3 0.0000 22.832805 50.339650 16.823381
6699  1  3 0.0000 22.832805 50.339650 33.019781
6700  1  3 0.0000 42.440405 50.339650  0.626981
6701  1  3 0.0000 42.440405 50.339650 16.823381
6702  1  3 0.0000 42.440405 50.339650 33.019781
6703  1  3 0.0000  3.225205 16.378290  6.025781
6704  1  3 0.0000  3.225205 16.378290 22.222181
6705  1  3 0.0000  3.225205 16.378290 38.418581
6706  1  3 0.0000  3.225205 33.358970  6.025781
6707  1  3 0.0000  3.225205 33.358970 22.222181
6708  1  3 0.0000  3.225205 33.358970 38.418581
6709  1  3 0.0000  3.225205 50.339650  6.025781
6710  1  3 0.0000  3.225205 50.339650 22.222181
6711  1  3 0.0000  3.225205 50.339650 38.418581
6712  1  3 0.0000 22.832805 50.339650  6.025781
6713  1  3 0.0000 22.832805 50.339650 22.222181
6714  1  3 0.0000 22.832805 50.339650 38.418581
6715  1  3 0.0000 42.440405 50.339650  6.025781
6716  1  3 0.0000 42.440405 50.339650 22.222181
6717  1  3 0.0000 42.440405 50.339650 38.418581
6718  1  3 0.0000  3.225205 16.378290 11.424581
6719  1  3 0.0000  3.225205 16.378290 27.620981
6720  1  3 0.0000  3.225205 16.378290 43.817381
6721  1  3 0.0000  3.225205 33.358970 11.424581
6722  1  3 0.0000  3.225205 33.358970 27.620981
6723  1  3 0.0000  3.225205 33.358970 43.817381
6724  1  3 0.0000  3.225205 50.339650 11.424581
6725  1  3 0.0000  3.225205 50.339650 27.620981
6726  1  3 0.0000  3.225205 50.339650 43.817381
6727  1  3 0.0000 22.832805 50.339650 11.424581
6728  1  3 0.0000 22.832805 50.339650 27.620981
6729  1  3 0.0000 22.832805 50.339650 43.817381
6730  1  3 0.0000 42.440405 50.339650 11.424581
6731  1  3 0.0000 42.440405 50.339650 27.620981
6732  1  3 0.0000 42.440405 50.339650 43.817381
6733  1  3 0.0000 15.479955  3.642780  0.626981
6734  1  3 0.0000 15.479955  3.642780 16.823381
6735  1  3 0.0000 15.479955  3.642780 33.019781
6736  1  3 0.0000 15.479955 37.604140  0.626981
6737  1  3 0.0000 15.479955 37.604140 16.823381
6738  1  3 0.0000 15.479955 37.604140 33.019781
6739  1  3 0.0000 35.087555  3.642780  0.626981
6740  1  3 0.0000 35.087555  3.642780 16.823381
6741  1  3 0.0000 35.087555  3.642780 33.019781
6742  1  3 0.0000 54.695155  3.642780  0.626981
6743  1  3 0.0000 54.695155  3.642780 16.823381
6744  1  3 0.0000 54.695155  3.642780 33.019781
6745  1  3 0.0000 54.695155 20.623460  0.626981
6746  1  3 0.0000 54.695155 20.623460 16.823381
6747  1  3 0.0000 54.695155 20.623460 33.019781
6748  1  3 0.0000 54.695155 37.604140  0.626981
6749  1  3 0.0000 54.695155 37.604140 16.823381
6750  1  3 0.0000 54.695155 37.604140 33.019781
6751  1  3 0.0000 15.479955  3.642780  6.025781
6752  1  3 0.0000 15.479955  3.642780 22.222181
6753  1  3 0.0000 15.479955  3.642780 38.418581
6754  1  3 0.0000 15.479955 37.604140  6.025781
6755  1  3 0.0000 15.479955 37.604140 22.222181
6756  1  3 0.0000 15.479955 37.604140 38.418581
6757  1  3 0.0000 35.087555  3.642780  6.025781
6758  1  3 0.0000 35.087555  3.642780 22.222181
6759  1  3 0.0000 35.087555  3.642780 38.418581
6760  1  3 0.0000 54.695155  3.642780  6.025781
6761  1  3 0.0000 54.695155  3.642780 22.222181
6762  1  3 0.0000 54.695155  3.642780 38.418581
6763  1  3 0.0000 54.695155 20.623460  6.025781
6764  1  3 0.0000 54.695155 20.623460 22.222181
6765  1  3 0.0000 54.695155 20.623460 38.418581
6766  1  3 0.0000 54.695155 37.604140  6.025781
6767  1  3 0.0000 54.695155 37.604140 22.222181
6768  1  3 0.0000 54.695155 37.604140 38.418581
6769  1  3 0.0000 15.479955  3.642780 11.424581
6770  1  3 0.0000 15.479955  3.642780 27.620981
6771  1  3 0.0000 15.479955  3.642780 43.817381
6772  1  3 0.0000 15.479955 37.604140 11.424581
6773  1  3 0.0000 15.479955 37.604140 27.620981
6774  1  3 0.0000 15.479955 37.604140 43.817381
6775  1  3 0.0000 35.087555  3.642780 11.424581
6776  1  3 0.0000 35.087555  3.642780 27.620981
6777  1  3 0.0000 35.087555  3.642780 43.817381
6778  1  3 0.0000 54.695155  3.642780 11.424581
6779  1  3 0.0000 54.695155  3.642780 27.620981
6780  1  3 0.0000 54.695155  3.642780 43.817381
6781  1  3 0.0000 54.695155 20.623460 11.424581
6782  1  3 0.0000 54.695155 20.623460 27.620981
6783  1  3 0.0000 54.695155 20.623460 43.817381
6784  1  3 0.0000 54.695155 37.604140 11.424581
6785  1  3 0.0000 54.695155 37.604140 27.620981
6786  1  3 0.0000 54.695155 37.604140 43.817381
6787  1  3 0.0000 13.029005  7.887950  0.626981
6788  1  3 0.0000 13.029005  7.887950 16.823381
6789  1  3 0.0000 13.029005  7.887950 33.019781
6790  1  3 0.0000 13.029005 41.849310  0.626981
6791  1  3 0.0000 13.029005 41.849310 16.823381
6792  1  3 0.0000 13.029005 41.849310 33.019781
6793  1  3 0.0000 52.244205  7.887950  0.626981
6794  1  3 0.0000 52.244205  7.887950 16.823381
6795  1  3 0.0000 52.244205  7.887950 33.019781
6796  1  3 0.0000 52.244205 24.868630  0.626981
6797  1  3 0.0000 52.244205 24.868630 16.823381
6798  1  3 0.0000 52.244205 24.868630 33.019781
6799  1  3 0.0000 52.244205 41.849310  0.626981
6800  1  3 0.0000 52.244205 41.849310 16.823381
6801  1  3 0.0000 52.244205 41.849310 33.019781
6802  1  3 0.0000 13.029005  7.887950  6.025781
6803  1  3 0.0000 13.029005  7.887950 22.222181
6804  1  3 0.0000 13.029005  7.887950 38.418581
6805  1  3 0.0000 13.029005 41.849310  6.025781
6806  1  3 0.0000 13.029005 41.849310 22.222181
6807  1  3 0.0000 13.029005 41.849310 38.418581
6808  1  3 0.0000 52.244205  7.887950  6.025781
6809  1  3 0.0000 52.244205  7.887950 22.222181
6810  1  3 0.0000 52.244205  7.887950 38.418581
6811  1  3 0.0000 52.244205 24.868630  6.025781
6812  1  3 0.0000 52.244205 24.868630 22.222181
6813  1  3 0.0000 52.244205 24.868630 38.418581
6814  1  3 0.0000 52.244205 41.849310  6.025781
6815  1  3 0.0000 52.244205 41.849310 22.222181
6816  1  3 0.0000 52.244205 41.849310 38.418581
6817  1  3 0.0000 13.029005  7.887950 11.424581
6818  1  3 0.0000 13.029005  7.887950 27.620981
6819  1  3 0.0000 13.029005  7.887950 43.817381
6820  1  3 0.0000 13.029005 41.849310 11.424581
6821  1  3 0.0000 13.029005 41.849310 27.620981
6822  1  3 0.0000 13.029005 41.849310 43.817381
6823  1  3 0.0000 52.244205  7.887950 11.424581
6824  1  3 0.0000 52.244205  7.887950 27.620981
6825  1  3 0.0000 52.244205  7.887950 43.817381
6826  1  3 0.0000 52.244205 24.868630 11.424581
6827  1  3 0.0000 52.244205 24.868630 27.620981
6828  1  3 0.0000 52.244205 24.868630 43.817381
6829  1  3 0.0000 52.244205 41.849310 11.424581
6830  1  3 0.0000 52.244205 41.849310 27.620981
6831  1  3 0.0000 52.244205 41.849310 43.817381
6832  1  3 0.0000 10.578055 12.133120  0.626981
6833  1  3 0.0000 10.578055 12.133120 16.823381
6834  1  3 0.0000 10.578055 12.133120 33.019781
6835  1  3 0.0000 10.578055 29.113800  0.626981
6836  1  3 0.0000 10.578055 29.113800 16.823381
6837  1  3 0.0000 10.578055 29.113800 33.019781
6838  1  3 0.0000 10.578055 46.094480  0.626981
6839  1  3 0.0000 10.578055 46.094480 16.823381
6840  1  3 0.0000 10.578055 46.094480 33.019781
6841  1  3 0.0000 30.185655 46.094480  0.626981
6842  1  3 0.0000 30.185655 46.094480 16.823381
6843  1  3 0.0000 30.185655 46.094480 33.019781
6844  1  3 0.0000 49.793255 12.133120  0.626981
6845  1  3 0.0000 49.793255 12.133120 16.823381
6846  1  3 0.0000 49.793255 12.133120 33.019781
6847  1  3 0.0000 49.793255 29.113800  0.626981
6848  1  3 0.0000 49.793255 29.113800 16.823381
6849  1  3 0.0000 49.793255 29.113800 33.019781
6850  1  3 0.0000 49.793255 46.094480  0.626981
6851  1  3 0.0000 49.793255 46.094480 16.823381
6852  1  3 0.0000 49.793255 46.094480 33.019781
6853  1  3 0.0000 10.578055 12.133120  6.025781
6854  1  3 0.0000 10.578055 12.133120 22.222181
6855  1  3 0.0000 10.578055 12.133120 38.418581
6856  1  3 0.0000 10.578055 29.113800  6.025781
6857  1  3 0.0000 10.578055 29.113800 22.222181
6858  1  3 0.0000 10.578055 29.113800 38.418581
6859  1  3 0.0000 10.578055 46.094480  6.025781
6860  1  3 0.0000 10.578055 46.094480 22.222181
6861  1  3 0.0000 10.578055 46.094480 38.418581
6862  1  3 0.0000 30.185655 46.094480  6.025781
6863  1  3 0.0000 30.185655 46.094480 22.222181
6864  1  3 0.0000 30.185655 46.094480 38.418581
6865  1  3 0.0000 49.793255 12.133120  6.025781
6866  1  3 0.0000 49.793255 12.133120 22.222181
6867  1  3 0.0000 49.793255 12.133120 38.418581
6868  1  3 0.0000 49.793255 29.113800  6.025781
6869  1  3 0.0000 49.793255 29.113800 22.222181
6870  1  3 0.0000 49.793255 29.113800 38.418581
6871  1  3 0.0000 49.793255 46.094480  6.025781
6872  1  3 0.0000 49.793255 46.094480 22.222181
6873  1  3 0.0000 49.793255 46.094480 38.418581
6874  1  3 0.0000 10.578055 12.133120 11.424581
6875  1  3 0.0000 10.578055 12.133120 27.620981
6876  1  3 0.0000 10.578055 12.133120 43.817381
6877  1  3 0.0000 10.578055 29.113800 11.424581
6878  1  3 0.0000 10.578055 29.113800 27.620981
6879  1  3 0.0000 10.578055 29.113800 43.817381
6880  1  3 0.0000 10.578055 46.094480 11.424581
6881  1  3 0.0000 10.578055 46.094480 27.620981
6882  1  3 0.0000 10.578055 46.094480 43.817381
6883  1  3 0.0000 30.185655 46.094480 11.424581
6884  1  3 0.0000 30.185655 46.094480 27.620981
6885  1  3 0.0000 30.185655 46.094480 43.817381
6886  1  3 0.0000 49.793255 12.133120 11.424581
6887  1  3 0.0000 49.793255 12.133120 27.620981
6888  1  3 0.0000 49.793255 12.133120 43.817381
6889  1  3 0.0000 49.793255 29.113800 11.424581
6890  1  3 0.0000 49.793255 29.113800 27.620981
6891  1  3 0.0000 49.793255 29.113800 43.817381
6892  1  3 0.0000 49.793255 46.094480 11.424581
6893  1  3 0.0000 49.793255 46.094480 27.620981
6894  1  3 0.0000 49.793255 46.094480 43.817381
6895  1  3 0.0000  8.127105 16.378290  0.626981
6896  1  3 0.0000  8.127105 16.378290 16.823381
6897  1  3 0.0000  8.127105 16.378290 33.019781
6898  1  3 0.0000  8.127105 33.358970  0.626981
6899  1  3 0.0000  8.127105 33.358970 16.823381
6900  1  3 0.0000  8.127105 33.358970 33.019781
6901  1  3 0.0000  8.127105 50.339650  0.626981
6902  1  3 0.0000  8.127105 50.339650 16.823381
6903  1  3 0.0000  8.127105 50.339650 33.019781
6904  1  3 0.0000 27.734705 50.339650  0.626981
6905  1  3 0.0000 27.734705 50.339650 16.823381
6906  1  3 0.0000 27.734705 50.339650 33.019781
6907  1  3 0.0000 47.342305 16.378290  0.626981
6908  1  3 0.0000 47.342305 16.378290 16.823381
6909  1  3 0.0000 47.342305 16.378290 33.019781
6910  1  3 0.0000 47.342305 33.358970  0.626981
6911  1  3 0.0000 47.342305 33.358970 16.823381
6912  1  3 0.0000 47.342305 33.358970 33.019781
6913  1  3 0.0000 47.342305 50.339650  0.626981
6914  1  3 0.0000 47.342305 50.339650 16.823381
6915  1  3 0.0000 47.342305 50.339650 33.019781
6916  1  3 0.0000  8.127105 16.378290  6.025781
6917  1  3 0.0000  8.127105 16.378290 22.222181
6918  1  3 0.0000  8.127105 16.378290 38.418581
6919  1  3 0.0000  8.127105 33.358970  6.025781
6920  1  3 0.0000  8.127105 33.358970 22.222181
6921  1  3 0.0000  8.127105 33.358970 38.418581
6922  1  3 0.0000  8.127105 50.339650  6.025781
6923  1  3 0.0000  8.127105 50.339650 22.222181
6924  1  3 0.0000  8.127105 50.339650 38.418581
6925  1  3 0.0000 27.734705 50.339650  6.025781
6926  1  3 0.0000 27.734705 50.339650 22.222181
6927  1  3 0.0000 27.734705 50.339650 38.418581
6928  1  3 0.0000 47.342305 16.378290  6.025781
6929  1  3 0.0000 47.342305 16.378290 22.222181
6930  1  3 0.0000 47.342305 16.378290 38.418581
6931  1  3 0.0000 47.342305 33.358970  6.025781
6932  1  3 0.0000 47.342305 33.358970 22.222181
6933  1  3 0.0000 47.342305 33.358970 38.418581
6934  1  3 0.0000 47.342305 50.339650  6.025781
6935  1  3 0.0000 47.342305 50.339650 22.222181
6936  1  3 0.0000 47.342305 50.339650 38.418581
6937  1  3 0.0000  8.127105 16.378290 11.424581
6938  1  3 0.0000  8.127105 16.378290 27.620981
6939  1  3 0.0000  8.127105 16.378290 43.817381
6940  1  3 0.0000  8.127105 33.358970 11.424581
6941  1  3 0.0000  8.127105 33.358970 27.620981
6942  1  3 0.0000  8.127105 33.358970 43.817381
6943  1  3 0.0000  8.127105 50.339650 11.424581
6944  1  3 0.0000  8.127105 50.339650 27.620981
6945  1  3 0.0000  8.127105 50.339650 43.817381
6946  1  3 0.0000 27.734705 50.339650 11.424581
6947  1  3 0.0000 27.734705 50.339650 27.620981
6948  1  3 0.0000 27.734705 50.339650 43.817381
6949  1  3 0.0000 47.342305 16.378290 11.424581
6950  1  3 0.0000 47.342305 16.378290 27.620981
6951  1  3 0.0000 47.342305 16.378290 43.817381
6952  1  3 0.0000 47.342305 33.358970 11.424581
6953  1  3 0.0000 47.342305 33.358970 27.620981
6954  1  3 0.0000 47.342305 33.358970 43.817381
6955  1  3 0.0000 47.342305 50.339650 11.424581
6956  1  3 0.0000 47.342305 50.339650 27.620981
6957  1  3 0.0000 47.342305 50.339650 43.817381
6958  1  3 0.0000 17.930905  7.887950  0.626981
6959  1  3 0.0000 17.930905  7.887950 16.823381
6960  1  3 0.0000 17.930905  7.887950 33.019781
6961  1  3 0.0000 17.930905 41.849310  0.626981
6962  1  3 0.0000 17.930905 41.849310 16.823381
6963  1  3 0.0000 17.930905 41.849310 33.019781
6964  1  3 0.0000 37.538505  7.887950  0.626981
6965  1  3 0.0000 37.538505  7.887950 16.823381
6966  1  3 0.0000 37.538505  7.887950 33.019781
6967  1  3 0.0000 37.538505 41.849310  0.626981
6968  1  3 0.0000 37.538505 41.849310 16.823381
6969  1  3 0.0000 37.538505 41.849310 33.019781
6970  1  3 0.0000 57.146105  7.887950  0.626981
6971  1  3 0.0000 57.146105  7.887950 16.823381
6972  1  3 0.0000 57.146105  7.887950 33.019781
6973  1  3 0.0000 57.146105 24.868630  0.626981
6974  1  3 0.0000 57.146105 24.868630 16.823381
6975  1  3 0.0000 57.146105 24.868630 33.019781
6976  1  3 0.0000 57.146105 41.849310  0.626981
6977  1  3 0.0000 57.146105 41.849310 16.823381
6978  1  3 0.0000 57.146105 41.849310 33.019781
6979  1  3 0.0000 17.930905  7.887950  6.025781
6980  1  3 0.0000 17.930905  7.887950 22.222181
6981  1  3 0.0000 17.930905  7.887950 38.418581
6982  1  3 0.0000 17.930905 41.849310  6.025781
6983  1  3 0.0000 17.930905 41.849310 22.222181
6984  1  3 0.0000 17.930905 41.849310 38.418581
6985  1  3 0.0000 37.538505  7.887950  6.025781
6986  1  3 0.0000 37.538505  7.887950 22.222181
6987  1  3 0.0000 37.538505  7.887950 38.418581
6988  1  3 0.0000 37.538505 41.849310  6.025781
6989  1  3 0.0000 37.538505 41.849310 22.222181
6990  1  3 0.0000 37.538505 41.849310 38.418581
6991  1  3 0.0000 57.146105  7.887950  6.025781
6992  1  3 0.0000 57.146105  7.887950 22.222181
6993  1  3 0.0000 57.146105  7.887950 38.418581
6994  1  3 0.0000 57.146105 24.868630  6.025781
6995  1  3 0.0000 57.146105 24.868630 22.222181
6996  1  3 0.0000 57.146105 24.868630 38.418581
6997  1  3 0.0000 57.146105 41.849310  6.025781
6998  1  3 0.0000 57.146105 41.849310 22.222181
6999  1  3 0.0000 57.146105 41.849310 38.418581
7000  1  3 0.0000 17.930905  7.887950 11.424581
7001  1  3 0.0000 17.930905  7.887950 27.620981
7002  1  3 0.0000 17.930905  7.887950 43.817381
7003  1  3 0.0000 17.930905 41.849310 11.424581
7004  1  3 0.0000 17.930905 41.849310 27.620981
7005  1  3 0.0000 17.930905 41.849310 43.817381
7006  1  3 0.0000 37.538505  7.887950 11.424581
7007  1  3 0.0000 37.538505  7.887950 27.620981
7008  1  3 0.0000 37.538505  7.887950 43.817381
7009  1  3 0.0000 37.538505 41.849310 11.424581
7010  1  3 0.0000 37.538505 41.849310 27.620981
7011  1  3 0.0000 37.538505 41.849310 43.817381
7012  1  3 0.0000 57.146105  7.887950 11.424581
7013  1  3 0.0000 57.146105  7.887950 27.620981
7014  1  3 0.0000 57.146105  7.887950 43.817381
7015  1  3 0.0000 57.146105 24.868630 11.424581
7016  1  3 0.0000 57.146105 24.868630 27.620981
7017  1  3 0.0000 57.146105 24.868630 43.817381
7018  1  3 0.0000 57.146105 41.849310 11.424581
7019  1  3 0.0000 57.146105 41.849310 27.620981
7020  1  3 0.0000 57.146105 41.849310 43.817381
7021  1  3 0.0000 15.479955 12.133120  0.626981
7022  1  3 0.0000 15.479955 12.133120 16.823381
7023  1  3 0.0000 15.479955 12.133120 33.019781
7024  1  3 0.0000 15.479955 46.094480  0.626981
7025  1  3 0.0000 15.479955 46.094480 16.823381
7026  1  3 0.0000 15.479955 46.094480 33.019781
7027  1  3 0.0000 35.087555 46.094480  0.626981
7028  1  3 0.0000 35.087555 46.094480 16.823381
7029  1  3 0.0000 35.087555 46.094480 33.019781
7030  1  3 0.0000 54.695155 12.133120  0.626981
7031  1  3 0.0000 54.695155 12.133120 16.823381
7032  1  3 0.0000 54.695155 12.133120 33.019781
7033  1  3 0.0000 54.695155 29.113800  0.626981
7034  1  3 0.0000 54.695155 29.113800 16.823381
7035  1  3 0.0000 54.695155 29.113800 33.019781
7036  1  3 0.0000 54.695155 46.094480  0.626981
7037  1  3 0.0000 54.695155 46.094480 16.823381
7038  1  3 0.0000 54.695155 46.094480 33.019781
7039  1  3 0.0000 15.479955 12.133120  6.025781
7040  1  3 0.0000 15.479955 12.133120 22.222181
7041  1  3 0.0000 15.479955 12.133120 38.418581
7042  1  3 0.0000 15.479955 46.094480  6.025781
7043  1  3 0.0000 15.479955 46.094480 22.222181
7044  1  3 0.0000 15.479955 46.094480 38.418581
7045  1  3 0.0000 35.087555 46.094480  6.025781
7046  1  3 0.0000 35.087555 46.094480 22.222181
7047  1  3 0.0000 35.087555 46.094480 38.418581
7048  1  3 0.0000 54.695155 12.133120  6.025781
7049  1  3 0.0000 54.695155 12.133120 22.222181
7050  1  3 0.0000 54.695155 12.133120 38.418581
7051  1  3 0.0000 54.695155 29.113800  6.025781
7052  1  3 0.0000 54.695155 29.113800 22.222181
7053  1  3 0.0000 54.695155 29.113800 38.418581
7054  1  3 0.0000 54.695155 46.094480  6.025781
7055  1  3 0.0000 54.695155 46.094480 22.222181
7056  1  3 0.0000 54.695155 46.094480 38.418581
7057  1  3 0.0000 15.479955 12.133120 11.424581
7058  1  3 0.0000 15.479955 12.133120 27.620981
7059  1  3 0.0000 15.479955 12.133120 43.817381
7060  1  3 0.0000 15.479955 46.094480 11.424581
7061  1  3 0.0000 15.479955 46.094480 27.620981
7062  1  3 0.0000 15.479955 46.094480 43.817381
7063  1  3 0.0000 35.087555 46.094480 11.424581
7064  1  3 0.0000 35.087555 46.094480 27.620981
7065  1  3 0.0000 35.087555 46.094480 43.817381
7066  1  3 0.0000 54.695155 12.133120 11.424581
7067  1  3 0.0000 54.695155 12.133120 27.620981
7068  1  3 0.0000 54.695155 12.133120 43.817381
7069  1  3 0.0000 54.695155 29.113800 11.424581
7070  1  3 0.0000 54.695155 29.113800 27.620981
7071  1  3 0.0000 54.695155 29.113800 43.817381
7072  1  3 0.0000 54.695155 46.094480 11.424581
7073  1  3 0.0000 54.695155 46.094480 27.620981
7074  1  3 0.0000 54.695155 46.094480 43.817381
7075  1  3 0.0000 13.029005 16.378290  0.626981
7076  1  3 0.0000 13.029005 16.378290 16.823381
7077  1  3 0.0000 13.029005 16.378290 33.019781
7078  1  3 0.0000 13.029005 33.358970  0.626981
7079  1  3 0.0000 13.029005 33.358970 16.823381
7080  1  3 0.0000 13.029005 33.358970 33.019781
7081  1  3 0.0000 13.029005 50.339650  0.626981
7082  1  3 0.0000 13.029005 50.339650 16.823381
7083  1  3 0.0000 13.029005 50.339650 33.019781
7084  1  3 0.0000 32.636605 50.339650  0.626981
7085  1  3 0.0000 32.636605 50.339650 16.823381
7086  1  3 0.0000 32.636605 50.339650 33.019781
7087  1  3 0.0000 52.244205 16.378290  0.626981
7088  1  3 0.0000 52.244205 16.378290 16.823381
7089  1  3 0.0000 52.244205 16.378290 33.019781
7090  1  3 0.0000 52.244205 33.358970  0.626981
7091  1  3 0.0000 52.244205 33.358970 16.823381
7092  1  3 0.0000 52.244205 33.358970 33.019781
7093  1  3 0.0000 52.244205 50.339650  0.626981
7094  1  3 0.0000 52.244205 50.339650 16.823381
7095  1  3 0.0000 52.244205 50.339650 33.019781
7096  1  3 0.0000 13.029005 16.378290  6.025781
7097  1  3 0.0000 13.029005 16.378290 22.222181
7098  1  3 0.0000 13.029005 16.378290 38.418581
7099  1  3 0.0000 13.029005 33.358970  6.025781
7100  1  3 0.0000 13.029005 33.358970 22.222181
7101  1  3 0.0000 13.029005 33.358970 38.418581
7102  1  3 0.0000 13.029005 50.339650  6.025781
7103  1  3 0.0000 13.029005 50.339650 22.222181
7104  1  3 0.0000 13.029005 50.339650 38.418581
7105  1  3 0.0000 32.636605 50.339650  6.025781
7106  1  3 0.0000 32.636605 50.339650 22.222181
7107  1  3 0.0000 32.636605 50.339650 38.418581
7108  1  3 0.0000 52.244205 16.378290  6.025781
7109  1  3 0.0000 52.244205 16.378290 22.222181
7110  1  3 0.0000 52.244205 16.378290 38.418581
7111  1  3 0.0000 52.244205 33.358970  6.025781
7112  1  3 0.0000 52.244205 33.358970 22.222181
7113  1  3 0.0000 52.244205 33.358970 38.418581
7114  1  3 0.0000 52.244205 50.339650  6.025781
7115  1  3 0.0000 52.244205 50.339650 22.222181
7116  1  3 0.0000 52.244205 50.339650 38.418581
7117  1  3 0.0000 13.029005 16.378290 11.424581
7118  1  3 0.0000 13.029005 16.378290 27.620981
7119  1  3 0.0000 13.029005 16.378290 43.817381
7120  1  3 0.0000 13.029005 33.358970 11.424581
7121  1  3 0.0000 13.029005 33.358970 27.620981
7122  1  3 0.0000 13.029005 33.358970 43.817381
7123  1  3 0.0000 13.029005 50.339650 11.424581
7124  1  3 0.0000 13.029005 50.339650 27.620981
7125  1  3 0.0000 13.029005 50.339650 43.817381
7126  1  3 0.0000 32.636605 50.339650 11.424581
7127  1  3 0.0000 32.636605 50.339650 27.620981
7128  1  3 0.0000 32.636605 50.339650 43.817381
7129  1  3 0.0000 52.244205 16.378290 11.424581
7130  1  3 0.0000 52.244205 16.378290 27.620981
7131  1  3 0.0000 52.244205 16.378290 43.817381
7132  1  3 0.0000 52.244205 33.358970 11.424581
7133  1  3 0.0000 52.244205 33.358970 27.620981
7134  1  3 0.0000 52.244205 33.358970 43.817381
7135  1  3 0.0000 52.244205 50.339650 11.424581
7136  1  3 0.0000 52.244205 50.339650 27.620981
7137  1  3 0.0000 52.244205 50.339650 43.817381
7138  1  3 0.0000 17.930905 50.339650  0.626981
7139  1  3 0.0000 17.930905 50.339650 16.823381
7140  1  3 0.0000 17.930905 50.339650 33.019781
7141  1  3 0.0000 37.538505 50.339650  0.626981
7142  1  3 0.0000 37.538505 50.339650 16.823381
7143  1  3 0.0000 37.538505 50.339650 33.019781
7144  1  3 0.0000 57.146105 16.378290  0.626981
7145  1  3 0.0000 57.146105 16.378290 16.823381
7146  1  3 0.0000 57.146105 16.378290 33.019781
7147  1  3 0.0000 57.146105 33.358970  0.626981
7148  1  3 0.0000 57.146105 33.358970 16.823381
7149  1  3 0.0000 57.146105 33.358970 33.019781
7150  1  3 0.0000 57.146105 50.339650  0.626981
7151  1  3 0.0000 57.146105 50.339650 16.823381
7152  1  3 0.0000 57.146105 50.339650 33.019781
7153  1  3 0.0000 17.930905 50.339650  6.025781
7154  1  3 0.0000 17.930905 50.339650 22.222181
7155  1  3 0.0000 17.930905 50.339650 38.418581
7156  1  3 0.0000 37.538505 50.339650  6.025781
7157  1  3 0.0000 37.538505 50.339650 22.222181
7158  1  3 0.0000 37.538505 50.339650 38.418581
7159  1  3 0.0000 57.146105 16.378290  6.025781
7160  1  3 0.0000 57.146105 16.378290 22.222181
7161  1  3 0.0000 57.146105 16.378290 38.418581
7162  1  3 0.0000 57.146105 33.358970  6.025781
7163  1  3 0.0000 57.146105 33.358970 22.222181
7164  1  3 0.0000 57.146105 33.358970 38.418581
7165  1  3 0.0000 57.146105 50.339650  6.025781
7166  1  3 0.0000 57.146105 50.339650 22.222181
7167  1  3 0.0000 57.146105 50.339650 38.418581
7168  1  3 0.0000 17.930905 50.339650 11.424581
7169  1  3 0.0000 17.930905 50.339650 27.620981
7170  1  3 0.0000 17.930905 50.339650 43.817381
7171  1  3 0.0000 37.538505 50.339650 11.424581
7172  1  3 0.0000 37.538505 50.339650 27.620981
7173  1  3 0.0000 37.538505 50.339650 43.817381
7174  1  3 0.0000 57.146105 16.378290 11.424581
7175  1  3 0.0000 57.146105 16.378290 27.620981
7176  1  3 0.0000 57.146105 16.378290 43.817381
7177  1  3 0.0000 57.146105 33.358970 11.424581
7178  1  3 0.0000 57.146105 33.358970 27.620981
7179  1  3 0.0000 57.146105 33.358970 43.817381
7180  1  3 0.0000 57.146105 50.339650 11.424581
7181  1  3 0.0000 57.146105 50.339650 27.620981
7182  1  3 0.0000 57.146105 50.339650 43.817381
7183  1  3 0.0000 18.516682  3.094304  2.426581
7184  1  3 0.0000 18.516682  3.094304 18.622981
7185  1  3 0.0000 18.516682  3.094304 34.819381
7186  1  3 0.0000 38.124282  3.094304  2.426581
7187  1  3 0.0000 38.124282  3.094304 18.622981
7188  1  3 0.0000 38.124282  3.094304 34.819381
7189  1  3 0.0000 57.731882  3.094304  2.426581
7190  1  3 0.0000 57.731882  3.094304 18.622981
7191  1  3 0.0000 57.731882  3.094304 34.819381
7192  1  3 0.0000 57.731882 20.074984  2.426581
7193  1  3 0.0000 57.731882 20.074984 18.622981
7194  1  3 0.0000 57.731882 20.074984 34.819381
7195  1  3 0.0000 57.731882 37.055664  2.426581
7196  1  3 0.0000 57.731882 37.055664 18.622981
7197  1  3 0.0000 57.731882 37.055664 34.819381
7198  1  3 0.0000 18.516682  3.094304  7.825381
7199  1  3 0.0000 18.516682  3.094304 24.021781
7200  1  3 0.0000 18.516682  3.094304 40.218181
7201  1  3 0.0000 38.124282  3.094304  7.825381
7202  1  3 0.0000 38.124282  3.094304 24.021781
7203  1  3 0.0000 38.124282  3.094304 40.218181
7204  1  3 0.0000 57.731882  3.094304  7.825381
7205  1  3 0.0000 57.731882  3.094304 24.021781
7206  1  3 0.0000 57.731882  3.094304 40.218181
7207  1  3 0.0000 57.731882 20.074984  7.825381
7208  1  3 0.0000 57.731882 20.074984 24.021781
7209  1  3 0.0000 57.731882 20.074984 40.218181
7210  1  3 0.0000 57.731882 37.055664  7.825381
7211  1  3 0.0000 57.731882 37.055664 24.021781
7212  1  3 0.0000 57.731882 37.055664 40.218181
7213  1  3 0.0000 18.516682  3.094304 13.224181
7214  1  3 0.0000 18.516682  3.094304 29.420581
7215  1  3 0.0000 18.516682  3.094304 45.616981
7216  1  3 0.0000 38.124282  3.094304 13.224181
7217  1  3 0.0000 38.124282  3.094304 29.420581
7218  1  3 0.0000 38.124282  3.094304 45.616981
7219  1  3 0.0000 57.731882  3.094304 13.224181
7220  1  3 0.0000 57.731882  3.094304 29.420581
7221  1  3 0.0000 57.731882  3.094304 45.616981
7222  1  3 0.0000 57.731882 20.074984 13.224181
7223  1  3 0.0000 57.731882 20.074984 29.420581
7224  1  3 0.0000 57.731882 20.074984 45.616981
7225  1  3 0.0000 57.731882 37.055664 13.224181
7226  1  3 0.0000 57.731882 37.055664 29.420581
7227  1  3 0.0000 57.731882 37.055664 45.616981
7228  1  3 0.0000  3.810982  3.094304  2.426581
7229  1  3 0.0000  3.810982  3.094304 18.622981
7230  1  3 0.0000  3.810982  3.094304 34.819381
7231  1  3 0.0000  3.810982 20.074984  2.426581
7232  1  3 0.0000  3.810982 20.074984 18.622981
7233  1  3 0.0000  3.810982 20.074984 34.819381
7234  1  3 0.0000  3.810982 37.055664  2.426581
7235  1  3 0.0000  3.810982 37.055664 18.622981
7236  1  3 0.0000  3.810982 37.055664 34.819381
7237  1  3 0.0000 23.418582  3.094304  2.426581
7238  1  3 0.0000 23.418582  3.094304 18.622981
7239  1  3 0.0000 23.418582  3.094304 34.819381
7240  1  3 0.0000 43.026182  3.094304  2.426581
7241  1  3 0.0000 43.026182  3.094304 18.622981
7242  1  3 0.0000 43.026182  3.094304 34.819381
7243  1  3 0.0000  3.810982  3.094304  7.825381
7244  1  3 0.0000  3.810982  3.094304 24.021781
7245  1  3 0.0000  3.810982  3.094304 40.218181
7246  1  3 0.0000  3.810982 20.074984  7.825381
7247  1  3 0.0000  3.810982 20.074984 24.021781
7248  1  3 0.0000  3.810982 20.074984 40.218181
7249  1  3 0.0000  3.810982 37.055664  7.825381
7250  1  3 0.0000  3.810982 37.055664 24.021781
7251  1  3 0.0000  3.810982 37.055664 40.218181
7252  1  3 0.0000 23.418582  3.094304  7.825381
7253  1  3 0.0000 23.418582  3.094304 24.021781
7254  1  3 0.0000 23.418582  3.094304 40.218181
7255  1  3 0.0000 43.026182  3.094304  7.825381
7256  1  3 0.0000 43.026182  3.094304 24.021781
7257  1  3 0.0000 43.026182  3.094304 40.218181
7258  1  3 0.0000  3.810982  3.094304 13.224181
7259  1  3 0.0000  3.810982  3.094304 29.420581
7260  1  3 0.0000  3.810982  3.094304 45.616981
7261  1  3 0.0000  3.810982 20.074984 13.224181
7262  1  3 0.0000  3.810982 20.074984 29.420581
7263  1  3 0.0000  3.810982 20.074984 45.616981
7264  1  3 0.0000  3.810982 37.055664 13.224181
7265  1  3 0.0000  3.810982 37.055664 29.420581
7266  1  3 0.0000  3.810982 37.055664 45.616981
7267  1  3 0.0000 23.418582  3.094304 13.224181
7268  1  3 0.0000 23.418582  3.094304 29.420581
7269  1  3 0.0000 23.418582  3.094304 45.616981
7270  1  3 0.0000 43.026182  3.094304 13.224181
7271  1  3 0.0000 43.026182  3.094304 29.420581
7272  1  3 0.0000 43.026182  3.094304 45.616981
7273  1  3 0.0000  1.360032  7.339474  2.426581
7274  1  3 0.0000  1.360032  7.339474 18.622981
7275  1  3 0.0000  1.360032  7.339474 34.819381
7276  1  3 0.0000  1.360032 24.320154  2.426581
7277  1  3 0.0000  1.360032 24.320154 18.622981
7278  1  3 0.0000  1.360032 24.320154 34.819381
7279  1  3 0.0000  1.360032 41.300834  2.426581
7280  1  3 0.0000  1.360032 41.300834 18.622981
7281  1  3 0.0000  1.360032 41.300834 34.819381
7282  1  3 0.0000 20.967632  7.339474  2.426581
7283  1  3 0.0000 20.967632  7.339474 18.622981
7284  1  3 0.0000 20.967632  7.339474 34.819381
7285  1  3 0.0000 40.575232  7.339474  2.426581
7286  1  3 0.0000 40.575232  7.339474 18.622981
7287  1  3 0.0000 40.575232  7.339474 34.819381
7288  1  3 0.0000 40.575232 41.300834  2.426581
7289  1  3 0.0000 40.575232 41.300834 18.622981
7290  1  3 0.0000 40.575232 41.300834 34.819381
7291  1  3 0.0000  1.360032  7.339474  7.825381
7292  1  3 0.0000  1.360032  7.339474 24.021781
7293  1  3 0.0000  1.360032  7.339474 40.218181
7294  1  3 0.0000  1.360032 24.320154  7.825381
7295  1  3 0.0000  1.360032 24.320154 24.021781
7296  1  3 0.0000  1.360032 24.320154 40.218181
7297  1  3 0.0000  1.360032 41.300834  7.825381
7298  1  3 0.0000  1.360032 41.300834 24.021781
7299  1  3 0.0000  1.360032 41.300834 40.218181
7300  1  3 0.0000 20.967632  7.339474  7.825381
7301  1  3 0.0000 20.967632  7.339474 24.021781
7302  1  3 0.0000 20.967632  7.339474 40.218181
7303  1  3 0.0000 40.575232  7.339474  7.825381
7304  1  3 0.0000 40.575232  7.339474 24.021781
7305  1  3 0.0000 40.575232  7.339474 40.218181
7306  1  3 0.0000 40.575232 41.300834  7.825381
7307  1  3 0.0000 40.575232 41.300834 24.021781
7308  1  3 0.0000 40.575232 41.300834 40.218181
7309  1  3 0.0000  1.360032  7.339474 13.224181
7310  1  3 0.0000  1.360032  7.339474 29.420581
7311  1  3 0.0000  1.360032  7.339474 45.616981
7312  1  3 0.0000  1.360032 24.320154 13.224181
7313  1  3 0.0000  1.360032 24.320154 29.420581
7314  1  3 0.0000  1.360032 24.320154 45.616981
7315  1  3 0.0000  1.360032 41.300834 13.224181
7316  1  3 0.0000  1.360032 41.300834 29.420581
7317  1  3 0.0000  1.360032 41.300834 45.616981
7318  1  3 0.0000 20.967632  7.339474 13.224181
7319  1  3 0.0000 20.967632  7.339474 29.420581
7320  1  3 0.0000 20.967632  7.339474 45.616981
7321  1  3 0.0000 40.575232  7.339474 13.224181
7322  1  3 0.0000 40.575232  7.339474 29.420581
7323  1  3 0.0000 40.575232  7.339474 45.616981
7324  1  3 0.0000 40.575232 41.300834 13.224181
7325  1  3 0.0000 40.575232 41.300834 29.420581
7326  1  3 0.0000 40.575232 41.300834 45.616981
7327  1  3 0.0000 18.516682 11.584644  2.426581
7328  1  3 0.0000 18.516682 11.584644 18.622981
7329  1  3 0.0000 18.516682 11.584644 34.819381
7330  1  3 0.0000 18.516682 45.546004  2.426581
7331  1  3 0.0000 18.516682 45.546004 18.622981
7332  1  3 0.0000 18.516682 45.546004 34.819381
7333  1  3 0.0000 38.124282 45.546004  2.426581
7334  1  3 0.0000 38.124282 45.546004 18.622981
7335  1  3 0.0000 38.124282 45.546004 34.819381
7336  1  3 0.0000 57.731882 11.584644  2.426581
7337  1  3 0.0000 57.731882 11.584644 18.622981
7338  1  3 0.0000 57.731882 11.584644 34.819381
7339  1  3 0.0000 57.731882 28.565324  2.426581
7340  1  3 0.0000 57.731882 28.565324 18.622981
7341  1  3 0.0000 57.731882 28.565324 34.819381
7342  1  3 0.0000 57.731882 45.546004  2.426581
7343  1  3 0.0000 57.731882 45.546004 18.622981
7344  1  3 0.0000 57.731882 45.546004 34.819381
7345  1  3 0.0000 18.516682 11.584644  7.825381
7346  1  3 0.0000 18.516682 11.584644 24.021781
7347  1  3 0.0000 18.516682 11.584644 40.218181
7348  1  3 0.0000 18.516682 45.546004  7.825381
7349  1  3 0.0000 18.516682 45.546004 24.021781
7350  1  3 0.0000 18.516682 45.546004 40.218181
7351  1  3 0.0000 38.124282 45.546004  7.825381
7352  1  3 0.0000 38.124282 45.546004 24.021781
7353  1  3 0.0000 38.124282 45.546004 40.218181
7354  1  3 0.0000 57.731882 11.584644  7.825381
7355  1  3 0.0000 57.731882 11.584644 24.021781
7356  1  3 0.0000 57.731882 11.584644 40.218181
7357  1  3 0.0000 57.731882 28.565324  7.825381
7358  1  3 0.0000 57.731882 28.565324 24.021781
7359  1  3 0.0000 57.731882 28.565324 40.218181
7360  1  3 0.0000 57.731882 45.546004  7.825381
7361  1  3 0.0000 57.731882 45.546004 24.021781
7362  1  3 0.0000 57.731882 45.546004 40.218181
7363  1  3 0.0000 18.516682 11.584644 13.224181
7364  1  3 0.0000 18.516682 11.584644 29.420581
7365  1  3 0.0000 18.516682 11.584644 45.616981
7366  1  3 0.0000 18.516682 45.546004 13.224181
7367  1  3 0.0000 18.516682 45.546004 29.420581
7368  1  3 0.0000 18.516682 45.546004 45.616981
7369  1  3 0.0000 38.124282 45.546004 13.224181
7370  1  3 0.0000 38.124282 45.546004 29.420581
7371  1  3 0.0000 38.124282 45.546004 45.616981
7372  1  3 0.0000 57.731882 11.584644 13.224181
7373  1  3 0.0000 57.731882 11.584644 29.420581
7374  1  3 0.0000 57.731882 11.584644 45.616981
7375  1  3 0.0000 57.731882 28.565324 13.224181
7376  1  3 0.0000 57.731882 28.565324 29.420581
7377  1  3 0.0000 57.731882 28.565324 45.616981
7378  1  3 0.0000 57.731882 45.546004 13.224181
7379  1  3 0.0000 57.731882 45.546004 29.420581
7380  1  3 0.0000 57.731882 45.546004 45.616981
7381  1  3 0.0000  8.712882  3.094304  2.426581
7382  1  3 0.0000  8.712882  3.094304 18.622981
7383  1  3 0.0000  8.712882  3.094304 34.819381
7384  1  3 0.0000  8.712882 20.074984  2.426581
7385  1  3 0.0000  8.712882 20.074984 18.622981
7386  1  3 0.0000  8.712882 20.074984 34.819381
7387  1  3 0.0000  8.712882 37.055664  2.426581
7388  1  3 0.0000  8.712882 37.055664 18.622981
7389  1  3 0.0000  8.712882 37.055664 34.819381
7390  1  3 0.0000 28.320482  3.094304  2.426581
7391  1  3 0.0000 28.320482  3.094304 18.622981
7392  1  3 0.0000 28.320482  3.094304 34.819381
7393  1  3 0.0000 47.928082  3.094304  2.426581
7394  1  3 0.0000 47.928082  3.094304 18.622981
7395  1  3 0.0000 47.928082  3.094304 34.819381
7396  1  3 0.0000 47.928082 20.074984  2.426581
7397  1  3 0.0000 47.928082 20.074984 18.622981
7398  1  3 0.0000 47.928082 20.074984 34.819381
7399  1  3 0.0000 47.928082 37.055664  2.426581
7400  1  3 0.0000 47.928082 37.055664 18.622981
7401  1  3 0.0000 47.928082 37.055664 34.819381
7402  1  3 0.0000  8.712882  3.094304  7.825381
7403  1  3 0.0000  8.712882  3.094304 24.021781
7404  1  3 0.0000  8.712882  3.094304 40.218181
7405  1  3 0.0000  8.712882 20.074984  7.825381
7406  1  3 0.0000  8.712882 20.074984 24.021781
7407  1  3 0.0000  8.712882 20.074984 40.218181
7408  1  3 0.0000  8.712882 37.055664  7.825381
7409  1  3 0.0000  8.712882 37.055664 24.021781
7410  1  3 0.0000  8.712882 37.055664 40.218181
7411  1  3 0.0000 28.320482  3.094304  7.825381
7412  1  3 0.0000 28.320482  3.094304 24.021781
7413  1  3 0.0000 28.320482  3.094304 40.218181
7414  1  3 0.0000 47.928082  3.094304  7.825381
7415  1  3 0.0000 47.928082  3.094304 24.021781
7416  1  3 0.0000 47.928082  3.094304 40.218181
7417  1  3 0.0000 47.928082 20.074984  7.825381
7418  1  3 0.0000 47.928082 20.074984 24.021781
7419  1  3 0.0000 47.928082 20.074984 40.218181
7420  1  3 0.0000 47.928082 37.055664  7.825381
7421  1  3 0.0000 47.928082 37.055664 24.021781
7422  1  3 0.0000 47.928082 37.055664 40.218181
7423  1  3 0.0000  8.712882  3.094304 13.224181
7424  1  3 0.0000  8.712882  3.094304 29.420581
7425  1  3 0.0000  8.712882  3.094304 45.616981
7426  1  3 0.0000  8.712882 20.074984 13.224181
7427  1  3 0.0000  8.712882 20.074984 29.420581
7428  1  3 0.0000  8.712882 20.074984 45.616981
7429  1  3 0.0000  8.712882 37.055664 13.224181
7430  1  3 0.0000  8.712882 37.055664 29.420581
7431  1  3 0.0000  8.712882 37.055664 45.616981
7432  1  3 0.0000 28.320482  3.094304 13.224181
7433  1  3 0.0000 28.320482  3.094304 29.420581
7434  1  3 0.0000 28.320482  3.094304 45.616981
7435  1  3 0.0000 47.928082  3.094304 13.224181
7436  1  3 0.0000 47.928082  3.094304 29.420581
7437  1  3 0.0000 47.928082  3.094304 45.616981
7438  1  3 0.0000 47.928082 20.074984 13.224181
7439  1  3 0.0000 47.928082 20.074984 29.420581
7440  1  3 0.0000 47.928082 20.074984 45.616981
7441  1  3 0.0000 47.928082 37.055664 13.224181
7442  1  3 0.0000 47.928082 37.055664 29.420581
7443  1  3 0.0000 47.928082 37.055664 45.616981
7444  1  3 0.0000  6.261932  7.339474  2.426581
7445  1  3 0.0000  6.261932  7.339474 18.622981
7446  1  3 0.0000  6.261932  7.339474 34.819381
7447  1  3 0.0000  6.261932 24.320154  2.426581
7448  1  3 0.0000  6.261932 24.320154 18.622981
7449  1  3 0.0000  6.261932 24.320154 34.819381
7450  1  3 0.0000  6.261932 41.300834  2.426581
7451  1  3 0.0000  6.261932 41.300834 18.622981
7452  1  3 0.0000  6.261932 41.300834 34.819381
7453  1  3 0.0000 25.869532  7.339474  2.426581
7454  1  3 0.0000 25.869532  7.339474 18.622981
7455  1  3 0.0000 25.869532  7.339474 34.819381
7456  1  3 0.0000 45.477132  7.339474  2.426581
7457  1  3 0.0000 45.477132  7.339474 18.622981
7458  1  3 0.0000 45.477132  7.339474 34.819381
7459  1  3 0.0000 45.477132 41.300834  2.426581
7460  1  3 0.0000 45.477132 41.300834 18.622981
7461  1  3 0.0000 45.477132 41.300834 34.819381
7462  1  3 0.0000  6.261932  7.339474  7.825381
7463  1  3 0.0000  6.261932  7.339474 24.021781
7464  1  3 0.0000  6.261932  7.339474 40.218181
7465  1  3 0.0000  6.261932 24.320154  7.825381
7466  1  3 0.0000  6.261932 24.320154 24.021781
7467  1  3 0.0000  6.261932 24.320154 40.218181
7468  1  3 0.0000  6.261932 41.300834  7.825381
7469  1  3 0.0000  6.261932 41.300834 24.021781
7470  1  3 0.0000  6.261932 41.300834 40.218181
7471  1  3 0.0000 25.869532  7.339474  7.825381
7472  1  3 0.0000 25.869532  7.339474 24.021781
7473  1  3 0.0000 25.869532  7.339474 40.218181
7474  1  3 0.0000 45.477132  7.339474  7.825381
7475  1  3 0.0000 45.477132  7.339474 24.021781
7476  1  3 0.0000 45.477132  7.339474 40.218181
7477  1  3 0.0000 45.477132 41.300834  7.825381
7478  1  3 0.0000 45.477132 41.300834 24.021781
7479  1  3 0.0000 45.477132 41.300834 40.218181
7480  1  3 0.0000  6.261932  7.339474 13.224181
7481  1  3 0.0000  6.261932  7.339474 29.420581
7482  1  3 0.0000  6.261932  7.339474 45.616981
7483  1  3 0.0000  6.261932 24.320154 13.224181
7484  1  3 0.0000  6.261932 24.320154 29.420581
7485  1  3 0.0000  6.261932 24.320154 45.616981
7486  1  3 0.0000  6.261932 41.300834 13.224181
7487  1  3 0.0000  6.261932 41.300834 29.420581
7488  1  3 0.0000  6.261932 41.300834 45.616981
7489  1  3 0.0000 25.869532  7.339474 13.224181
7490  1  3 0.0000 25.869532  7.339474 29.420581
7491  1  3 0.0000 25.869532  7.339474 45.616981
7492  1  3 0.0000 45.477132  7.339474 13.224181
7493  1  3 0.0000 45.477132  7.339474 29.420581
7494  1  3 0.0000 45.477132  7.339474 45.616981
7495  1  3 0.0000 45.477132 41.300834 13.224181
7496  1  3 0.0000 45.477132 41.300834 29.420581
7497  1  3 0.0000 45.477132 41.300834 45.616981
7498  1  3 0.0000  3.810982 11.584644  2.426581
7499  1  3 0.0000  3.810982 11.584644 18.622981
7500  1  3 0.0000  3.810982 11.584644 34.819381
7501  1  3 0.0000  3.810982 28.565324  2.426581
7502  1  3 0.0000  3.810982 28.565324 18.622981
7503  1  3 0.0000  3.810982 28.565324 34.819381
7504  1  3 0.0000  3.810982 45.546004  2.426581
7505  1  3 0.0000  3.810982 45.546004 18.622981
7506  1  3 0.0000  3.810982 45.546004 34.819381
7507  1  3 0.0000 23.418582 45.546004  2.426581
7508  1  3 0.0000 23.418582 45.546004 18.622981
7509  1  3 0.0000 23.418582 45.546004 34.819381
7510  1  3 0.0000 43.026182 11.584644  2.426581
7511  1  3 0.0000 43.026182 11.584644 18.622981
7512  1  3 0.0000 43.026182 11.584644 34.819381
7513  1  3 0.0000 43.026182 45.546004  2.426581
7514  1  3 0.0000 43.026182 45.546004 18.622981
7515  1  3 0.0000 43.026182 45.546004 34.819381
7516  1  3 0.0000  3.810982 11.584644  7.825381
7517  1  3 0.0000  3.810982 11.584644 24.021781
7518  1  3 0.0000  3.810982 11.584644 40.218181
7519  1  3 0.0000  3.810982 28.565324  7.825381
7520  1  3 0.0000  3.810982 28.565324 24.021781
7521  1  3 0.0000  3.810982 28.565324 40.218181
7522  1  3 0.0000  3.810982 45.546004  7.825381
7523  1  3 0.0000  3.810982 45.546004 24.021781
7524  1  3 0.0000  3.810982 45.546004 40.218181
7525  1  3 0.0000 23.418582 45.546004  7.825381
7526  1  3 0.0000 23.418582 45.546004 24.021781
7527  1  3 0.0000 23.418582 45.546004 40.218181
7528  1  3 0.0000 43.026182 11.584644  7.825381
7529  1  3 0.0000 43.026182 11.584644 24.021781
7530  1  3 0.0000 43.026182 11.584644 40.218181
7531  1  3 0.0000 43.026182 45.546004  7.825381
7532  1  3 0.0000 43.026182 45.546004 24.021781
7533  1  3 0.0000 43.026182 45.546004 40.218181
7534  1  3 0.0000  3.810982 11.584644 13.224181
7535  1  3 0.0000  3.810982 11.584644 29.420581
7536  1  3 0.0000  3.810982 11.584644 45.616981
7537  1  3 0.0000  3.810982 28.565324 13.224181
7538  1  3 0.0000  3.810982 28.565324 29.420581
7539  1  3 0.0000  3.810982 28.565324 45.616981
7540  1  3 0.0000  3.810982 45.546004 13.224181
7541  1  3 0.0000  3.810982 45.546004 29.420581
7542  1  3 0.0000  3.810982 45.546004 45.616981
7543  1  3 0.0000 23.418582 45.546004 13.224181
7544  1  3 0.0000 23.418582 45.546004 29.420581
7545  1  3 0.0000 23.418582 45.546004 45.616981
7546  1  3 0.0000 43.026182 11.584644 13.224181
7547  1  3 0.0000 43.026182 11.584644 29.420581
7548  1  3 0.0000 43.026182 11.584644 45.616981
7549  1  3 0.0000 43.026182 45.546004 13.224181
7550  1  3 0.0000 43.026182 45.546004 29.420581
7551  1  3 0.0000 43.026182 45.546004 45.616981
7552  1  3 0.0000  1.360032 15.829814  2.426581
7553  1  3 0.0000  1.360032 15.829814 18.622981
7554  1  3 0.0000  1.360032 15.829814 34.819381
7555  1  3 0.0000  1.360032 32.810494  2.426581
7556  1  3 0.0000  1.360032 32.810494 18.622981
7557  1  3 0.0000  1.360032 32.810494 34.819381
7558  1  3 0.0000  1.360032 49.791174  2.426581
7559  1  3 0.0000  1.360032 49.791174 18.622981
7560  1  3 0.0000  1.360032 49.791174 34.819381
7561  1  3 0.0000 20.967632 49.791174  2.426581
7562  1  3 0.0000 20.967632 49.791174 18.622981
7563  1  3 0.0000 20.967632 49.791174 34.819381
7564  1  3 0.0000 40.575232 49.791174  2.426581
7565  1  3 0.0000 40.575232 49.791174 18.622981
7566  1  3 0.0000 40.575232 49.791174 34.819381
7567  1  3 0.0000  1.360032 15.829814  7.825381
7568  1  3 0.0000  1.360032 15.829814 24.021781
7569  1  3 0.0000  1.360032 15.829814 40.218181
7570  1  3 0.0000  1.360032 32.810494  7.825381
7571  1  3 0.0000  1.360032 32.810494 24.021781
7572  1  3 0.0000  1.360032 32.810494 40.218181
7573  1  3 0.0000  1.360032 49.791174  7.825381
7574  1  3 0.0000  1.360032 49.791174 24.021781
7575  1  3 0.0000  1.360032 49.791174 40.218181
7576  1  3 0.0000 20.967632 49.791174  7.825381
7577  1  3 0.0000 20.967632 49.791174 24.021781
7578  1  3 0.0000 20.967632 49.791174 40.218181
7579  1  3 0.0000 40.575232 49.791174  7.825381
7580  1  3 0.0000 40.575232 49.791174 24.021781
7581  1  3 0.0000 40.575232 49.791174 40.218181
7582  1  3 0.0000  1.360032 15.829814 13.224181
7583  1  3 0.0000  1.360032 15.829814 29.420581
7584  1  3 0.0000  1.360032 15.829814 45.616981
7585  1  3 0.0000  1.360032 32.810494 13.224181
7586  1  3 0.0000  1.360032 32.810494 29.420581
7587  1  3 0.0000  1.360032 32.810494 45.616981
7588  1  3 0.0000  1.360032 49.791174 13.224181
7589  1  3 0.0000  1.360032 49.791174 29.420581
7590  1  3 0.0000  1.360032 49.791174 45.616981
7591  1  3 0.0000 20.967632 49.791174 13.224181
7592  1  3 0.0000 20.967632 49.791174 29.420581
7593  1  3 0.0000 20.967632 49.791174 45.616981
7594  1  3 0.0000 40.575232 49.791174 13.224181
7595  1  3 0.0000 40.575232 49.791174 29.420581
7596  1  3 0.0000 40.575232 49.791174 45.616981
7597  1  3 0.0000 13.614782  3.094304  2.426581
7598  1  3 0.0000 13.614782  3.094304 18.622981
7599  1  3 0.0000 13.614782  3.094304 34.819381
7600  1  3 0.0000 13.614782 37.055664  2.426581
7601  1  3 0.0000 13.614782 37.055664 18.622981
7602  1  3 0.0000 13.614782 37.055664 34.819381
7603  1  3 0.0000 33.222382  3.094304  2.426581
7604  1  3 0.0000 33.222382  3.094304 18.622981
7605  1  3 0.0000 33.222382  3.094304 34.819381
7606  1  3 0.0000 52.829982  3.094304  2.426581
7607  1  3 0.0000 52.829982  3.094304 18.622981
7608  1  3 0.0000 52.829982  3.094304 34.819381
7609  1  3 0.0000 52.829982 20.074984  2.426581
7610  1  3 0.0000 52.829982 20.074984 18.622981
7611  1  3 0.0000 52.829982 20.074984 34.819381
7612  1  3 0.0000 52.829982 37.055664  2.426581
7613  1  3 0.0000 52.829982 37.055664 18.622981
7614  1  3 0.0000 52.829982 37.055664 34.819381
7615  1  3 0.0000 13.614782  3.094304  7.825381
7616  1  3 0.0000 13.614782  3.094304 24.021781
7617  1  3 0.0000 13.614782  3.094304 40.218181
7618  1  3 0.0000 13.614782 37.055664  7.825381
7619  1  3 0.0000 13.614782 37.055664 24.021781
7620  1  3 0.0000 13.614782 37.055664 40.218181
7621  1  3 0.0000 33.222382  3.094304  7.825381
7622  1  3 0.0000 33.222382  3.094304 24.021781
7623  1  3 0.0000 33.222382  3.094304 40.218181
7624  1  3 0.0000 52.829982  3.094304  7.825381
7625  1  3 0.0000 52.829982  3.094304 24.021781
7626  1  3 0.0000 52.829982  3.094304 40.218181
7627  1  3 0.0000 52.829982 20.074984  7.825381
7628  1  3 0.0000 52.829982 20.074984 24.021781
7629  1  3 0.0000 52.829982 20.074984 40.218181
7630  1  3 0.0000 52.829982 37.055664  7.825381
7631  1  3 0.0000 52.829982 37.055664 24.021781
7632  1  3 0.0000 52.829982 37.055664 40.218181
7633  1  3 0.0000 13.614782  3.094304 13.224181
7634  1  3 0.0000 13.614782  3.094304 29.420581
7635  1  3 0.0000 13.614782  3.094304 45.616981
7636  1  3 0.0000 13.614782 37.055664 13.224181
7637  1  3 0.0000 13.614782 37.055664 29.420581
7638  1  3 0.0000 13.614782 37.055664 45.616981
7639  1  3 0.0000 33.222382  3.094304 13.224181
7640  1  3 0.0000 33.222382  3.094304 29.420581
7641  1  3 0.0000 33.222382  3.094304 45.616981
7642  1  3 0.0000 52.829982  3.094304 13.224181
7643  1  3 0.0000 52.829982  3.094304 29.420581
7644  1  3 0.0000 52.829982  3.094304 45.616981
7645  1  3 0.0000 52.829982 20.074984 13.224181
7646  1  3 0.0000 52.829982 20.074984 29.420581
7647  1  3 0.0000 52.829982 20.074984 45.616981
7648  1  3 0.0000 52.829982 37.055664 13.224181
7649  1  3 0.0000 52.829982 37.055664 29.420581
7650  1  3 0.0000 52.829982 37.055664 45.616981
7651  1  3 0.0000 11.163832  7.339474  2.426581
7652  1  3 0.0000 11.163832  7.339474 18.622981
7653  1  3 0.0000 11.163832  7.339474 34.819381
7654  1  3 0.0000 11.163832 24.320154  2.426581
7655  1  3 0.0000 11.163832 24.320154 18.622981
7656  1  3 0.0000 11.163832 24.320154 34.819381
7657  1  3 0.0000 11.163832 41.300834  2.426581
7658  1  3 0.0000 11.163832 41.300834 18.622981
7659  1  3 0.0000 11.163832 41.300834 34.819381
7660  1  3 0.0000 30.771432  7.339474  2.426581
7661  1  3 0.0000 30.771432  7.339474 18.622981
7662  1  3 0.0000 30.771432  7.339474 34.819381
7663  1  3 0.0000 50.379032  7.339474  2.426581
7664  1  3 0.0000 50.379032  7.339474 18.622981
7665  1  3 0.0000 50.379032  7.339474 34.819381
7666  1  3 0.0000 50.379032 24.320154  2.426581
7667  1  3 0.0000 50.379032 24.320154 18.622981
7668  1  3 0.0000 50.379032 24.320154 34.819381
7669  1  3 0.0000 50.379032 41.300834  2.426581
7670  1  3 0.0000 50.379032 41.300834 18.622981
7671  1  3 0.0000 50.379032 41.300834 34.819381
7672  1  3 0.0000 11.163832  7.339474  7.825381
7673  1  3 0.0000 11.163832  7.339474 24.021781
7674  1  3 0.0000 11.163832  7.339474 40.218181
7675  1  3 0.0000 11.163832 24.320154  7.825381
7676  1  3 0.0000 11.163832 24.320154 24.021781
7677  1  3 0.0000 11.163832 24.320154 40.218181
7678  1  3 0.0000 11.163832 41.300834  7.825381
7679  1  3 0.0000 11.163832 41.300834 24.021781
7680  1  3 0.0000 11.163832 41.300834 40.218181
7681  1  3 0.0000 30.771432  7.339474  7.825381
7682  1  3 0.0000 30.771432  7.339474 24.021781
7683  1  3 0.0000 30.771432  7.339474 40.218181
7684  1  3 0.0000 50.379032  7.339474  7.825381
7685  1  3 0.0000 50.379032  7.339474 24.021781
7686  1  3 0.0000 50.379032  7.339474 40.218181
7687  1  3 0.0000 50.379032 24.320154  7.825381
7688  1  3 0.0000 50.379032 24.320154 24.021781
7689  1  3 0.0000 50.379032 24.320154 40.218181
7690  1  3 0.0000 50.379032 41.300834  7.825381
7691  1  3 0.0000 50.379032 41.300834 24.021781
7692  1  3 0.0000 50.379032 41.300834 40.218181
7693  1  3 0.0000 11.163832  7.339474 13.224181
7694  1  3 0.0000 11.163832  7.339474 29.420581
7695  1  3 0.0000 11.163832  7.339474 45.616981
7696  1  3 0.0000 11.163832 24.320154 13.224181
7697  1  3 0.0000 11.163832 24.320154 29.420581
7698  1  3 0.0000 11.163832 24.320154 45.616981
7699  1  3 0.0000 11.163832 41.300834 13.224181
7700  1  3 0.0000 11.163832 41.300834 29.420581
7701  1  3 0.0000 11.163832 41.300834 45.616981
7702  1  3 0.0000 30.771432  7.339474 13.224181
7703  1  3 0.0000 30.771432  7.339474 29.420581
7704  1  3 0.0000 30.771432  7.339474 45.616981
7705  1  3 0.0000 50.379032  7.339474 13.224181
7706  1  3 0.0000 50.379032  7.339474 29.420581
7707  1  3 0.0000 50.379032  7.339474 45.616981
7708  1  3 0.0000 50.379032 24.320154 13.224181
7709  1  3 0.0000 50.379032 24.320154 29.420581
7710  1  3 0.0000 50.379032 24.320154 45.616981
7711  1  3 0.0000 50.379032 41.300834 13.224181
7712  1  3 0.0000 50.379032 41.300834 29.420581
7713  1  3 0.0000 50.379032 41.300834 45.616981
7714  1  3 0.0000  8.712882 11.584644  2.426581
7715  1  3 0.0000  8.712882 11.584644 18.622981
7716  1  3 0.0000  8.712882 11.584644 34.819381
7717  1  3 0.0000  8.712882 28.565324  2.426581
7718  1  3 0.0000  8.712882 28.565324 18.622981
7719  1  3 0.0000  8.712882 28.565324 34.819381
7720  1  3 0.0000  8.712882 45.546004  2.426581
7721  1  3 0.0000  8.712882 45.546004 18.622981
7722  1  3 0.0000  8.712882 45.546004 34.819381
7723  1  3 0.0000 28.320482 45.546004  2.426581
7724  1  3 0.0000 28.320482 45.546004 18.622981
7725  1  3 0.0000 28.320482 45.546004 34.819381
7726  1  3 0.0000 47.928082 11.584644  2.426581
7727  1  3 0.0000 47.928082 11.584644 18.622981
7728  1  3 0.0000 47.928082 11.584644 34.819381
7729  1  3 0.0000 47.928082 28.565324  2.426581
7730  1  3 0.0000 47.928082 28.565324 18.622981
7731  1  3 0.0000 47.928082 28.565324 34.819381
7732  1  3 0.0000 47.928082 45.546004  2.426581
7733  1  3 0.0000 47.928082 45.546004 18.622981
7734  1  3 0.0000 47.928082 45.546004 34.819381
7735  1  3 0.0000  8.712882 11.584644  7.825381
7736  1  3 0.0000  8.712882 11.584644 24.021781
7737  1  3 0.0000  8.712882 11.584644 40.218181
7738  1  3 0.0000  8.712882 28.565324  7.825381
7739  1  3 0.0000  8.712882 28.565324 24.021781
7740  1  3 0.0000  8.712882 28.565324 40.218181
7741  1  3 0.0000  8.712882 45.546004  7.825381
7742  1  3 0.0000  8.712882 45.546004 24.021781
7743  1  3 0.0000  8.712882 45.546004 40.218181
7744  1  3 0.0000 28.320482 45.546004  7.825381
7745  1  3 0.0000 28.320482 45.546004 24.021781
7746  1  3 0.0000 28.320482 45.546004 40.218181
7747  1  3 0.0000 47.928082 11.584644  7.825381
7748  1  3 0.0000 47.928082 11.584644 24.021781
7749  1  3 0.0000 47.928082 11.584644 40.218181
7750  1  3 0.0000 47.928082 28.565324  7.825381
7751  1  3 0.0000 47.928082 28.565324 24.021781
7752  1  3 0.0000 47.928082 28.565324 40.218181
7753  1  3 0.0000 47.928082 45.546004  7.825381
7754  1  3 0.0000 47.928082 45.546004 24.021781
7755  1  3 0.0000 47.928082 45.546004 40.218181
7756  1  3 0.0000  8.712882 11.584644 13.224181
7757  1  3 0.0000  8.712882 11.584644 29.420581
7758  1  3 0.0000  8.712882 11.584644 45.616981
7759  1  3 0.0000  8.712882 28.565324 13.224181
7760  1  3 0.0000  8.712882 28.565324 29.420581
7761  1  3 0.0000  8.712882 28.565324 45.616981
7762  1  3 0.0000  8.712882 45.546004 13.224181
7763  1  3 0.0000  8.712882 45.546004 29.420581
7764  1  3 0.0000  8.712882 45.546004 45.616981
7765  1  3 0.0000 28.320482 45.546004 13.224181
7766  1  3 0.0000 28.320482 45.546004 29.420581
7767  1  3 0.0000 28.320482 45.546004 45.616981
7768  1  3 0.0000 47.928082 11.584644 13.224181
7769  1  3 0.0000 47.928082 11.584644 29.420581
7770  1  3 0.0000 47.928082 11.584644 45.616981
7771  1  3 0.0000 47.928082 28.565324 13.224181
7772  1  3 0.0000 47.928082 28.565324 29.420581
7773  1  3 0.0000 47.928082 28.565324 45.616981
7774  1  3 0.0000 47.928082 45.546004 13.224181
7775  1  3 0.0000 47.928082 45.546004 29.420581
7776  1  3 0.0000 47.928082 45.546004 45.616981
7777  1  3 0.0000  6.261932 15.829814  2.426581
7778  1  3 0.0000  6.261932 15.829814 18.622981
7779  1  3 0.0000  6.261932 15.829814 34.819381
7780  1  3 0.0000  6.261932 32.810494  2.426581
7781  1  3 0.0000  6.261932 32.810494 18.622981
7782  1  3 0.0000  6.261932 32.810494 34.819381
7783  1  3 0.0000  6.261932 49.791174  2.426581
7784  1  3 0.0000  6.261932 49.791174 18.622981
7785  1  3 0.0000  6.261932 49.791174 34.819381
7786  1  3 0.0000 25.869532 49.791174  2.426581
7787  1  3 0.0000 25.869532 49.791174 18.622981
7788  1  3 0.0000 25.869532 49.791174 34.819381
7789  1  3 0.0000 45.477132 15.829814  2.426581
7790  1  3 0.0000 45.477132 15.829814 18.622981
7791  1  3 0.0000 45.477132 15.829814 34.819381
7792  1  3 0.0000 45.477132 49.791174  2.426581
7793  1  3 0.0000 45.477132 49.791174 18.622981
7794  1  3 0.0000 45.477132 49.791174 34.819381
7795  1  3 0.0000  6.261932 15.829814  7.825381
7796  1  3 0.0000  6.261932 15.829814 24.021781
7797  1  3 0.0000  6.261932 15.829814 40.218181
7798  1  3 0.0000  6.261932 32.810494  7.825381
7799  1  3 0.0000  6.261932 32.810494 24.021781
7800  1  3 0.0000  6.261932 32.810494 40.218181
7801  1  3 0.0000  6.261932 49.791174  7.825381
7802  1  3 0.0000  6.261932 49.791174 24.021781
7803  1  3 0.0000  6.261932 49.791174 40.218181
7804  1  3 0.0000 25.869532 49.791174  7.825381
7805  1  3 0.0000 25.869532 49.791174 24.021781
7806  1  3 0.0000 25.869532 49.791174 40.218181
7807  1  3 0.0000 45.477132 15.829814  7.825381
7808  1  3 0.0000 45.477132 15.829814 24.021781
7809  1  3 0.0000 45.477132 15.829814 40.218181
7810  1  3 0.0000 45.477132 49.791174  7.825381
7811  1  3 0.0000 45.477132 49.791174 24.021781
7812  1  3 0.0000 45.477132 49.791174 40.218181
7813  1  3 0.0000  6.261932 15.829814 13.224181
7814  1  3 0.0000  6.261932 15.829814 29.420581
7815  1  3 0.0000  6.261932 15.829814 45.616981
7816  1  3 0.0000  6.261932 32.810494 13.224181
7817  1  3 0.0000  6.261932 32.810494 29.420581
7818  1  3 0.0000  6.261932 32.810494 45.616981
7819  1  3 0.0000  6.261932 49.791174 13.224181
7820  1  3 0.0000  6.261932 49.791174 29.420581
7821  1  3 0.0000  6.261932 49.791174 45.616981
7822  1  3 0.0000 25.869532 49.791174 13.224181
7823  1  3 0.0000 25.869532 49.791174 29.420581
7824  1  3 0.0000 25.869532 49.791174 45.616981
7825  1  3 0.0000 45.477132 15.829814 13.224181
7826  1  3 0.0000 45.477132 15.829814 29.420581
7827  1  3 0.0000 45.477132 15.829814 45.616981
7828  1  3 0.0000 45.477132 49.791174 13.224181
7829  1  3 0.0000 45.477132 49.791174 29.420581
7830  1  3 0.0000 45.477132 49.791174 45.616981
7831  1  3 0.0000 16.065732  7.339474  2.426581
7832  1  3 0.0000 16.065732  7.339474 18.622981
7833  1  3 0.0000 16.065732  7.339474 34.819381
7834  1  3 0.0000 16.065732 41.300834  2.426581
7835  1  3 0.0000 16.065732 41.300834 18.622981
7836  1  3 0.0000 16.065732 41.300834 34.819381
7837  1  3 0.0000 35.673332  7.339474  2.426581
7838  1  3 0.0000 35.673332  7.339474 18.622981
7839  1  3 0.0000 35.673332  7.339474 34.819381
7840  1  3 0.0000 55.280932  7.339474  2.426581
7841  1  3 0.0000 55.280932  7.339474 18.622981
7842  1  3 0.0000 55.280932  7.339474 34.819381
7843  1  3 0.0000 55.280932 24.320154  2.426581
7844  1  3 0.0000 55.280932 24.320154 18.622981
7845  1  3 0.0000 55.280932 24.320154 34.819381
7846  1  3 0.0000 55.280932 41.300834  2.426581
7847  1  3 0.0000 55.280932 41.300834 18.622981
7848  1  3 0.0000 55.280932 41.300834 34.819381
7849  1  3 0.0000 16.065732  7.339474  7.825381
7850  1  3 0.0000 16.065732  7.339474 24.021781
7851  1  3 0.0000 16.065732  7.339474 40.218181
7852  1  3 0.0000 16.065732 41.300834  7.825381
7853  1  3 0.0000 16.065732 41.300834 24.021781
7854  1  3 0.0000 16.065732 41.300834 40.218181
7855  1  3 0.0000 35.673332  7.339474  7.825381
7856  1  3 0.0000 35.673332  7.339474 24.021781
7857  1  3 0.0000 35.673332  7.339474 40.218181
7858  1  3 0.0000 55.280932  7.339474  7.825381
7859  1  3 0.0000 55.280932  7.339474 24.021781
7860  1  3 0.0000 55.280932  7.339474 40.218181
7861  1  3 0.0000 55.280932 24.320154  7.825381
7862  1  3 0.0000 55.280932 24.320154 24.021781
7863  1  3 0.0000 55.280932 24.320154 40.218181
7864  1  3 0.0000 55.280932 41.300834  7.825381
7865  1  3 0.0000 55.280932 41.300834 24.021781
7866  1  3 0.0000 55.280932 41.300834 40.218181
7867  1  3 0.0000 16.065732  7.339474 13.224181
7868  1  3 0.0000 16.065732  7.339474 29.420581
7869  1  3 0.0000 16.065732  7.339474 45.616981
7870  1  3 0.0000 16.065732 41.300834 13.224181
7871  1  3 0.0000 16.065732 41.300834 29.420581
7872  1  3 0.0000 16.065732 41.300834 45.616981
7873  1  3 0.0000 35.673332  7.339474 13.224181
7874  1  3 0.0000 35.673332  7.339474 29.420581
7875  1  3 0.0000 35.673332  7.339474 45.616981
7876  1  3 0.0000 55.280932  7.339474 13.224181
7877  1  3 0.0000 55.280932  7.339474 29.420581
7878  1  3 0.0000 55.280932  7.339474 45.616981
7879  1  3 0.0000 55.280932 24.320154 13.224181
7880  1  3 0.0000 55.280932 24.320154 29.420581
7881  1  3 0.0000 55.280932 24.320154 45.616981
7882  1  3 0.0000 55.280932 41.300834 13.224181
7883  1  3 0.0000 55.280932 41.300834 29.420581
7884  1  3 0.0000 55.280932 41.300834 45.616981
7885  1  3 0.0000 13.614782 11.584644  2.426581
7886  1  3 0.0000 13.614782 11.584644 18.622981
7887  1  3 0.0000 13.614782 11.584644 34.819381
7888  1  3 0.0000 13.614782 45.546004  2.426581
7889  1  3 0.0000 13.614782 45.546004 18.622981
7890  1  3 0.0000 13.614782 45.546004 34.819381
7891  1  3 0.0000 33.222382 45.546004  2.426581
7892  1  3 0.0000 33.222382 45.546004 18.622981
7893  1  3 0.0000 33.222382 45.546004 34.819381
7894  1  3 0.0000 52.829982 11.584644  2.426581
7895  1  3 0.0000 52.829982 11.584644 18.622981
7896  1  3 0.0000 52.829982 11.584644 34.819381
7897  1  3 0.0000 52.829982 28.565324  2.426581
7898  1  3 0.0000 52.829982 28.565324 18.622981
7899  1  3 0.0000 52.829982 28.565324 34.819381
7900  1  3 0.0000 52.829982 45.546004  2.426581
7901  1  3 0.0000 52.829982 45.546004 18.622981
7902  1  3 0.0000 52.829982 45.546004 34.819381
7903  1  3 0.0000 13.614782 11.584644  7.825381
7904  1  3 0.0000 13.614782 11.584644 24.021781
7905  1  3 0.0000 13.614782 11.584644 40.218181
7906  1  3 0.0000 13.614782 45.546004  7.825381
7907  1  3 0.0000 13.614782 45.546004 24.021781
7908  1  3 0.0000 13.614782 45.546004 40.218181
7909  1  3 0.0000 33.222382 45.546004  7.825381
7910  1  3 0.0000 33.222382 45.546004 24.021781
7911  1  3 0.0000 33.222382 45.546004 40.218181
7912  1  3 0.0000 52.829982 11.584644  7.825381
7913  1  3 0.0000 52.829982 11.584644 24.021781
7914  1  3 0.0000 52.829982 11.584644 40.218181
7915  1  3 0.0000 52.829982 28.565324  7.825381
7916  1  3 0.0000 52.829982 28.565324 24.021781
7917  1  3 0.0000 52.829982 28.565324 40.218181
7918  1  3 0.0000 52.829982 45.546004  7.825381
7919  1  3 0.0000 52.829982 45.546004 24.021781
7920  1  3 0.0000 52.829982 45.546004 40.218181
7921  1  3 0.0000 13.614782 11.584644 13.224181
7922  1  3 0.0000 13.614782 11.584644 29.420581
7923  1  3 0.0000 13.614782 11.584644 45.616981
7924  1  3 0.0000 13.614782 45.546004 13.224181
7925  1  3 0.0000 13.614782 45.546004 29.420581
7926  1  3 0.0000 13.614782 45.546004 45.616981
7927  1  3 0.0000 33.222382 45.546004 13.224181
7928  1  3 0.0000 33.222382 45.546004 29.420581
7929  1  3 0.0000 33.222382 45.546004 45.616981
7930  1  3 0.0000 52.829982 11.584644 13.224181
7931  1  3 0.0000 52.829982 11.584644 29.420581
7932  1  3 0.0000 52.829982 11.584644 45.616981
7933  1  3 0.0000 52.829982 28.565324 13.224181
7934  1  3 0.0000 52.829982 28.565324 29.420581
7935  1  3 0.0000 52.829982 28.565324 45.616981
7936  1  3 0.0000 52.829982 45.546004 13.224181
7937  1  3 0.0000 52.829982 45.546004 29.420581
7938  1  3 0.0000 52.829982 45.546004 45.616981
7939  1  3 0.0000 11.163832 15.829814  2.426581
7940  1  3 0.0000 11.163832 15.829814 18.622981
7941  1  3 0.0000 11.163832 15.829814 34.819381
7942  1  3 0.0000 11.163832 32.810494  2.426581
7943  1  3 0.0000 11.163832 32.810494 18.622981
7944  1  3 0.0000 11.163832 32.810494 34.819381
7945  1  3 0.0000 11.163832 49.791174  2.426581
7946  1  3 0.0000 11.163832 49.791174 18.622981
7947  1  3 0.0000 11.163832 49.791174 34.819381
7948  1  3 0.0000 30.771432 49.791174  2.426581
7949  1  3 0.0000 30.771432 49.791174 18.622981
7950  1  3 0.0000 30.771432 49.791174 34.819381
7951  1  3 0.0000 50.379032 15.829814  2.426581
7952  1  3 0.0000 50.379032 15.829814 18.622981
7953  1  3 0.0000 50.379032 15.829814 34.819381
7954  1  3 0.0000 50.379032 32.810494  2.426581
7955  1  3 0.0000 50.379032 32.810494 18.622981
7956  1  3 0.0000 50.379032 32.810494 34.819381
7957  1  3 0.0000 50.379032 49.791174  2.426581
7958  1  3 0.0000 50.379032 49.791174 18.622981
7959  1  3 0.0000 50.379032 49.791174 34.819381
7960  1  3 0.0000 11.163832 15.829814  7.825381
7961  1  3 0.0000 11.163832 15.829814 24.021781
7962  1  3 0.0000 11.163832 15.829814 40.218181
7963  1  3 0.0000 11.163832 32.810494  7.825381
7964  1  3 0.0000 11.163832 32.810494 24.021781
7965  1  3 0.0000 11.163832 32.810494 40.218181
7966  1  3 0.0000 11.163832 49.791174  7.825381
7967  1  3 0.0000 11.163832 49.791174 24.021781
7968  1  3 0.0000 11.163832 49.791174 40.218181
7969  1  3 0.0000 30.771432 49.791174  7.825381
7970  1  3 0.0000 30.771432 49.791174 24.021781
7971  1  3 0.0000 30.771432 49.791174 40.218181
7972  1  3 0.0000 50.379032 15.829814  7.825381
7973  1  3 0.0000 50.379032 15.829814 24.021781
7974  1  3 0.0000 50.379032 15.829814 40.218181
7975  1  3 0.0000 50.379032 32.810494  7.825381
7976  1  3 0.0000 50.379032 32.810494 24.021781
7977  1  3 0.0000 50.379032 32.810494 40.218181
7978  1  3 0.0000 50.379032 49.791174  7.825381
7979  1  3 0.0000 50.379032 49.791174 24.021781
7980  1  3 0.0000 50.379032 49.791174 40.218181
7981  1  3 0.0000 11.163832 15.829814 13.224181
7982  1  3 0.0000 11.163832 15.829814 29.420581
7983  1  3 0.0000 11.163832 15.829814 45.616981
7984  1  3 0.0000 11.163832 32.810494 13.224181
7985  1  3 0.0000 11.163832 32.810494 29.420581
7986  1  3 0.0000 11.163832 32.810494 45.616981
7987  1  3 0.0000 11.163832 49.791174 13.224181
7988  1  3 0.0000 11.163832 49.791174 29.420581
7989  1  3 0.0000 11.163832 49.791174 45.616981
7990  1  3 0.0000 30.771432 49.791174 13.224181
7991  1  3 0.0000 30.771432 49.791174 29.420581
7992  1  3 0.0000 30.771432 49.791174 45.616981
7993  1  3 0.0000 50.379032 15.829814 13.224181
7994  1  3 0.0000 50.379032 15.829814 29.420581
7995  1  3 0.0000 50.379032 15.829814 45.616981
7996  1  3 0.0000 50.379032 32.810494 13.224181
7997  1  3 0.0000 50.379032 32.810494 29.420581
7998  1  3 0.0000 50.379032 32.810494 45.616981
7999  1  3 0.0000 50.379032 49.791174 13.224181
8000  1  3 0.0000 50.379032 49.791174 29.420581
8001  1  3 0.0000 50.379032 49.791174 45.616981
8002  1  3 0.0000 16.065732 49.791174  2.426581
8003  1  3 0.0000 16.065732 49.791174 18.622981
8004  1  3 0.0000 16.065732 49.791174 34.819381
8005  1  3 0.0000 35.673332 49.791174  2.426581
8006  1  3 0.0000 35.673332 49.791174 18.622981
8007  1  3 0.0000 35.673332 49.791174 34.819381
8008  1  3 0.0000 55.280932 15.829814  2.426581
8009  1  3 0.0000 55.280932 15.829814 18.622981
8010  1  3 0.0000 55.280932 15.829814 34.819381
8011  1  3 0.0000 55.280932 32.810494  2.426581
8012  1  3 0.0000 55.280932 32.810494 18.622981
8013  1  3 0.0000 55.280932 32.810494 34.819381
8014  1  3 0.0000 55.280932 49.791174  2.426581
8015  1  3 0.0000 55.280932 49.791174 18.622981
8016  1  3 0.0000 55.280932 49.791174 34.819381
8017  1  3 0.0000 16.065732 49.791174  7.825381
8018  1  3 0.0000 16.065732 49.791174 24.021781
8019  1  3 0.0000 16.065732 49.791174 40.218181
8020  1  3 0.0000 35.673332 49.791174  7.825381
8021  1  3 0.0000 35.673332 49.791174 24.021781
8022  1  3 0.0000 35.673332 49.791174 40.218181
8023  1  3 0.0000 55.280932 15.829814  7.825381
8024  1  3 0.0000 55.280932 15.829814 24.021781
8025  1  3 0.0000 55.280932 15.829814 40.218181
8026  1  3 0.0000 55.280932 32.810494  7.825381
8027  1  3 0.0000 55.280932 32.810494 24.021781
8028  1  3 0.0000 55.280932 32.810494 40.218181
8029  1  3 0.0000 55.280932 49.791174  7.825381
8030  1  3 0.0000 55.280932 49.791174 24.021781
8031  1  3 0.0000 55.280932 49.791174 40.218181
8032  1  3 0.0000 16.065732 49.791174 13.224181
8033  1  3 0.0000 16.065732 49.791174 29.420581
8034  1  3 0.0000 16.065732 49.791174 45.616981
8035  1  3 0.0000 35.673332 49.791174 13.224181
8036  1  3 0.0000 35.673332 49.791174 29.420581
8037  1  3 0.0000 35.673332 49.791174 45.616981
8038  1  3 0.0000 55.280932 15.829814 13.224181
8039  1  3 0.0000 55.280932 15.829814 29.420581
8040  1  3 0.0000 55.280932 15.829814 45.616981
8041  1  3 0.0000 55.280932 32.810494 13.224181
8042  1  3 0.0000 55.280932 32.810494 29.420581
8043  1  3 0.0000 55.280932 32.810494 45.616981
8044  1  3 0.0000 55.280932 49.791174 13.224181
8045  1  3 0.0000 55.280932 49.791174 29.420581
8046  1  3 0.0000 55.280932 49.791174 45.616981

Velocities

1        0.00000000     1.00000000     2.00000000
2        3.00000000     4.00000000     5.00000000
3        6.00000000     7.00000000     8.00000000
4        9.00000000    10.00000000    11.00000000
5       12.00000000    13.00000000    14.00000000
6       15.00000000    16.00000000    17.00000000
7       18.00000000    19.00000000    20.00000000
8       21.00000000    22.00000000    23.00000000
9       24.00000000    25.00000000    26.00000000
10      27.00000000    28.00000000    29.00000000
11      30.00000000    31.00000000    32.00000000
12      33.00000000    34.00000000    35.00000000
13      54.00000000    55.00000000    56.00000000
14      57.00000000    58.00000000    59.00000000
15      60.00000000    61.00000000    62.00000000
16      81.00000000    82.00000000    83.00000000
17      84.00000000    85.00000000    86.00000000
18      87.00000000    88.00000000    89.00000000
19      90.00000000    91.00000000    92.00000000
20      93.00000000    94.00000000    95.00000000
21      96.00000000    97.00000000    98.00000000
22      99.00000000   100.00000000   101.00000000
23     102.00000000   103.00000000   104.00000000
24     105.00000000   106.00000000   107.00000000
25     108.00000000   109.00000000   110.00000000
26     111.00000000   112.00000000   113.00000000
27     114.00000000   115.00000000   116.00000000
28     135.00000000   136.00000000   137.00000000
29     138.00000000   139.00000000   140.00000000
30     141.00000000   142.00000000   143.00000000
31     162.00000000   163.00000000   164.00000000
32     165.00000000   166.00000000   167.00000000
33     168.00000000   169.00000000   170.00000000
34     171.00000000   172.00000000   173.00000000
35     174.00000000   175.00000000   176.00000000
36     177.00000000   178.00000000   179.00000000
37     180.00000000   181.00000000   182.00000000
38     183.00000000   184.00000000   185.00000000
39     186.00000000   187.00000000   188.00000000
40     189.00000000   190.00000000   191.00000000
41     192.00000000   193.00000000   194.00000000
42     195.00000000   196.00000000   197.00000000
43     216.00000000   217.00000000   218.00000000
44     219.00000000   220.00000000   221.00000000
45     222.00000000   223.00000000   224.00000000
46     243.00000000   244.00000000   245.00000000
47     246.00000000   247.00000000   248.00000000
48     249.00000000   250.00000000   251.00000000
49     252.00000000   253.00000000   254.00000000
50     255.00000000   256.00000000   257.00000000
51     258.00000000   259.00000000   260.00000000
52     261.00000000   262.00000000   263.00000000
53     264.00000000   265.00000000   266.00000000
54     267.00000000   268.00000000   269.00000000
55     270.00000000   271.00000000   272.00000000
56     273.00000000   274.00000000   275.00000000
57     276.00000000   277.00000000   278.00000000
58     297.00000000   298.00000000   299.00000000
59     300.00000000   301.00000000   302.00000000
60     303.00000000   304.00000000   305.00000000
61     324.00000000   325.00000000   326.00000000
62     327.00000000   328.00000000   329.00000000
63     330.00000000   331.00000000   332.00000000
64     333.00000000   334.00000000   335.00000000
65     336.00000000   337.00000000   338.00000000
66     339.00000000   340.00000000   341.00000000
67     342.00000000   343.00000000   344.00000000
68     345.00000000   346.00000000   347.00000000
69     348.00000000   349.00000000   350.00000000
70     351.00000000   352.00000000   353.00000000
71     354.00000000   355.00000000   356.00000000
72     357.00000000   358.00000000   359.00000000
73     378.00000000   379.00000000   380.00000000
74     381.00000000   382.00000000   383.00000000
75     384.00000000   385.00000000   386.00000000
76     405.00000000   406.00000000   407.00000000
77     408.00000000   409.00000000   410.00000000
78     411.00000000   412.00000000   413.00000000
79     414.00000000   415.00000000   416.00000000
80     417.00000000   418.00000000   419.00000000
81     420.00000000   421.00000000   422.00000000
82     423.00000000   424.00000000   425.00000000
83     426.00000000   427.00000000   428.00000000
84     429.00000000   430.00000000   431.00000000
85     432.00000000   433.00000000   434.00000000
86     435.00000000   436.00000000   437.00000000
87     438.00000000   439.00000000   440.00000000
88     459.00000000   460.00000000   461.00000000
89     462.00000000   463.00000000   464.00000000
90     465.00000000   466.00000000   467.00000000
91     486.00000000   487.00000000   488.00000000
92     489.00000000   490.00000000   491.00000000
93     492.00000000   493.00000000   494.00000000
94     495.00000000   496.00000000   497.00000000
95     498.00000000   499.00000000   500.00000000
96     501.00000000   502.00000000   503.00000000
97     504.00000000   505.00000000   506.00000000
98     507.00000000   508.00000000   509.00000000
99     510.00000000   511.00000000   512.00000000
100    513.00000000   514.00000000   515.00000000
101    516.00000000   517.00000000   518.00000000
102    519.00000000   520.00000000   521.00000000
103    540.00000000   541.00000000   542.00000000
104    543.00000000   544.00000000   545.00000000
105    546.00000000   547.00000000   548.00000000
106    567.00000000   568.00000000   569.00000000
107    570.00000000   571.00000000   572.00000000
108    573.00000000   574.00000000   575.00000000
109    576.00000000   577.00000000   578.00000000
110    579.00000000   580.00000000   581.00000000
111    582.00000000   583.00000000   584.00000000
112    585.00000000   586.00000000   587.00000000
113    588.00000000   589.00000000   590.00000000
114    591.00000000   592.00000000   593.00000000
115    594.00000000   595.00000000   596.00000000
116    597.00000000   598.00000000   599.00000000
117    600.00000000   601.00000000   602.00000000
118    621.00000000   622.00000000   623.00000000
119    624.00000000   625.00000000   626.00000000
120    627.00000000   628.00000000   629.00000000
121    648.00000000   649.00000000   650.00000000
122    651.00000000   652.00000000   653.00000000
123    654.00000000   655.00000000   656.00000000
124    657.00000000   658.00000000   659.00000000
125    660.00000000   661.00000000   662.00000000
126    663.00000000   664.00000000   665.00000000
127    666.00000000   667.00000000   668.00000000
128    669.00000000   670.00000000   671.00000000
129    672.00000000   673.00000000   674.00000000
130    675.00000000   676.00000000   677.00000000
131    678.00000000   679.00000000   680.00000000
132    681.00000000   682.00000000   683.00000000
133    702.00000000   703.00000000   704.00000000
134    705.00000000   706.00000000   707.00000000
135    708.00000000   709.00000000   710.00000000
136    729.00000000   730.00000000   731.00000000
137    732.00000000   733.00000000   734.00000000
138    735.00000000   736.00000000   737.00000000
139    738.00000000   739.00000000   740.00000000
140    741.00000000   742.00000000   743.00000000
141    744.00000000   745.00000000   746.00000000
142    747.00000000   748.00000000   749.00000000
143    750.00000000   751.00000000   752.00000000
144    753.00000000   754.00000000   755.00000000
145    783.00000000   784.00000000   785.00000000
146    786.00000000   787.00000000   788.00000000
147    789.00000000   790.00000000   791.00000000
148    801.00000000   802.00000000   803.00000000
149    804.00000000   805.00000000   806.00000000
150    807.00000000   808.00000000   809.00000000
151    810.00000000   811.00000000   812.00000000
152    813.00000000   814.00000000   815.00000000
153    816.00000000   817.00000000   818.00000000
154    819.00000000   820.00000000   821.00000000
155    822.00000000   823.00000000   824.00000000
156    825.00000000   826.00000000   827.00000000
157    828.00000000   829.00000000   830.00000000
158    831.00000000   832.00000000   833.00000000
159    834.00000000   835.00000000   836.00000000
160    864.00000000   865.00000000   866.00000000
161    867.00000000   868.00000000   869.00000000
162    870.00000000   871.00000000   872.00000000
163    882.00000000   883.00000000   884.00000000
164    885.00000000   886.00000000   887.00000000
165    888.00000000   889.00000000   890.00000000
166    891.00000000   892.00000000   893.00000000
167    894.00000000   895.00000000   896.00000000
168    897.00000000   898.00000000   899.00000000
169    900.00000000   901.00000000   902.00000000
170    903.00000000   904.00000000   905.00000000
171    906.00000000   907.00000000   908.00000000
172    909.00000000   910.00000000   911.00000000
173    912.00000000   913.00000000   914.00000000
174    915.00000000   916.00000000   917.00000000
175    945.00000000   946.00000000   947.00000000
176    948.00000000   949.00000000   950.00000000
177    951.00000000   952.00000000   953.00000000
178    963.00000000   964.00000000   965.00000000
179    966.00000000   967.00000000   968.00000000
180    969.00000000   970.00000000   971.00000000
181    972.00000000   973.00000000   974.00000000
182    975.00000000   976.00000000   977.00000000
183    978.00000000   979.00000000   980.00000000
184    999.00000000  1000.00000000  1001.00000000
185   1002.00000000  1003.00000000  1004.00000000
186   1005.00000000  1006.00000000  1007.00000000
187   1026.00000000  1027.00000000  1028.00000000
188   1029.00000000  1030.00000000  1031.00000000
189   1032.00000000  1033.00000000  1034.00000000
190   1035.00000000  1036.00000000  1037.00000000
191   1038.00000000  1039.00000000  1040.00000000
192   1041.00000000  1042.00000000  1043.00000000
193   1044.00000000  1045.00000000  1046.00000000
194   1047.00000000  1048.00000000  1049.00000000
195   1050.00000000  1051.00000000  1052.00000000
196   1053.00000000  1054.00000000  1055.00000000
197   1056.00000000  1057.00000000  1058.00000000
198   1059.00000000  1060.00000000  1061.00000000
199   1080.00000000  1081.00000000  1082.00000000
200   1083.00000000  1084.00000000  1085.00000000
201   1086.00000000  1087.00000000  1088.00000000
202   1107.00000000  1108.00000000  1109.00000000
203   1110.00000000  1111.00000000  1112.00000000
204   1113.00000000  1114.00000000  1115.00000000
205   1116.00000000  1117.00000000  1118.00000000
206   1119.00000000  1120.00000000  1121.00000000
207   1122.00000000  1123.00000000  1124.00000000
208   1125.00000000  1126.00000000  1127.00000000
209   1128.00000000  1129.00000000  1130.00000000
210   1131.00000000  1132.00000000  1133.00000000
211   1134.00000000  1135.00000000  1136.00000000
212   1137.00000000  1138.00000000  1139.00000000
213   1140.00000000  1141.00000000  1142.00000000
214   1161.00000000  1162.00000000  1163.00000000
215   1164.00000000  1165.00000000  1166.00000000
216   1167.00000000  1168.00000000  1169.00000000
217   1188.00000000  1189.00000000  1190.00000000
218   1191.00000000  1192.00000000  1193.00000000
219   1194.00000000  1195.00000000  1196.00000000
220   1197.00000000  1198.00000000  1199.00000000
221   1200.00000000  1201.00000000  1202.00000000
222   1203.00000000  1204.00000000  1205.00000000
223   1206.00000000  1207.00000000  1208.00000000
224   1209.00000000  1210.00000000  1211.00000000
225   1212.00000000  1213.00000000  1214.00000000
226   1215.00000000  1216.00000000  1217.00000000
227   1218.00000000  1219.00000000  1220.00000000
228   1221.00000000  1222.00000000  1223.00000000
229   1224.00000000  1225.00000000  1226.00000000
230   1227.00000000  1228.00000000  1229.00000000
231   1230.00000000  1231.00000000  1232.00000000
232   1233.00000000  1234.00000000  1235.00000000
233   1236.00000000  1237.00000000  1238.00000000
234   1239.00000000  1240.00000000  1241.00000000
235   1242.00000000  1243.00000000  1244.00000000
236   1245.00000000  1246.00000000  1247.00000000
237   1248.00000000  1249.00000000  1250.00000000
238   1269.00000000  1270.00000000  1271.00000000
239   1272.00000000  1273.00000000  1274.00000000
240   1275.00000000  1276.00000000  1277.00000000
241   1287.00000000  1288.00000000  1289.00000000
242   1290.00000000  1291.00000000  1292.00000000
243   1293.00000000  1294.00000000  1295.00000000
244   1296.00000000  1297.00000000  1298.00000000
245   1299.00000000  1300.00000000  1301.00000000
246   1302.00000000  1303.00000000  1304.00000000
247   1305.00000000  1306.00000000  1307.00000000
248   1308.00000000  1309.00000000  1310.00000000
249   1311.00000000  1312.00000000  1313.00000000
250   1314.00000000  1315.00000000  1316.00000000
251   1317.00000000  1318.00000000  1319.00000000
252   1320.00000000  1321.00000000  1322.00000000
253   1323.00000000  1324.00000000  1325.00000000
254   1326.00000000  1327.00000000  1328.00000000
255   1329.00000000  1330.00000000  1331.00000000
256   1350.00000000  1351.00000000  1352.00000000
257   1353.00000000  1354.00000000  1355.00000000
258   1356.00000000  1357.00000000  1358.00000000
259   1368.00000000  1369.00000000  1370.00000000
260   1371.00000000  1372.00000000  1373.00000000
261   1374.00000000  1375.00000000  1376.00000000
262   1377.00000000  1378.00000000  1379.00000000
263   1380.00000000  1381.00000000  1382.00000000
264   1383.00000000  1384.00000000  1385.00000000
265   1386.00000000  1387.00000000  1388.00000000
266   1389.00000000  1390.00000000  1391.00000000
267   1392.00000000  1393.00000000  1394.00000000
268   1395.00000000  1396.00000000  1397.00000000
269   1398.00000000  1399.00000000  1400.00000000
270   1401.00000000  1402.00000000  1403.00000000
271   1404.00000000  1405.00000000  1406.00000000
272   1407.00000000  1408.00000000  1409.00000000
273   1410.00000000  1411.00000000  1412.00000000
274   1431.00000000  1432.00000000  1433.00000000
275   1434.00000000  1435.00000000  1436.00000000
276   1437.00000000  1438.00000000  1439.00000000
277   1449.00000000  1450.00000000  1451.00000000
278   1452.00000000  1453.00000000  1454.00000000
279   1455.00000000  1456.00000000  1457.00000000
280   1458.00000000  1459.00000000  1460.00000000
281   1461.00000000  1462.00000000  1463.00000000
282   1464.00000000  1465.00000000  1466.00000000
283   1467.00000000  1468.00000000  1469.00000000
284   1470.00000000  1471.00000000  1472.00000000
285   1473.00000000  1474.00000000  1475.00000000
286   1476.00000000  1477.00000000  1478.00000000
287   1479.00000000  1480.00000000  1481.00000000
288   1482.00000000  1483.00000000  1484.00000000
289   1512.00000000  1513.00000000  1514.00000000
290   1515.00000000  1516.00000000  1517.00000000
291   1518.00000000  1519.00000000  1520.00000000
292   1530.00000000  1531.00000000  1532.00000000
293   1533.00000000  1534.00000000  1535.00000000
294   1536.00000000  1537.00000000  1538.00000000
295   1539.00000000  1540.00000000  1541.00000000
296   1542.00000000  1543.00000000  1544.00000000
297   1545.00000000  1546.00000000  1547.00000000
298   1548.00000000  1549.00000000  1550.00000000
299   1551.00000000  1552.00000000  1553.00000000
300   1554.00000000  1555.00000000  1556.00000000
301   1557.00000000  1558.00000000  1559.00000000
302   1560.00000000  1561.00000000  1562.00000000
303   1563.00000000  1564.00000000  1565.00000000
304   1593.00000000  1594.00000000  1595.00000000
305   1596.00000000  1597.00000000  1598.00000000
306   1599.00000000  1600.00000000  1601.00000000
307   1611.00000000  1612.00000000  1613.00000000
308   1614.00000000  1615.00000000  1616.00000000
309   1617.00000000  1618.00000000  1619.00000000
310   1620.00000000  1621.00000000  1622.00000000
311   1623.00000000  1624.00000000  1625.00000000
312   1626.00000000  1627.00000000  1628.00000000
313   1629.00000000  1630.00000000  1631.00000000
314   1632.00000000  1633.00000000  1634.00000000
315   1635.00000000  1636.00000000  1637.00000000
316   1638.00000000  1639.00000000  1640.00000000
317   1641.00000000  1642.00000000  1643.00000000
318   1644.00000000  1645.00000000  1646.00000000
319   1674.00000000  1675.00000000  1676.00000000
320   1677.00000000  1678.00000000  1679.00000000
321   1680.00000000  1681.00000000  1682.00000000
322   1692.00000000  1693.00000000  1694.00000000
323   1695.00000000  1696.00000000  1697.00000000
324   1698.00000000  1699.00000000  1700.00000000
325   1701.00000000  1702.00000000  1703.00000000
326   1704.00000000  1705.00000000  1706.00000000
327   1707.00000000  1708.00000000  1709.00000000
328   1710.00000000  1711.00000000  1712.00000000
329   1713.00000000  1714.00000000  1715.00000000
330   1716.00000000  1717.00000000  1718.00000000
331   1719.00000000  1720.00000000  1721.00000000
332   1722.00000000  1723.00000000  1724.00000000
333   1725.00000000  1726.00000000  1727.00000000
334   1746.00000000  1747.00000000  1748.00000000
335   1749.00000000  1750.00000000  1751.00000000
336   1752.00000000  1753.00000000  1754.00000000
337   1773.00000000  1774.00000000  1775.00000000
338   1776.00000000  1777.00000000  1778.00000000
339   1779.00000000  1780.00000000  1781.00000000
340   1782.00000000  1783.00000000  1784.00000000
341   1785.00000000  1786.00000000  1787.00000000
342   1788.00000000  1789.00000000  1790.00000000
343   1791.00000000  1792.00000000  1793.00000000
344   1794.00000000  1795.00000000  1796.00000000
345   1797.00000000  1798.00000000  1799.00000000
346   1800.00000000  1801.00000000  1802.00000000
347   1803.00000000  1804.00000000  1805.00000000
348   1806.00000000  1807.00000000  1808.00000000
349   1827.00000000  1828.00000000  1829.00000000
350   1830.00000000  1831.00000000  1832.00000000
351   1833.00000000  1834.00000000  1835.00000000
352   1854.00000000  1855.00000000  1856.00000000
353   1857.00000000  1858.00000000  1859.00000000
354   1860.00000000  1861.00000000  1862.00000000
355   1863.00000000  1864.00000000  1865.00000000
356   1866.00000000  1867.00000000  1868.00000000
357   1869.00000000  1870.00000000  1871.00000000
358   1872.00000000  1873.00000000  1874.00000000
359   1875.00000000  1876.00000000  1877.00000000
360   1878.00000000  1879.00000000  1880.00000000
361   1881.00000000  1882.00000000  1883.00000000
362   1884.00000000  1885.00000000  1886.00000000
363   1887.00000000  1888.00000000  1889.00000000
364   1908.00000000  1909.00000000  1910.00000000
365   1911.00000000  1912.00000000  1913.00000000
366   1914.00000000  1915.00000000  1916.00000000
367   1935.00000000  1936.00000000  1937.00000000
368   1938.00000000  1939.00000000  1940.00000000
369   1941.00000000  1942.00000000  1943.00000000
370   1944.00000000  1945.00000000  1946.00000000
371   1947.00000000  1948.00000000  1949.00000000
372   1950.00000000  1951.00000000  1952.00000000
373   1971.00000000  1972.00000000  1973.00000000
374   1974.00000000  1975.00000000  1976.00000000
375   1977.00000000  1978.00000000  1979.00000000
376   1998.00000000  1999.00000000  2000.00000000
377   2001.00000000  2002.00000000  2003.00000000
378   2004.00000000  2005.00000000  2006.00000000
379   2007.00000000  2008.00000000  2009.00000000
380   2010.00000000  2011.00000000  2012.00000000
381   2013.00000000  2014.00000000  2015.00000000
382   2016.00000000  2017.00000000  2018.00000000
383   2019.00000000  2020.00000000  2021.00000000
384   2022.00000000  2023.00000000  2024.00000000
385   2025.00000000  2026.00000000  2027.00000000
386   2028.00000000  2029.00000000  2030.00000000
387   2031.00000000  2032.00000000  2033.00000000
388   2052.00000000  2053.00000000  2054.00000000
389   2055.00000000  2056.00000000  2057.00000000
390   2058.00000000  2059.00000000  2060.00000000
391   2079.00000000  2080.00000000  2081.00000000
392   2082.00000000  2083.00000000  2084.00000000
393   2085.00000000  2086.00000000  2087.00000000
394   2088.00000000  2089.00000000  2090.00000000
395   2091.00000000  2092.00000000  2093.00000000
396   2094.00000000  2095.00000000  2096.00000000
397   2097.00000000  2098.00000000  2099.00000000
398   2100.00000000  2101.00000000  2102.00000000
399   2103.00000000  2104.00000000  2105.00000000
400   2106.00000000  2107.00000000  2108.00000000
401   2109.00000000  2110.00000000  2111.00000000
402   2112.00000000  2113.00000000  2114.00000000
403   2133.00000000  2134.00000000  2135.00000000
404   2136.00000000  2137.00000000  2138.00000000
405   2139.00000000  2140.00000000  2141.00000000
406   2160.00000000  2161.00000000  2162.00000000
407   2163.00000000  2164.00000000  2165.00000000
408   2166.00000000  2167.00000000  2168.00000000
409   2169.00000000  2170.00000000  2171.00000000
410   2172.00000000  2173.00000000  2174.00000000
411   2175.00000000  2176.00000000  2177.00000000
412   2178.00000000  2179.00000000  2180.00000000
413   2181.00000000  2182.00000000  2183.00000000
414   2184.00000000  2185.00000000  2186.00000000
415   2187.00000000  2188.00000000  2189.00000000
416   2190.00000000  2191.00000000  2192.00000000
417   2193.00000000  2194.00000000  2195.00000000
418   2214.00000000  2215.00000000  2216.00000000
419   2217.00000000  2218.00000000  2219.00000000
420   2220.00000000  2221.00000000  2222.00000000
421   2241.00000000  2242.00000000  2243.00000000
422   2244.00000000  2245.00000000  2246.00000000
423   2247.00000000  2248.00000000  2249.00000000
424   2250.00000000  2251.00000000  2252.00000000
425   2253.00000000  2254.00000000  2255.00000000
426   2256.00000000  2257.00000000  2258.00000000
427   2259.00000000  2260.00000000  2261.00000000
428   2262.00000000  2263.00000000  2264.00000000
429   2265.00000000  2266.00000000  2267.00000000
430   2268.00000000  2269.00000000  2270.00000000
431   2271.00000000  2272.00000000  2273.00000000
432   2274.00000000  2275.00000000  2276.00000000
433   2295.00000000  2296.00000000  2297.00000000
434   2298.00000000  2299.00000000  2300.00000000
435   2301.00000000  2302.00000000  2303.00000000
436   2322.00000000  2323.00000000  2324.00000000
437   2325.00000000  2326.00000000  2327.00000000
438   2328.00000000  2329.00000000  2330.00000000
439   2331.00000000  2332.00000000  2333.00000000
440   2334.00000000  2335.00000000  2336.00000000
441   2337.00000000  2338.00000000  2339.00000000
442   2340.00000000  2341.00000000  2342.00000000
443   2343.00000000  2344.00000000  2345.00000000
444   2346.00000000  2347.00000000  2348.00000000
445   2349.00000000  2350.00000000  2351.00000000
446   2352.00000000  2353.00000000  2354.00000000
447   2355.00000000  2356.00000000  2357.00000000
448   2376.00000000  2377.00000000  2378.00000000
449   2379.00000000  2380.00000000  2381.00000000
450   2382.00000000  2383.00000000  2384.00000000
451   2403.00000000  2404.00000000  2405.00000000
452   2406.00000000  2407.00000000  2408.00000000
453   2409.00000000  2410.00000000  2411.00000000
454   2412.00000000  2413.00000000  2414.00000000
455   2415.00000000  2416.00000000  2417.00000000
456   2418.00000000  2419.00000000  2420.00000000
457   2421.00000000  2422.00000000  2423.00000000
458   2424.00000000  2425.00000000  2426.00000000
459   2427.00000000  2428.00000000  2429.00000000
460   2430.00000000  2431.00000000  2432.00000000
461   2433.00000000  2434.00000000  2435.00000000
462   2436.00000000  2437.00000000  2438.00000000
463   2448.00000000  2449.00000000  2450.00000000
464   2451.00000000  2452.00000000  2453.00000000
465   2454.00000000  2455.00000000  2456.00000000
466   2484.00000000  2485.00000000  2486.00000000
467   2487.00000000  2488.00000000  2489.00000000
468   2490.00000000  2491.00000000  2492.00000000
469   2493.00000000  2494.00000000  2495.00000000
470   2496.00000000  2497.00000000  2498.00000000
471   2499.00000000  2500.00000000  2501.00000000
472   2502.00000000  2503.00000000  2504.00000000
473   2505.00000000  2506.00000000  2507.00000000
474   2508.00000000  2509.00000000  2510.00000000
475   2511.00000000  2512.00000000  2513.00000000
476   2514.00000000  2515.00000000  2516.00000000
477   2517.00000000  2518.00000000  2519.00000000
478   2529.00000000  2530.00000000  2531.00000000
479   2532.00000000  2533.00000000  2534.00000000
480   2535.00000000  2536.00000000  2537.00000000
481   2565.00000000  2566.00000000  2567.00000000
482   2568.00000000  2569.00000000  2570.00000000
483   2571.00000000  2572.00000000  2573.00000000
484   2574.00000000  2575.00000000  2576.00000000
485   2577.00000000  2578.00000000  2579.00000000
486   2580.00000000  2581.00000000  2582.00000000
487   2583.00000000  2584.00000000  2585.00000000
488   2586.00000000  2587.00000000  2588.00000000
489   2589.00000000  2590.00000000  2591.00000000
490   2592.00000000  2593.00000000  2594.00000000
491   2595.00000000  2596.00000000  2597.00000000
492   2598.00000000  2599.00000000  2600.00000000
493   2610.00000000  2611.00000000  2612.00000000
494   2613.00000000  2614.00000000  2615.00000000
495   2616.00000000  2617.00000000  2618.00000000
496   2646.00000000  2647.00000000  2648.00000000
497   2649.00000000  2650.00000000  2651.00000000
498   2652.00000000  2653.00000000  2654.00000000
499   2655.00000000  2656.00000000  2657.00000000
500   2658.00000000  2659.00000000  2660.00000000
501   2661.00000000  2662.00000000  2663.00000000
502   2664.00000000  2665.00000000  2666.00000000
503   2667.00000000  2668.00000000  2669.00000000
504   2670.00000000  2671.00000000  2672.00000000
505   2673.00000000  2674.00000000  2675.00000000
506   2676.00000000  2677.00000000  2678.00000000
507   2679.00000000  2680.00000000  2681.00000000
508   2682.00000000  2683.00000000  2684.00000000
509   2685.00000000  2686.00000000  2687.00000000
510   2688.00000000  2689.00000000  2690.00000000
511   2691.00000000  2692.00000000  2693.00000000
512   2694.00000000  2695.00000000  2696.00000000
513   2697.00000000  2698.00000000  2699.00000000
514   2718.00000000  2719.00000000  2720.00000000
515   2721.00000000  2722.00000000  2723.00000000
516   2724.00000000  2725.00000000  2726.00000000
517   2727.00000000  2728.00000000  2729.00000000
518   2730.00000000  2731.00000000  2732.00000000
519   2733.00000000  2734.00000000  2735.00000000
520   2745.00000000  2746.00000000  2747.00000000
521   2748.00000000  2749.00000000  2750.00000000
522   2751.00000000  2752.00000000  2753.00000000
523   2754.00000000  2755.00000000  2756.00000000
524   2757.00000000  2758.00000000  2759.00000000
525   2760.00000000  2761.00000000  2762.00000000
526   2763.00000000  2764.00000000  2765.00000000
527   2766.00000000  2767.00000000  2768.00000000
528   2769.00000000  2770.00000000  2771.00000000
529   2772.00000000  2773.00000000  2774.00000000
530   2775.00000000  2776.00000000  2777.00000000
531   2778.00000000  2779.00000000  2780.00000000
532   2799.00000000  2800.00000000  2801.00000000
533   2802.00000000  2803.00000000  2804.00000000
534   2805.00000000  2806.00000000  2807.00000000
535   2808.00000000  2809.00000000  2810.00000000
536   2811.00000000  2812.00000000  2813.00000000
537   2814.00000000  2815.00000000  2816.00000000
538   2826.00000000  2827.00000000  2828.00000000
539   2829.00000000  2830.00000000  2831.00000000
540   2832.00000000  2833.00000000  2834.00000000
541   2835.00000000  2836.00000000  2837.00000000
542   2838.00000000  2839.00000000  2840.00000000
543   2841.00000000  2842.00000000  2843.00000000
544   2844.00000000  2845.00000000  2846.00000000
545   2847.00000000  2848.00000000  2849.00000000
546   2850.00000000  2851.00000000  2852.00000000
547   2853.00000000  2854.00000000  2855.00000000
548   2856.00000000  2857.00000000  2858.00000000
549   2859.00000000  2860.00000000  2861.00000000
550   2880.00000000  2881.00000000  2882.00000000
551   2883.00000000  2884.00000000  2885.00000000
552   2886.00000000  2887.00000000  2888.00000000
553   2889.00000000  2890.00000000  2891.00000000
554   2892.00000000  2893.00000000  2894.00000000
555   2895.00000000  2896.00000000  2897.00000000
556   2907.00000000  2908.00000000  2909.00000000
557   2910.00000000  2911.00000000  2912.00000000
558   2913.00000000  2914.00000000  2915.00000000
559   2916.00000000  2917.00000000  2918.00000000
560   2919.00000000  2920.00000000  2921.00000000
561   2922.00000000  2923.00000000  2924.00000000
562   2943.00000000  2944.00000000  2945.00000000
563   2946.00000000  2947.00000000  2948.00000000
564   2949.00000000  2950.00000000  2951.00000000
565   2970.00000000  2971.00000000  2972.00000000
566   2973.00000000  2974.00000000  2975.00000000
567   2976.00000000  2977.00000000  2978.00000000
568   2979.00000000  2980.00000000  2981.00000000
569   2982.00000000  2983.00000000  2984.00000000
570   2985.00000000  2986.00000000  2987.00000000
571   2988.00000000  2989.00000000  2990.00000000
572   2991.00000000  2992.00000000  2993.00000000
573   2994.00000000  2995.00000000  2996.00000000
574   2997.00000000  2998.00000000  2999.00000000
575   3000.00000000  3001.00000000  3002.00000000
576   3003.00000000  3004.00000000  3005.00000000
577   3024.00000000  3025.00000000  3026.00000000
578   3027.00000000  3028.00000000  3029.00000000
579   3030.00000000  3031.00000000  3032.00000000
580   3051.00000000  3052.00000000  3053.00000000
581   3054.00000000  3055.00000000  3056.00000000
582   3057.00000000  3058.00000000  3059.00000000
583   3060.00000000  3061.00000000  3062.00000000
584   3063.00000000  3064.00000000  3065.00000000
585   3066.00000000  3067.00000000  3068.00000000
586   3069.00000000  3070.00000000  3071.00000000
587   3072.00000000  3073.00000000  3074.00000000
588   3075.00000000  3076.00000000  3077.00000000
589   3078.00000000  3079.00000000  3080.00000000
590   3081.00000000  3082.00000000  3083.00000000
591   3084.00000000  3085.00000000  3086.00000000
592   3105.00000000  3106.00000000  3107.00000000
593   3108.00000000  3109.00000000  3110.00000000
594   3111.00000000  3112.00000000  3113.00000000
595   3132.00000000  3133.00000000  3134.00000000
596   3135.00000000  3136.00000000  3137.00000000
597   3138.00000000  3139.00000000  3140.00000000
598   3141.00000000  3142.00000000  3143.00000000
599   3144.00000000  3145.00000000  3146.00000000
600   3147.00000000  3148.00000000  3149.00000000
601   3150.00000000  3151.00000000  3152.00000000
602   3153.00000000  3154.00000000  3155.00000000
603   3156.00000000  3157.00000000  3158.00000000
604   3159.00000000  3160.00000000  3161.00000000
605   3162.00000000  3163.00000000  3164.00000000
606   3165.00000000  3166.00000000  3167.00000000
607   3177.00000000  3178.00000000  3179.00000000
608   3180.00000000  3181.00000000  3182.00000000
609   3183.00000000  3184.00000000  3185.00000000
610   3213.00000000  3214.00000000  3215.00000000
611   3216.00000000  3217.00000000  3218.00000000
612   3219.00000000  3220.00000000  3221.00000000
613   3222.00000000  3223.00000000  3224.00000000
614   3225.00000000  3226.00000000  3227.00000000
615   3228.00000000  3229.00000000  3230.00000000
616   3231.00000000  3232.00000000  3233.00000000
617   3234.00000000  3235.00000000  3236.00000000
618   3237.00000000  3238.00000000  3239.00000000
619   3240.00000000  3241.00000000  3242.00000000
620   3243.00000000  3244.00000000  3245.00000000
621   3246.00000000  3247.00000000  3248.00000000
622   3258.00000000  3259.00000000  3260.00000000
623   3261.00000000  3262.00000000  3263.00000000
624   3264.00000000  3265.00000000  3266.00000000
625   3294.00000000  3295.00000000  3296.00000000
626   3297.00000000  3298.00000000  3299.00000000
627   3300.00000000  3301.00000000  3302.00000000
628   3303.00000000  3304.00000000  3305.00000000
629   3306.00000000  3307.00000000  3308.00000000
630   3309.00000000  3310.00000000  3311.00000000
631   3312.00000000  3313.00000000  3314.00000000
632   3315.00000000  3316.00000000  3317.00000000
633   3318.00000000  3319.00000000  3320.00000000
634   3321.00000000  3322.00000000  3323.00000000
635   3324.00000000  3325.00000000  3326.00000000
636   3327.00000000  3328.00000000  3329.00000000
637   3339.00000000  3340.00000000  3341.00000000
638   3342.00000000  3343.00000000  3344.00000000
639   3345.00000000  3346.00000000  3347.00000000
640   3375.00000000  3376.00000000  3377.00000000
641   3378.00000000  3379.00000000  3380.00000000
642   3381.00000000  3382.00000000  3383.00000000
643   3384.00000000  3385.00000000  3386.00000000
644   3387.00000000  3388.00000000  3389.00000000
645   3390.00000000  3391.00000000  3392.00000000
646   3393.00000000  3394.00000000  3395.00000000
647   3396.00000000  3397.00000000  3398.00000000
648   3399.00000000  3400.00000000  3401.00000000
649   3420.00000000  3421.00000000  3422.00000000
650   3423.00000000  3424.00000000  3425.00000000
651   3426.00000000  3427.00000000  3428.00000000
652   3447.00000000  3448.00000000  3449.00000000
653   3450.00000000  3451.00000000  3452.00000000
654   3453.00000000  3454.00000000  3455.00000000
655   3456.00000000  3457.00000000  3458.00000000
656   3459.00000000  3460.00000000  3461.00000000
657   3462.00000000  3463.00000000  3464.00000000
658   3465.00000000  3466.00000000  3467.00000000
659   3468.00000000  3469.00000000  3470.00000000
660   3471.00000000  3472.00000000  3473.00000000
661   3474.00000000  3475.00000000  3476.00000000
662   3477.00000000  3478.00000000  3479.00000000
663   3480.00000000  3481.00000000  3482.00000000
664   3501.00000000  3502.00000000  3503.00000000
665   3504.00000000  3505.00000000  3506.00000000
666   3507.00000000  3508.00000000  3509.00000000
667   3528.00000000  3529.00000000  3530.00000000
668   3531.00000000  3532.00000000  3533.00000000
669   3534.00000000  3535.00000000  3536.00000000
670   3537.00000000  3538.00000000  3539.00000000
671   3540.00000000  3541.00000000  3542.00000000
672   3543.00000000  3544.00000000  3545.00000000
673   3546.00000000  3547.00000000  3548.00000000
674   3549.00000000  3550.00000000  3551.00000000
675   3552.00000000  3553.00000000  3554.00000000
676   3555.00000000  3556.00000000  3557.00000000
677   3558.00000000  3559.00000000  3560.00000000
678   3561.00000000  3562.00000000  3563.00000000
679   3582.00000000  3583.00000000  3584.00000000
680   3585.00000000  3586.00000000  3587.00000000
681   3588.00000000  3589.00000000  3590.00000000
682   3609.00000000  3610.00000000  3611.00000000
683   3612.00000000  3613.00000000  3614.00000000
684   3615.00000000  3616.00000000  3617.00000000
685   3618.00000000  3619.00000000  3620.00000000
686   3621.00000000  3622.00000000  3623.00000000
687   3624.00000000  3625.00000000  3626.00000000
688   3627.00000000  3628.00000000  3629.00000000
689   3630.00000000  3631.00000000  3632.00000000
690   3633.00000000  3634.00000000  3635.00000000
691   3636.00000000  3637.00000000  3638.00000000
692   3639.00000000  3640.00000000  3641.00000000
693   3642.00000000  3643.00000000  3644.00000000
694   3663.00000000  3664.00000000  3665.00000000
695   3666.00000000  3667.00000000  3668.00000000
696   3669.00000000  3670.00000000  3671.00000000
697   3690.00000000  3691.00000000  3692.00000000
698   3693.00000000  3694.00000000  3695.00000000
699   3696.00000000  3697.00000000  3698.00000000
700   3699.00000000  3700.00000000  3701.00000000
701   3702.00000000  3703.00000000  3704.00000000
702   3705.00000000  3706.00000000  3707.00000000
703   3708.00000000  3709.00000000  3710.00000000
704   3711.00000000  3712.00000000  3713.00000000
705   3714.00000000  3715.00000000  3716.00000000
706   3717.00000000  3718.00000000  3719.00000000
707   3720.00000000  3721.00000000  3722.00000000
708   3723.00000000  3724.00000000  3725.00000000
709   3744.00000000  3745.00000000  3746.00000000
710   3747.00000000  3748.00000000  3749.00000000
711   3750.00000000  3751.00000000  3752.00000000
712   3771.00000000  3772.00000000  3773.00000000
713   3774.00000000  3775.00000000  3776.00000000
714   3777.00000000  3778.00000000  3779.00000000
715   3780.00000000  3781.00000000  3782.00000000
716   3783.00000000  3784.00000000  3785.00000000
717   3786.00000000  3787.00000000  3788.00000000
718   3789.00000000  3790.00000000  3791.00000000
719   3792.00000000  3793.00000000  3794.00000000
720   3795.00000000  3796.00000000  3797.00000000
721   3798.00000000  3799.00000000  3800.00000000
722   3801.00000000  3802.00000000  3803.00000000
723   3804.00000000  3805.00000000  3806.00000000
724   3825.00000000  3826.00000000  3827.00000000
725   3828.00000000  3829.00000000  3830.00000000
726   3831.00000000  3832.00000000  3833.00000000
727   3852.00000000  3853.00000000  3854.00000000
728   3855.00000000  3856.00000000  3857.00000000
729   3858.00000000  3859.00000000  3860.00000000
730   3861.00000000  3862.00000000  3863.00000000
731   3864.00000000  3865.00000000  3866.00000000
732   3867.00000000  3868.00000000  3869.00000000
733   3870.00000000  3871.00000000  3872.00000000
734   3873.00000000  3874.00000000  3875.00000000
735   3876.00000000  3877.00000000  3878.00000000
736   3879.00000000  3880.00000000  3881.00000000
737   3882.00000000  3883.00000000  3884.00000000
738   3885.00000000  3886.00000000  3887.00000000
739   3888.00000000  3889.00000000  3890.00000000
740   3891.00000000  3892.00000000  3893.00000000
741   3894.00000000  3895.00000000  3896.00000000
742   3915.00000000  3916.00000000  3917.00000000
743   3918.00000000  3919.00000000  3920.00000000
744   3921.00000000  3922.00000000  3923.00000000
745   3942.00000000  3943.00000000  3944.00000000
746   3945.00000000  3946.00000000  3947.00000000
747   3948.00000000  3949.00000000  3950.00000000
748   3951.00000000  3952.00000000  3953.00000000
749   3954.00000000  3955.00000000  3956.00000000
750   3957.00000000  3958.00000000  3959.00000000
751   3960.00000000  3961.00000000  3962.00000000
752   3963.00000000  3964.00000000  3965.00000000
753   3966.00000000  3967.00000000  3968.00000000
754   3969.00000000  3970.00000000  3971.00000000
755   3972.00000000  3973.00000000  3974.00000000
756   3975.00000000  3976.00000000  3977.00000000
757   3996.00000000  3997.00000000  3998.00000000
758   3999.00000000  4000.00000000  4001.00000000
759   4002.00000000  4003.00000000  4004.00000000
760   4023.00000000  4024.00000000  4025.00000000
761   4026.00000000  4027.00000000  4028.00000000
762   4029.00000000  4030.00000000  4031.00000000
763   4032.00000000  4033.00000000  4034.00000000
764   4035.00000000  4036.00000000  4037.00000000
765   4038.00000000  4039.00000000  4040.00000000
766   4041.00000000  4042.00000000  4043.00000000
767   4044.00000000  4045.00000000  4046.00000000
768   4047.00000000  4048.00000000  4049.00000000
769   4050.00000000  4051.00000000  4052.00000000
770   4053.00000000  4054.00000000  4055.00000000
771   4056.00000000  4057.00000000  4058.00000000
772   4077.00000000  4078.00000000  4079.00000000
773   4080.00000000  4081.00000000  4082.00000000
774   4083.00000000  4084.00000000  4085.00000000
775   4104.00000000  4105.00000000  4106.00000000
776   4107.00000000  4108.00000000  4109.00000000
777   4110.00000000  4111.00000000  4112.00000000
778   4113.00000000  4114.00000000  4115.00000000
779   4116.00000000  4117.00000000  4118.00000000
780   4119.00000000  4120.00000000  4121.00000000
781   4122.00000000  4123.00000000  4124.00000000
782   4125.00000000  4126.00000000  4127.00000000
783   4128.00000000  4129.00000000  4130.00000000
784   4131.00000000  4132.00000000  4133.00000000
785   4134.00000000  4135.00000000  4136.00000000
786   4137.00000000  4138.00000000  4139.00000000
787   4140.00000000  4141.00000000  4142.00000000
788   4143.00000000  4144.00000000  4145.00000000
789   4146.00000000  4147.00000000  4148.00000000
790   4149.00000000  4150.00000000  4151.00000000
791   4152.00000000  4153.00000000  4154.00000000
792   4155.00000000  4156.00000000  4157.00000000
793   4158.00000000  4159.00000000  4160.00000000
794   4161.00000000  4162.00000000  4163.00000000
795   4164.00000000  4165.00000000  4166.00000000
796   4185.00000000  4186.00000000  4187.00000000
797   4188.00000000  4189.00000000  4190.00000000
798   4191.00000000  4192.00000000  4193.00000000
799   4212.00000000  4213.00000000  4214.00000000
800   4215.00000000  4216.00000000  4217.00000000
801   4218.00000000  4219.00000000  4220.00000000
802   4221.00000000  4222.00000000  4223.00000000
803   4224.00000000  4225.00000000  4226.00000000
804   4227.00000000  4228.00000000  4229.00000000
805   4230.00000000  4231.00000000  4232.00000000
806   4233.00000000  4234.00000000  4235.00000000
807   4236.00000000  4237.00000000  4238.00000000
808   4239.00000000  4240.00000000  4241.00000000
809   4242.00000000  4243.00000000  4244.00000000
810   4245.00000000  4246.00000000  4247.00000000
811   4266.00000000  4267.00000000  4268.00000000
812   4269.00000000  4270.00000000  4271.00000000
813   4272.00000000  4273.00000000  4274.00000000
814   4293.00000000  4294.00000000  4295.00000000
815   4296.00000000  4297.00000000  4298.00000000
816   4299.00000000  4300.00000000  4301.00000000
817   4302.00000000  4303.00000000  4304.00000000
818   4305.00000000  4306.00000000  4307.00000000
819   4308.00000000  4309.00000000  4310.00000000
820   4311.00000000  4312.00000000  4313.00000000
821   4314.00000000  4315.00000000  4316.00000000
822   4317.00000000  4318.00000000  4319.00000000
823   4320.00000000  4321.00000000  4322.00000000
824   4323.00000000  4324.00000000  4325.00000000
825   4326.00000000  4327.00000000  4328.00000000
826   4347.00000000  4348.00000000  4349.00000000
827   4350.00000000  4351.00000000  4352.00000000
828   4353.00000000  4354.00000000  4355.00000000
829   4374.00000000  4375.00000000  4376.00000000
830   4377.00000000  4378.00000000  4379.00000000
831   4380.00000000  4381.00000000  4382.00000000
832   4383.00000000  4384.00000000  4385.00000000
833   4386.00000000  4387.00000000  4388.00000000
834   4389.00000000  4390.00000000  4391.00000000
835   4392.00000000  4393.00000000  4394.00000000
836   4395.00000000  4396.00000000  4397.00000000
837   4398.00000000  4399.00000000  4400.00000000
838   4401.00000000  4402.00000000  4403.00000000
839   4404.00000000  4405.00000000  4406.00000000
840   4407.00000000  4408.00000000  4409.00000000
841   4428.00000000  4429.00000000  4430.00000000
842   4431.00000000  4432.00000000  4433.00000000
843   4434.00000000  4435.00000000  4436.00000000
844   4455.00000000  4456.00000000  4457.00000000
845   4458.00000000  4459.00000000  4460.00000000
846   4461.00000000  4462.00000000  4463.00000000
847   4464.00000000  4465.00000000  4466.00000000
848   4467.00000000  4468.00000000  4469.00000000
849   4470.00000000  4471.00000000  4472.00000000
850   4473.00000000  4474.00000000  4475.00000000
851   4476.00000000  4477.00000000  4478.00000000
852   4479.00000000  4480.00000000  4481.00000000
853   4482.00000000  4483.00000000  4484.00000000
854   4485.00000000  4486.00000000  4487.00000000
855   4488.00000000  4489.00000000  4490.00000000
856   4509.00000000  4510.00000000  4511.00000000
857   4512.00000000  4513.00000000  4514.00000000
858   4515.00000000  4516.00000000  4517.00000000
859   4536.00000000  4537.00000000  4538.00000000
860   4539.00000000  4540.00000000  4541.00000000
861   4542.00000000  4543.00000000  4544.00000000
862   4545.00000000  4546.00000000  4547.00000000
863   4548.00000000  4549.00000000  4550.00000000
864   4551.00000000  4552.00000000  4553.00000000
865   4554.00000000  4555.00000000  4556.00000000
866   4557.00000000  4558.00000000  4559.00000000
867   4560.00000000  4561.00000000  4562.00000000
868   4563.00000000  4564.00000000  4565.00000000
869   4566.00000000  4567.00000000  4568.00000000
870   4569.00000000  4570.00000000  4571.00000000
871   4590.00000000  4591.00000000  4592.00000000
872   4593.00000000  4594.00000000  4595.00000000
873   4596.00000000  4597.00000000  4598.00000000
874   4635.00000000  4636.00000000  4637.00000000
875   4638.00000000  4639.00000000  4640.00000000
876   4641.00000000  4642.00000000  4643.00000000
877   4662.00000000  4663.00000000  4664.00000000
878   4665.00000000  4666.00000000  4667.00000000
879   4668.00000000  4669.00000000  4670.00000000
880   4671.00000000  4672.00000000  4673.00000000
881   4674.00000000  4675.00000000  4676.00000000
882   4677.00000000  4678.00000000  4679.00000000
883   4680.00000000  4681.00000000  4682.00000000
884   4683.00000000  4684.00000000  4685.00000000
885   4686.00000000  4687.00000000  4688.00000000
886   4689.00000000  4690.00000000  4691.00000000
887   4692.00000000  4693.00000000  4694.00000000
888   4695.00000000  4696.00000000  4697.00000000
889   4716.00000000  4717.00000000  4718.00000000
890   4719.00000000  4720.00000000  4721.00000000
891   4722.00000000  4723.00000000  4724.00000000
892   4743.00000000  4744.00000000  4745.00000000
893   4746.00000000  4747.00000000  4748.00000000
894   4749.00000000  4750.00000000  4751.00000000
895   4752.00000000  4753.00000000  4754.00000000
896   4755.00000000  4756.00000000  4757.00000000
897   4758.00000000  4759.00000000  4760.00000000
898   4761.00000000  4762.00000000  4763.00000000
899   4764.00000000  4765.00000000  4766.00000000
900   4767.00000000  4768.00000000  4769.00000000
901   4770.00000000  4771.00000000  4772.00000000
902   4773.00000000  4774.00000000  4775.00000000
903   4776.00000000  4777.00000000  4778.00000000
904   4797.00000000  4798.00000000  4799.00000000
905   4800.00000000  4801.00000000  4802.00000000
906   4803.00000000  4804.00000000  4805.00000000
907   4824.00000000  4825.00000000  4826.00000000
908   4827.00000000  4828.00000000  4829.00000000
909   4830.00000000  4831.00000000  4832.00000000
910   4833.00000000  4834.00000000  4835.00000000
911   4836.00000000  4837.00000000  4838.00000000
912   4839.00000000  4840.00000000  4841.00000000
913   4842.00000000  4843.00000000  4844.00000000
914   4845.00000000  4846.00000000  4847.00000000
915   4848.00000000  4849.00000000  4850.00000000
916   4851.00000000  4852.00000000  4853.00000000
917   4854.00000000  4855.00000000  4856.00000000
918   4857.00000000  4858.00000000  4859.00000000
919   4860.00000000  4861.00000000  4862.00000000
920   4863.00000000  4864.00000000  4865.00000000
921   4866.00000000  4867.00000000  4868.00000000
922   4869.00000000  4870.00000000  4871.00000000
923   4872.00000000  4873.00000000  4874.00000000
924   4875.00000000  4876.00000000  4877.00000000
925   4878.00000000  4879.00000000  4880.00000000
926   4881.00000000  4882.00000000  4883.00000000
927   4884.00000000  4885.00000000  4886.00000000
928   4887.00000000  4888.00000000  4889.00000000
929   4890.00000000  4891.00000000  4892.00000000
930   4893.00000000  4894.00000000  4895.00000000
931   4914.00000000  4915.00000000  4916.00000000
932   4917.00000000  4918.00000000  4919.00000000
933   4920.00000000  4921.00000000  4922.00000000
934   4932.00000000  4933.00000000  4934.00000000
935   4935.00000000  4936.00000000  4937.00000000
936   4938.00000000  4939.00000000  4940.00000000
937   4941.00000000  4942.00000000  4943.00000000
938   4944.00000000  4945.00000000  4946.00000000
939   4947.00000000  4948.00000000  4949.00000000
940   4950.00000000  4951.00000000  4952.00000000
941   4953.00000000  4954.00000000  4955.00000000
942   4956.00000000  4957.00000000  4958.00000000
943   4959.00000000  4960.00000000  4961.00000000
944   4962.00000000  4963.00000000  4964.00000000
945   4965.00000000  4966.00000000  4967.00000000
946   4968.00000000  4969.00000000  4970.00000000
947   4971.00000000  4972.00000000  4973.00000000
948   4974.00000000  4975.00000000  4976.00000000
949   4995.00000000  4996.00000000  4997.00000000
950   4998.00000000  4999.00000000  5000.00000000
951   5001.00000000  5002.00000000  5003.00000000
952   5013.00000000  5014.00000000  5015.00000000
953   5016.00000000  5017.00000000  5018.00000000
954   5019.00000000  5020.00000000  5021.00000000
955   5022.00000000  5023.00000000  5024.00000000
956   5025.00000000  5026.00000000  5027.00000000
957   5028.00000000  5029.00000000  5030.00000000
958   5031.00000000  5032.00000000  5033.00000000
959   5034.00000000  5035.00000000  5036.00000000
960   5037.00000000  5038.00000000  5039.00000000
961   5040.00000000  5041.00000000  5042.00000000
962   5043.00000000  5044.00000000  5045.00000000
963   5046.00000000  5047.00000000  5048.00000000
964   5049.00000000  5050.00000000  5051.00000000
965   5052.00000000  5053.00000000  5054.00000000
966   5055.00000000  5056.00000000  5057.00000000
967   5076.00000000  5077.00000000  5078.00000000
968   5079.00000000  5080.00000000  5081.00000000
969   5082.00000000  5083.00000000  5084.00000000
970   5094.00000000  5095.00000000  5096.00000000
971   5097.00000000  5098.00000000  5099.00000000
972   5100.00000000  5101.00000000  5102.00000000
973   5103.00000000  5104.00000000  5105.00000000
974   5106.00000000  5107.00000000  5108.00000000
975   5109.00000000  5110.00000000  5111.00000000
976   5112.00000000  5113.00000000  5114.00000000
977   5115.00000000  5116.00000000  5117.00000000
978   5118.00000000  5119.00000000  5120.00000000
979   5121.00000000  5122.00000000  5123.00000000
980   5124.00000000  5125.00000000  5126.00000000
981   5127.00000000  5128.00000000  5129.00000000
982   5157.00000000  5158.00000000  5159.00000000
983   5160.00000000  5161.00000000  5162.00000000
984   5163.00000000  5164.00000000  5165.00000000
985   5175.00000000  5176.00000000  5177.00000000
986   5178.00000000  5179.00000000  5180.00000000
987   5181.00000000  5182.00000000  5183.00000000
988   5184.00000000  5185.00000000  5186.00000000
989   5187.00000000  5188.00000000  5189.00000000
990   5190.00000000  5191.00000000  5192.00000000
991   5193.00000000  5194.00000000  5195.00000000
992   5196.00000000  5197.00000000  5198.00000000
993   5199.00000000  5200.00000000  5201.00000000
994   5202.00000000  5203.00000000  5204.00000000
995   5205.00000000  5206.00000000  5207.00000000
996   5208.00000000  5209.00000000  5210.00000000
997   5238.00000000  5239.00000000  5240.00000000
998   5241.00000000  5242.00000000  5243.00000000
999   5244.00000000  5245.00000000  5246.00000000
1000  5256.00000000  5257.00000000  5258.00000000
1001  5259.00000000  5260.00000000  5261.00000000
1002  5262.00000000  5263.00000000  5264.00000000
1003  5265.00000000  5266.00000000  5267.00000000
1004  5268.00000000  5269.00000000  5270.00000000
1005  5271.00000000  5272.00000000  5273.00000000
1006  5274.00000000  5275.00000000  5276.00000000
1007  5277.00000000  5278.00000000  5279.00000000
1008  5280.00000000  5281.00000000  5282.00000000
1009  5283.00000000  5284.00000000  5285.00000000
1010  5286.00000000  5287.00000000  5288.00000000
1011  5289.00000000  5290.00000000  5291.00000000
1012  5319.00000000  5320.00000000  5321.00000000
1013  5322.00000000  5323.00000000  5324.00000000
1014  5325.00000000  5326.00000000  5327.00000000
1015  5337.00000000  5338.00000000  5339.00000000
1016  5340.00000000  5341.00000000  5342.00000000
1017  5343.00000000  5344.00000000  5345.00000000
1018  5346.00000000  5347.00000000  5348.00000000
1019  5349.00000000  5350.00000000  5351.00000000
1020  5352.00000000  5353.00000000  5354.00000000
1021  5355.00000000  5356.00000000  5357.00000000
1022  5358.00000000  5359.00000000  5360.00000000
1023  5361.00000000  5362.00000000  5363.00000000
1024  5364.00000000  5365.00000000  5366.00000000
1025  5367.00000000  5368.00000000  5369.00000000
1026  5370.00000000  5371.00000000  5372.00000000
1027  5400.00000000  5401.00000000  5402.00000000
1028  5403.00000000  5404.00000000  5405.00000000
1029  5406.00000000  5407.00000000  5408.00000000
1030  5418.00000000  5419.00000000  5420.00000000
1031  5421.00000000  5422.00000000  5423.00000000
1032  5424.00000000  5425.00000000  5426.00000000
1033  5427.00000000  5428.00000000  5429.00000000
1034  5430.00000000  5431.00000000  5432.00000000
1035  5433.00000000  5434.00000000  5435.00000000
1036  5436.00000000  5437.00000000  5438.00000000
1037  5439.00000000  5440.00000000  5441.00000000
1038  5442.00000000  5443.00000000  5444.00000000
1039  5445.00000000  5446.00000000  5447.00000000
1040  5448.00000000  5449.00000000  5450.00000000
1041  5451.00000000  5452.00000000  5453.00000000
1042  5481.00000000  5482.00000000  5483.00000000
1043  5484.00000000  5485.00000000  5486.00000000
1044  5487.00000000  5488.00000000  5489.00000000
1045  5499.00000000  5500.00000000  5501.00000000
1046  5502.00000000  5503.00000000  5504.00000000
1047  5505.00000000  5506.00000000  5507.00000000
1048  5508.00000000  5509.00000000  5510.00000000
1049  5511.00000000  5512.00000000  5513.00000000
1050  5514.00000000  5515.00000000  5516.00000000
1051  5517.00000000  5518.00000000  5519.00000000
1052  5520.00000000  5521.00000000  5522.00000000
1053  5523.00000000  5524.00000000  5525.00000000
1054  5526.00000000  5527.00000000  5528.00000000
1055  5529.00000000  5530.00000000  5531.00000000
1056  5532.00000000  5533.00000000  5534.00000000
1057  5562.00000000  5563.00000000  5564.00000000
1058  5565.00000000  5566.00000000  5567.00000000
1059  5568.00000000  5569.00000000  5570.00000000
1060  5580.00000000  5581.00000000  5582.00000000
1061  5583.00000000  5584.00000000  5585.00000000
1062  5586.00000000  5587.00000000  5588.00000000
1063  5589.00000000  5590.00000000  5591.00000000
1064  5592.00000000  5593.00000000  5594.00000000
1065  5595.00000000  5596.00000000  5597.00000000
1066  5598.00000000  5599.00000000  5600.00000000
1067  5601.00000000  5602.00000000  5603.00000000
1068  5604.00000000  5605.00000000  5606.00000000
1069  5607.00000000  5608.00000000  5609.00000000
1070  5610.00000000  5611.00000000  5612.00000000
1071  5613.00000000  5614.00000000  5615.00000000
1072  5634.00000000  5635.00000000  5636.00000000
1073  5637.00000000  5638.00000000  5639.00000000
1074  5640.00000000  5641.00000000  5642.00000000
1075  5661.00000000  5662.00000000  5663.00000000
1076  5664.00000000  5665.00000000  5666.00000000
1077  5667.00000000  5668.00000000  5669.00000000
1078  5670.00000000  5671.00000000  5672.00000000
1079  5673.00000000  5674.00000000  5675.00000000
1080  5676.00000000  5677.00000000  5678.00000000
1081  5679.00000000  5680.00000000  5681.00000000
1082  5682.00000000  5683.00000000  5684.00000000
1083  5685.00000000  5686.00000000  5687.00000000
1084  5688.00000000  5689.00000000  5690.00000000
1085  5691.00000000  5692.00000000  5693.00000000
1086  5694.00000000  5695.00000000  5696.00000000
1087  5715.00000000  5716.00000000  5717.00000000
1088  5718.00000000  5719.00000000  5720.00000000
1089  5721.00000000  5722.00000000  5723.00000000
1090  5742.00000000  5743.00000000  5744.00000000
1091  5745.00000000  5746.00000000  5747.00000000
1092  5748.00000000  5749.00000000  5750.00000000
1093  5751.00000000  5752.00000000  5753.00000000
1094  5754.00000000  5755.00000000  5756.00000000
1095  5757.00000000  5758.00000000  5759.00000000
1096  5760.00000000  5761.00000000  5762.00000000
1097  5763.00000000  5764.00000000  5765.00000000
1098  5766.00000000  5767.00000000  5768.00000000
1099  5769.00000000  5770.00000000  5771.00000000
1100  5772.00000000  5773.00000000  5774.00000000
1101  5775.00000000  5776.00000000  5777.00000000
1102  5796.00000000  5797.00000000  5798.00000000
1103  5799.00000000  5800.00000000  5801.00000000
1104  5802.00000000  5803.00000000  5804.00000000
1105  5823.00000000  5824.00000000  5825.00000000
1106  5826.00000000  5827.00000000  5828.00000000
1107  5829.00000000  5830.00000000  5831.00000000
1108  5832.00000000  5833.00000000  5834.00000000
1109  5835.00000000  5836.00000000  5837.00000000
1110  5838.00000000  5839.00000000  5840.00000000
1111  5859.00000000  5860.00000000  5861.00000000
1112  5862.00000000  5863.00000000  5864.00000000
1113  5865.00000000  5866.00000000  5867.00000000
1114  5886.00000000  5887.00000000  5888.00000000
1115  5889.00000000  5890.00000000  5891.00000000
1116  5892.00000000  5893.00000000  5894.00000000
1117  5895.00000000  5896.00000000  5897.00000000
1118  5898.00000000  5899.00000000  5900.00000000
1119  5901.00000000  5902.00000000  5903.00000000
1120  5904.00000000  5905.00000000  5906.00000000
1121  5907.00000000  5908.00000000  5909.00000000
1122  5910.00000000  5911.00000000  5912.00000000
1123  5913.00000000  5914.00000000  5915.00000000
1124  5916.00000000  5917.00000000  5918.00000000
1125  5919.00000000  5920.00000000  5921.00000000
1126  5940.00000000  5941.00000000  5942.00000000
1127  5943.00000000  5944.00000000  5945.00000000
1128  5946.00000000  5947.00000000  5948.00000000
1129  5967.00000000  5968.00000000  5969.00000000
1130  5970.00000000  5971.00000000  5972.00000000
1131  5973.00000000  5974.00000000  5975.00000000
1132  5976.00000000  5977.00000000  5978.00000000
1133  5979.00000000  5980.00000000  5981.00000000
1134  5982.00000000  5983.00000000  5984.00000000
1135  5985.00000000  5986.00000000  5987.00000000
1136  5988.00000000  5989.00000000  5990.00000000
1137  5991.00000000  5992.00000000  5993.00000000
1138  5994.00000000  5995.00000000  5996.00000000
1139  5997.00000000  5998.00000000  5999.00000000
1140  6000.00000000  6001.00000000  6002.00000000
1141  6021.00000000  6022.00000000  6023.00000000
1142  6024.00000000  6025.00000000  6026.00000000
1143  6027.00000000  6028.00000000  6029.00000000
1144  6048.00000000  6049.00000000  6050.00000000
1145  6051.00000000  6052.00000000  6053.00000000
1146  6054.00000000  6055.00000000  6056.00000000
1147  6057.00000000  6058.00000000  6059.00000000
1148  6060.00000000  6061.00000000  6062.00000000
1149  6063.00000000  6064.00000000  6065.00000000
1150  6066.00000000  6067.00000000  6068.00000000
1151  6069.00000000  6070.00000000  6071.00000000
1152  6072.00000000  6073.00000000  6074.00000000
1153  6075.00000000  6076.00000000  6077.00000000
1154  6078.00000000  6079.00000000  6080.00000000
1155  6081.00000000  6082.00000000  6083.00000000
1156  6093.00000000  6094.00000000  6095.00000000
1157  6096.00000000  6097.00000000  6098.00000000
1158  6099.00000000  6100.00000000  6101.00000000
1159  6129.00000000  6130.00000000  6131.00000000
1160  6132.00000000  6133.00000000  6134.00000000
1161  6135.00000000  6136.00000000  6137.00000000
1162  6138.00000000  6139.00000000  6140.00000000
1163  6141.00000000  6142.00000000  6143.00000000
1164  6144.00000000  6145.00000000  6146.00000000
1165  6147.00000000  6148.00000000  6149.00000000
1166  6150.00000000  6151.00000000  6152.00000000
1167  6153.00000000  6154.00000000  6155.00000000
1168  6156.00000000  6157.00000000  6158.00000000
1169  6159.00000000  6160.00000000  6161.00000000
1170  6162.00000000  6163.00000000  6164.00000000
1171  6174.00000000  6175.00000000  6176.00000000
1172  6177.00000000  6178.00000000  6179.00000000
1173  6180.00000000  6181.00000000  6182.00000000
1174  6210.00000000  6211.00000000  6212.00000000
1175  6213.00000000  6214.00000000  6215.00000000
1176  6216.00000000  6217.00000000  6218.00000000
1177  6219.00000000  6220.00000000  6221.00000000
1178  6222.00000000  6223.00000000  6224.00000000
1179  6225.00000000  6226.00000000  6227.00000000
1180  6228.00000000  6229.00000000  6230.00000000
1181  6231.00000000  6232.00000000  6233.00000000
1182  6234.00000000  6235.00000000  6236.00000000
1183  6237.00000000  6238.00000000  6239.00000000
1184  6240.00000000  6241.00000000  6242.00000000
1185  6243.00000000  6244.00000000  6245.00000000
1186  6255.00000000  6256.00000000  6257.00000000
1187  6258.00000000  6259.00000000  6260.00000000
1188  6261.00000000  6262.00000000  6263.00000000
1189  6291.00000000  6292.00000000  6293.00000000
1190  6294.00000000  6295.00000000  6296.00000000
1191  6297.00000000  6298.00000000  6299.00000000
1192  6300.00000000  6301.00000000  6302.00000000
1193  6303.00000000  6304.00000000  6305.00000000
1194  6306.00000000  6307.00000000  6308.00000000
1195  6309.00000000  6310.00000000  6311.00000000
1196  6312.00000000  6313.00000000  6314.00000000
1197  6315.00000000  6316.00000000  6317.00000000
1198  6318.00000000  6319.00000000  6320.00000000
1199  6321.00000000  6322.00000000  6323.00000000
1200  6324.00000000  6325.00000000  6326.00000000
1201  6327.00000000  6328.00000000  6329.00000000
1202  6330.00000000  6331.00000000  6332.00000000
1203  6333.00000000  6334.00000000  6335.00000000
1204  6336.00000000  6337.00000000  6338.00000000
1205  6339.00000000  6340.00000000  6341.00000000
1206  6342.00000000  6343.00000000  6344.00000000
1207  6372.00000000  6373.00000000  6374.00000000
1208  6375.00000000  6376.00000000  6377.00000000
1209  6378.00000000  6379.00000000  6380.00000000
1210  6390.00000000  6391.00000000  6392.00000000
1211  6393.00000000  6394.00000000  6395.00000000
1212  6396.00000000  6397.00000000  6398.00000000
1213  6399.00000000  6400.00000000  6401.00000000
1214  6402.00000000  6403.00000000  6404.00000000
1215  6405.00000000  6406.00000000  6407.00000000
1216  6408.00000000  6409.00000000  6410.00000000
1217  6411.00000000  6412.00000000  6413.00000000
1218  6414.00000000  6415.00000000  6416.00000000
1219  6417.00000000  6418.00000000  6419.00000000
1220  6420.00000000  6421.00000000  6422.00000000
1221  6423.00000000  6424.00000000  6425.00000000
1222  6453.00000000  6454.00000000  6455.00000000
1223  6456.00000000  6457.00000000  6458.00000000
1224  6459.00000000  6460.00000000  6461.00000000
1225  6471.00000000  6472.00000000  6473.00000000
1226  6474.00000000  6475.00000000  6476.00000000
1227  6477.00000000  6478.00000000  6479.00000000
1228  6480.00000000  6481.00000000  6482.00000000
1229  6483.00000000  6484.00000000  6485.00000000
1230  6486.00000000  6487.00000000  6488.00000000
1231  6489.00000000  6490.00000000  6491.00000000
1232  6492.00000000  6493.00000000  6494.00000000
1233  6495.00000000  6496.00000000  6497.00000000
1234  6498.00000000  6499.00000000  6500.00000000
1235  6501.00000000  6502.00000000  6503.00000000
1236  6504.00000000  6505.00000000  6506.00000000
1237  6534.00000000  6535.00000000  6536.00000000
1238  6537.00000000  6538.00000000  6539.00000000
1239  6540.00000000  6541.00000000  6542.00000000
1240  6552.00000000  6553.00000000  6554.00000000
1241  6555.00000000  6556.00000000  6557.00000000
1242  6558.00000000  6559.00000000  6560.00000000
1243  6561.00000000  6562.00000000  6563.00000000
1244  6564.00000000  6565.00000000  6566.00000000
1245  6567.00000000  6568.00000000  6569.00000000
1246  6570.00000000  6571.00000000  6572.00000000
1247  6573.00000000  6574.00000000  6575.00000000
1248  6576.00000000  6577.00000000  6578.00000000
1249  6579.00000000  6580.00000000  6581.00000000
1250  6582.00000000  6583.00000000  6584.00000000
1251  6585.00000000  6586.00000000  6587.00000000
1252  6606.00000000  6607.00000000  6608.00000000
1253  6609.00000000  6610.00000000  6611.00000000
1254  6612.00000000  6613.00000000  6614.00000000
1255  6633.00000000  6634.00000000  6635.00000000
1256  6636.00000000  6637.00000000  6638.00000000
1257  6639.00000000  6640.00000000  6641.00000000
1258  6642.00000000  6643.00000000  6644.00000000
1259  6645.00000000  6646.00000000  6647.00000000
1260  6648.00000000  6649.00000000  6650.00000000
1261  6651.00000000  6652.00000000  6653.00000000
1262  6654.00000000  6655.00000000  6656.00000000
1263  6657.00000000  6658.00000000  6659.00000000
1264  6660.00000000  6661.00000000  6662.00000000
1265  6663.00000000  6664.00000000  6665.00000000
1266  6666.00000000  6667.00000000  6668.00000000
1267  6687.00000000  6688.00000000  6689.00000000
1268  6690.00000000  6691.00000000  6692.00000000
1269  6693.00000000  6694.00000000  6695.00000000
1270  6714.00000000  6715.00000000  6716.00000000
1271  6717.00000000  6718.00000000  6719.00000000
1272  6720.00000000  6721.00000000  6722.00000000
1273  6723.00000000  6724.00000000  6725.00000000
1274  6726.00000000  6727.00000000  6728.00000000
1275  6729.00000000  6730.00000000  6731.00000000
1276  6732.00000000  6733.00000000  6734.00000000
1277  6735.00000000  6736.00000000  6737.00000000
1278  6738.00000000  6739.00000000  6740.00000000
1279  6741.00000000  6742.00000000  6743.00000000
1280  6744.00000000  6745.00000000  6746.00000000
1281  6747.00000000  6748.00000000  6749.00000000
1282  6768.00000000  6769.00000000  6770.00000000
1283  6771.00000000  6772.00000000  6773.00000000
1284  6774.00000000  6775.00000000  6776.00000000
1285  6795.00000000  6796.00000000  6797.00000000
1286  6798.00000000  6799.00000000  6800.00000000
1287  6801.00000000  6802.00000000  6803.00000000
1288  6804.00000000  6805.00000000  6806.00000000
1289  6807.00000000  6808.00000000  6809.00000000
1290  6810.00000000  6811.00000000  6812.00000000
1291  6831.00000000  6832.00000000  6833.00000000
1292  6834.00000000  6835.00000000  6836.00000000
1293  6837.00000000  6838.00000000  6839.00000000
1294  6858.00000000  6859.00000000  6860.00000000
1295  6861.00000000  6862.00000000  6863.00000000
1296  6864.00000000  6865.00000000  6866.00000000
1297  6867.00000000  6868.00000000  6869.00000000
1298  6870.00000000  6871.00000000  6872.00000000
1299  6873.00000000  6874.00000000  6875.00000000
1300  6876.00000000  6877.00000000  6878.00000000
1301  6879.00000000  6880.00000000  6881.00000000
1302  6882.00000000  6883.00000000  6884.00000000
1303  6885.00000000  6886.00000000  6887.00000000
1304  6888.00000000  6889.00000000  6890.00000000
1305  6891.00000000  6892.00000000  6893.00000000
1306  6912.00000000  6913.00000000  6914.00000000
1307  6915.00000000  6916.00000000  6917.00000000
1308  6918.00000000  6919.00000000  6920.00000000
1309  6939.00000000  6940.00000000  6941.00000000
1310  6942.00000000  6943.00000000  6944.00000000
1311  6945.00000000  6946.00000000  6947.00000000
1312  6948.00000000  6949.00000000  6950.00000000
1313  6951.00000000  6952.00000000  6953.00000000
1314  6954.00000000  6955.00000000  6956.00000000
1315  6957.00000000  6958.00000000  6959.00000000
1316  6960.00000000  6961.00000000  6962.00000000
1317  6963.00000000  6964.00000000  6965.00000000
1318  6966.00000000  6967.00000000  6968.00000000
1319  6969.00000000  6970.00000000  6971.00000000
1320  6972.00000000  6973.00000000  6974.00000000
1321  6993.00000000  6994.00000000  6995.00000000
1322  6996.00000000  6997.00000000  6998.00000000
1323  6999.00000000  7000.00000000  7001.00000000
1324  7020.00000000  7021.00000000  7022.00000000
1325  7023.00000000  7024.00000000  7025.00000000
1326  7026.00000000  7027.00000000  7028.00000000
1327  7029.00000000  7030.00000000  7031.00000000
1328  7032.00000000  7033.00000000  7034.00000000
1329  7035.00000000  7036.00000000  7037.00000000
1330  7038.00000000  7039.00000000  7040.00000000
1331  7041.00000000  7042.00000000  7043.00000000
1332  7044.00000000  7045.00000000  7046.00000000
1333  7047.00000000  7048.00000000  7049.00000000
1334  7050.00000000  7051.00000000  7052.00000000
1335  7053.00000000  7054.00000000  7055.00000000
1336  7065.00000000  7066.00000000  7067.00000000
1337  7068.00000000  7069.00000000  7070.00000000
1338  7071.00000000  7072.00000000  7073.00000000
1339  7101.00000000  7102.00000000  7103.00000000
1340  7104.00000000  7105.00000000  7106.00000000
1341  7107.00000000  7108.00000000  7109.00000000
1342  7110.00000000  7111.00000000  7112.00000000
1343  7113.00000000  7114.00000000  7115.00000000
1344  7116.00000000  7117.00000000  7118.00000000
1345  7119.00000000  7120.00000000  7121.00000000
1346  7122.00000000  7123.00000000  7124.00000000
1347  7125.00000000  7126.00000000  7127.00000000
1348  7128.00000000  7129.00000000  7130.00000000
1349  7131.00000000  7132.00000000  7133.00000000
1350  7134.00000000  7135.00000000  7136.00000000
1351  7146.00000000  7147.00000000  7148.00000000
1352  7149.00000000  7150.00000000  7151.00000000
1353  7152.00000000  7153.00000000  7154.00000000
1354  7182.00000000  7183.00000000  7184.00000000
1355  7185.00000000  7186.00000000  7187.00000000
1356  7188.00000000  7189.00000000  7190.00000000
1357  7191.00000000  7192.00000000  7193.00000000
1358  7194.00000000  7195.00000000  7196.00000000
1359  7197.00000000  7198.00000000  7199.00000000
1360  7200.00000000  7201.00000000  7202.00000000
1361  7203.00000000  7204.00000000  7205.00000000
1362  7206.00000000  7207.00000000  7208.00000000
1363  7209.00000000  7210.00000000  7211.00000000
1364  7212.00000000  7213.00000000  7214.00000000
1365  7215.00000000  7216.00000000  7217.00000000
1366  7227.00000000  7228.00000000  7229.00000000
1367  7230.00000000  7231.00000000  7232.00000000
1368  7233.00000000  7234.00000000  7235.00000000
1369  7263.00000000  7264.00000000  7265.00000000
1370  7266.00000000  7267.00000000  7268.00000000
1371  7269.00000000  7270.00000000  7271.00000000
1372  7272.00000000  7273.00000000  7274.00000000
1373  7275.00000000  7276.00000000  7277.00000000
1374  7278.00000000  7279.00000000  7280.00000000
1375  7281.00000000  7282.00000000  7283.00000000
1376  7284.00000000  7285.00000000  7286.00000000
1377  7287.00000000  7288.00000000  7289.00000000
1378  7290.00000000  7291.00000000  7292.00000000
1379  7293.00000000  7294.00000000  7295.00000000
1380  7296.00000000  7297.00000000  7298.00000000
1381  7308.00000000  7309.00000000  7310.00000000
1382  7311.00000000  7312.00000000  7313.00000000
1383  7314.00000000  7315.00000000  7316.00000000
1384  7335.00000000  7336.00000000  7337.00000000
1385  7338.00000000  7339.00000000  7340.00000000
1386  7341.00000000  7342.00000000  7343.00000000
1387  7344.00000000  7345.00000000  7346.00000000
1388  7347.00000000  7348.00000000  7349.00000000
1389  7350.00000000  7351.00000000  7352.00000000
1390  7353.00000000  7354.00000000  7355.00000000
1391  7356.00000000  7357.00000000  7358.00000000
1392  7359.00000000  7360.00000000  7361.00000000
1393  7362.00000000  7363.00000000  7364.00000000
1394  7365.00000000  7366.00000000  7367.00000000
1395  7368.00000000  7369.00000000  7370.00000000
1396  7371.00000000  7372.00000000  7373.00000000
1397  7374.00000000  7375.00000000  7376.00000000
1398  7377.00000000  7378.00000000  7379.00000000
1399  7389.00000000  7390.00000000  7391.00000000
1400  7392.00000000  7393.00000000  7394.00000000
1401  7395.00000000  7396.00000000  7397.00000000
1402  7416.00000000  7417.00000000  7418.00000000
1403  7419.00000000  7420.00000000  7421.00000000
1404  7422.00000000  7423.00000000  7424.00000000
1405  7425.00000000  7426.00000000  7427.00000000
1406  7428.00000000  7429.00000000  7430.00000000
1407  7431.00000000  7432.00000000  7433.00000000
1408  7434.00000000  7435.00000000  7436.00000000
1409  7437.00000000  7438.00000000  7439.00000000
1410  7440.00000000  7441.00000000  7442.00000000
1411  7443.00000000  7444.00000000  7445.00000000
1412  7446.00000000  7447.00000000  7448.00000000
1413  7449.00000000  7450.00000000  7451.00000000
1414  7452.00000000  7453.00000000  7454.00000000
1415  7455.00000000  7456.00000000  7457.00000000
1416  7458.00000000  7459.00000000  7460.00000000
1417  7470.00000000  7471.00000000  7472.00000000
1418  7473.00000000  7474.00000000  7475.00000000
1419  7476.00000000  7477.00000000  7478.00000000
1420  7497.00000000  7498.00000000  7499.00000000
1421  7500.00000000  7501.00000000  7502.00000000
1422  7503.00000000  7504.00000000  7505.00000000
1423  7506.00000000  7507.00000000  7508.00000000
1424  7509.00000000  7510.00000000  7511.00000000
1425  7512.00000000  7513.00000000  7514.00000000
1426  7515.00000000  7516.00000000  7517.00000000
1427  7518.00000000  7519.00000000  7520.00000000
1428  7521.00000000  7522.00000000  7523.00000000
1429  7524.00000000  7525.00000000  7526.00000000
1430  7527.00000000  7528.00000000  7529.00000000
1431  7530.00000000  7531.00000000  7532.00000000
1432  7551.00000000  7552.00000000  7553.00000000
1433  7554.00000000  7555.00000000  7556.00000000
1434  7557.00000000  7558.00000000  7559.00000000
1435  7578.00000000  7579.00000000  7580.00000000
1436  7581.00000000  7582.00000000  7583.00000000
1437  7584.00000000  7585.00000000  7586.00000000
1438  7587.00000000  7588.00000000  7589.00000000
1439  7590.00000000  7591.00000000  7592.00000000
1440  7593.00000000  7594.00000000  7595.00000000
1441  7596.00000000  7597.00000000  7598.00000000
1442  7599.00000000  7600.00000000  7601.00000000
1443  7602.00000000  7603.00000000  7604.00000000
1444  7605.00000000  7606.00000000  7607.00000000
1445  7608.00000000  7609.00000000  7610.00000000
1446  7611.00000000  7612.00000000  7613.00000000
1447  7632.00000000  7633.00000000  7634.00000000
1448  7635.00000000  7636.00000000  7637.00000000
1449  7638.00000000  7639.00000000  7640.00000000
1450  7659.00000000  7660.00000000  7661.00000000
1451  7662.00000000  7663.00000000  7664.00000000
1452  7665.00000000  7666.00000000  7667.00000000
1453  7668.00000000  7669.00000000  7670.00000000
1454  7671.00000000  7672.00000000  7673.00000000
1455  7674.00000000  7675.00000000  7676.00000000
1456  7677.00000000  7678.00000000  7679.00000000
1457  7680.00000000  7681.00000000  7682.00000000
1458  7683.00000000  7684.00000000  7685.00000000
1459  7686.00000000  7687.00000000  7688.00000000
1460  7689.00000000  7690.00000000  7691.00000000
1461  7692.00000000  7693.00000000  7694.00000000
1462  7713.00000000  7714.00000000  7715.00000000
1463  7716.00000000  7717.00000000  7718.00000000
1464  7719.00000000  7720.00000000  7721.00000000
1465  7740.00000000  7741.00000000  7742.00000000
1466  7743.00000000  7744.00000000  7745.00000000
1467  7746.00000000  7747.00000000  7748.00000000
1468  7749.00000000  7750.00000000  7751.00000000
1469  7752.00000000  7753.00000000  7754.00000000
1470  7755.00000000  7756.00000000  7757.00000000
1471  7758.00000000  7759.00000000  7760.00000000
1472  7761.00000000  7762.00000000  7763.00000000
1473  7764.00000000  7765.00000000  7766.00000000
1474  7767.00000000  7768.00000000  7769.00000000
1475  7770.00000000  7771.00000000  7772.00000000
1476  7773.00000000  7774.00000000  7775.00000000
1477  7776.00000000  7777.00000000  7778.00000000
1478  7779.00000000  7780.00000000  7781.00000000
1479  7782.00000000  7783.00000000  7784.00000000
1480  7785.00000000  7786.00000000  7787.00000000
1481  7788.00000000  7789.00000000  7790.00000000
1482  7791.00000000  7792.00000000  7793.00000000
1483  7794.00000000  7795.00000000  7796.00000000
1484  7797.00000000  7798.00000000  7799.00000000
1485  7800.00000000  7801.00000000  7802.00000000
1486  7803.00000000  7804.00000000  7805.00000000
1487  7806.00000000  7807.00000000  7808.00000000
1488  7809.00000000  7810.00000000  7811.00000000
1489  7830.00000000  7831.00000000  7832.00000000
1490  7833.00000000  7834.00000000  7835.00000000
1491  7836.00000000  7837.00000000  7838.00000000
1492  7857.00000000  7858.00000000  7859.00000000
1493  7860.00000000  7861.00000000  7862.00000000
1494  7863.00000000  7864.00000000  7865.00000000
1495  7866.00000000  7867.00000000  7868.00000000
1496  7869.00000000  7870.00000000  7871.00000000
1497  7872.00000000  7873.00000000  7874.00000000
1498  7875.00000000  7876.00000000  7877.00000000
1499  7878.00000000  7879.00000000  7880.00000000
1500  7881.00000000  7882.00000000  7883.00000000
1501  7884.00000000  7885.00000000  7886.00000000
1502  7887.00000000  7888.00000000  7889.00000000
1503  7890.00000000  7891.00000000  7892.00000000
1504  7911.00000000  7912.00000000  7913.00000000
1505  7914.00000000  7915.00000000  7916.00000000
1506  7917.00000000  7918.00000000  7919.00000000
1507  7938.00000000  7939.00000000  7940.00000000
1508  7941.00000000  7942.00000000  7943.00000000
1509  7944.00000000  7945.00000000  7946.00000000
1510  7947.00000000  7948.00000000  7949.00000000
1511  7950.00000000  7951.00000000  7952.00000000
1512  7953.00000000  7954.00000000  7955.00000000
1513  7956.00000000  7957.00000000  7958.00000000
1514  7959.00000000  7960.00000000  7961.00000000
1515  7962.00000000  7963.00000000  7964.00000000
1516  7965.00000000  7966.00000000  7967.00000000
1517  7968.00000000  7969.00000000  7970.00000000
1518  7971.00000000  7972.00000000  7973.00000000
1519  7992.00000000  7993.00000000  7994.00000000
1520  7995.00000000  7996.00000000  7997.00000000
1521  7998.00000000  7999.00000000  8000.00000000
1522  8019.00000000  8020.00000000  8021.00000000
1523  8022.00000000  8023.00000000  8024.00000000
1524  8025.00000000  8026.00000000  8027.00000000
1525  8028.00000000  8029.00000000  8030.00000000
1526  8031.00000000  8032.00000000  8033.00000000
1527  8034.00000000  8035.00000000  8036.00000000
1528  8037.00000000  8038.00000000  8039.00000000
1529  8040.00000000  8041.00000000  8042.00000000
1530  8043.00000000  8044.00000000  8045.00000000
1531  8046.00000000  8047.00000000  8048.00000000
1532  8049.00000000  8050.00000000  8051.00000000
1533  8052.00000000  8053.00000000  8054.00000000
1534  8073.00000000  8074.00000000  8075.00000000
1535  8076.00000000  8077.00000000  8078.00000000
1536  8079.00000000  8080.00000000  8081.00000000
1537  8100.00000000  8101.00000000  8102.00000000
1538  8103.00000000  8104.00000000  8105.00000000
1539  8106.00000000  8107.00000000  8108.00000000
1540  8109.00000000  8110.00000000  8111.00000000
1541  8112.00000000  8113.00000000  8114.00000000
1542  8115.00000000  8116.00000000  8117.00000000
1543  8118.00000000  8119.00000000  8120.00000000
1544  8121.00000000  8122.00000000  8123.00000000
1545  8124.00000000  8125.00000000  8126.00000000
1546  8127.00000000  8128.00000000  8129.00000000
1547  8130.00000000  8131.00000000  8132.00000000
1548  8133.00000000  8134.00000000  8135.00000000
1549  8154.00000000  8155.00000000  8156.00000000
1550  8157.00000000  8158.00000000  8159.00000000
1551  8160.00000000  8161.00000000  8162.00000000
1552  8181.00000000  8182.00000000  8183.00000000
1553  8184.00000000  8185.00000000  8186.00000000
1554  8187.00000000  8188.00000000  8189.00000000
1555  8190.00000000  8191.00000000  8192.00000000
1556  8193.00000000  8194.00000000  8195.00000000
1557  8196.00000000  8197.00000000  8198.00000000
1558  8199.00000000  8200.00000000  8201.00000000
1559  8202.00000000  8203.00000000  8204.00000000
1560  8205.00000000  8206.00000000  8207.00000000
1561  8208.00000000  8209.00000000  8210.00000000
1562  8211.00000000  8212.00000000  8213.00000000
1563  8214.00000000  8215.00000000  8216.00000000
1564  8235.00000000  8236.00000000  8237.00000000
1565  8238.00000000  8239.00000000  8240.00000000
1566  8241.00000000  8242.00000000  8243.00000000
1567  8262.00000000  8263.00000000  8264.00000000
1568  8265.00000000  8266.00000000  8267.00000000
1569  8268.00000000  8269.00000000  8270.00000000
1570  8271.00000000  8272.00000000  8273.00000000
1571  8274.00000000  8275.00000000  8276.00000000
1572  8277.00000000  8278.00000000  8279.00000000
1573  8280.00000000  8281.00000000  8282.00000000
1574  8283.00000000  8284.00000000  8285.00000000
1575  8286.00000000  8287.00000000  8288.00000000
1576  8316.00000000  8317.00000000  8318.00000000
1577  8319.00000000  8320.00000000  8321.00000000
1578  8322.00000000  8323.00000000  8324.00000000
1579  8334.00000000  8335.00000000  8336.00000000
1580  8337.00000000  8338.00000000  8339.00000000
1581  8340.00000000  8341.00000000  8342.00000000
1582  8343.00000000  8344.00000000  8345.00000000
1583  8346.00000000  8347.00000000  8348.00000000
1584  8349.00000000  8350.00000000  8351.00000000
1585  8352.00000000  8353.00000000  8354.00000000
1586  8355.00000000  8356.00000000  8357.00000000
1587  8358.00000000  8359.00000000  8360.00000000
1588  8361.00000000  8362.00000000  8363.00000000
1589  8364.00000000  8365.00000000  8366.00000000
1590  8367.00000000  8368.00000000  8369.00000000
1591  8397.00000000  8398.00000000  8399.00000000
1592  8400.00000000  8401.00000000  8402.00000000
1593  8403.00000000  8404.00000000  8405.00000000
1594  8415.00000000  8416.00000000  8417.00000000
1595  8418.00000000  8419.00000000  8420.00000000
1596  8421.00000000  8422.00000000  8423.00000000
1597  8424.00000000  8425.00000000  8426.00000000
1598  8427.00000000  8428.00000000  8429.00000000
1599  8430.00000000  8431.00000000  8432.00000000
1600  8433.00000000  8434.00000000  8435.00000000
1601  8436.00000000  8437.00000000  8438.00000000
1602  8439.00000000  8440.00000000  8441.00000000
1603  8442.00000000  8443.00000000  8444.00000000
1604  8445.00000000  8446.00000000  8447.00000000
1605  8448.00000000  8449.00000000  8450.00000000
1606  8478.00000000  8479.00000000  8480.00000000
1607  8481.00000000  8482.00000000  8483.00000000
1608  8484.00000000  8485.00000000  8486.00000000
1609  8496.00000000  8497.00000000  8498.00000000
1610  8499.00000000  8500.00000000  8501.00000000
1611  8502.00000000  8503.00000000  8504.00000000
1612  8505.00000000  8506.00000000  8507.00000000
1613  8508.00000000  8509.00000000  8510.00000000
1614  8511.00000000  8512.00000000  8513.00000000
1615  8514.00000000  8515.00000000  8516.00000000
1616  8517.00000000  8518.00000000  8519.00000000
1617  8520.00000000  8521.00000000  8522.00000000
1618  8523.00000000  8524.00000000  8525.00000000
1619  8526.00000000  8527.00000000  8528.00000000
1620  8529.00000000  8530.00000000  8531.00000000
1621  8550.00000000  8551.00000000  8552.00000000
1622  8553.00000000  8554.00000000  8555.00000000
1623  8556.00000000  8557.00000000  8558.00000000
1624  8577.00000000  8578.00000000  8579.00000000
1625  8580.00000000  8581.00000000  8582.00000000
1626  8583.00000000  8584.00000000  8585.00000000
1627  8586.00000000  8587.00000000  8588.00000000
1628  8589.00000000  8590.00000000  8591.00000000
1629  8592.00000000  8593.00000000  8594.00000000
1630  8595.00000000  8596.00000000  8597.00000000
1631  8598.00000000  8599.00000000  8600.00000000
1632  8601.00000000  8602.00000000  8603.00000000
1633  8604.00000000  8605.00000000  8606.00000000
1634  8607.00000000  8608.00000000  8609.00000000
1635  8610.00000000  8611.00000000  8612.00000000
1636  8631.00000000  8632.00000000  8633.00000000
1637  8634.00000000  8635.00000000  8636.00000000
1638  8637.00000000  8638.00000000  8639.00000000
1639  8658.00000000  8659.00000000  8660.00000000
1640  8661.00000000  8662.00000000  8663.00000000
1641  8664.00000000  8665.00000000  8666.00000000
1642  8667.00000000  8668.00000000  8669.00000000
1643  8670.00000000  8671.00000000  8672.00000000
1644  8673.00000000  8674.00000000  8675.00000000
1645  8676.00000000  8677.00000000  8678.00000000
1646  8679.00000000  8680.00000000  8681.00000000
1647  8682.00000000  8683.00000000  8684.00000000
1648  8685.00000000  8686.00000000  8687.00000000
1649  8688.00000000  8689.00000000  8690.00000000
1650  8691.00000000  8692.00000000  8693.00000000
1651  8712.00000000  8713.00000000  8714.00000000
1652  8715.00000000  8716.00000000  8717.00000000
1653  8718.00000000  8719.00000000  8720.00000000
1654  8739.00000000  8740.00000000  8741.00000000
1655  8742.00000000  8743.00000000  8744.00000000
1656  8745.00000000  8746.00000000  8747.00000000
1657  8748.00000000  8749.00000000  8750.00000000
1658  8751.00000000  8752.00000000  8753.00000000
1659  8754.00000000  8755.00000000  8756.00000000
1660  8766.00000000  8767.00000000  8768.00000000
1661  8769.00000000  8770.00000000  8771.00000000
1662  8772.00000000  8773.00000000  8774.00000000
1663  8775.00000000  8776.00000000  8777.00000000
1664  8778.00000000  8779.00000000  8780.00000000
1665  8781.00000000  8782.00000000  8783.00000000
1666  8802.00000000  8803.00000000  8804.00000000
1667  8805.00000000  8806.00000000  8807.00000000
1668  8808.00000000  8809.00000000  8810.00000000
1669  8811.00000000  8812.00000000  8813.00000000
1670  8814.00000000  8815.00000000  8816.00000000
1671  8817.00000000  8818.00000000  8819.00000000
1672  8820.00000000  8821.00000000  8822.00000000
1673  8823.00000000  8824.00000000  8825.00000000
1674  8826.00000000  8827.00000000  8828.00000000
1675  8829.00000000  8830.00000000  8831.00000000
1676  8832.00000000  8833.00000000  8834.00000000
1677  8835.00000000  8836.00000000  8837.00000000
1678  8847.00000000  8848.00000000  8849.00000000
1679  8850.00000000  8851.00000000  8852.00000000
1680  8853.00000000  8854.00000000  8855.00000000
1681  8856.00000000  8857.00000000  8858.00000000
1682  8859.00000000  8860.00000000  8861.00000000
1683  8862.00000000  8863.00000000  8864.00000000
1684  8883.00000000  8884.00000000  8885.00000000
1685  8886.00000000  8887.00000000  8888.00000000
1686  8889.00000000  8890.00000000  8891.00000000
1687  8892.00000000  8893.00000000  8894.00000000
1688  8895.00000000  8896.00000000  8897.00000000
1689  8898.00000000  8899.00000000  8900.00000000
1690  8901.00000000  8902.00000000  8903.00000000
1691  8904.00000000  8905.00000000  8906.00000000
1692  8907.00000000  8908.00000000  8909.00000000
1693  8910.00000000  8911.00000000  8912.00000000
1694  8913.00000000  8914.00000000  8915.00000000
1695  8916.00000000  8917.00000000  8918.00000000
1696  8928.00000000  8929.00000000  8930.00000000
1697  8931.00000000  8932.00000000  8933.00000000
1698  8934.00000000  8935.00000000  8936.00000000
1699  8937.00000000  8938.00000000  8939.00000000
1700  8940.00000000  8941.00000000  8942.00000000
1701  8943.00000000  8944.00000000  8945.00000000
1702  8964.00000000  8965.00000000  8966.00000000
1703  8967.00000000  8968.00000000  8969.00000000
1704  8970.00000000  8971.00000000  8972.00000000
1705  8973.00000000  8974.00000000  8975.00000000
1706  8976.00000000  8977.00000000  8978.00000000
1707  8979.00000000  8980.00000000  8981.00000000
1708  8982.00000000  8983.00000000  8984.00000000
1709  8985.00000000  8986.00000000  8987.00000000
1710  8988.00000000  8989.00000000  8990.00000000
1711  8991.00000000  8992.00000000  8993.00000000
1712  8994.00000000  8995.00000000  8996.00000000
1713  8997.00000000  8998.00000000  8999.00000000
1714  9000.00000000  9001.00000000  9002.00000000
1715  9003.00000000  9004.00000000  9005.00000000
1716  9006.00000000  9007.00000000  9008.00000000
1717  9009.00000000  9010.00000000  9011.00000000
1718  9012.00000000  9013.00000000  9014.00000000
1719  9015.00000000  9016.00000000  9017.00000000
1720  9045.00000000  9046.00000000  9047.00000000
1721  9048.00000000  9049.00000000  9050.00000000
1722  9051.00000000  9052.00000000  9053.00000000
1723  9063.00000000  9064.00000000  9065.00000000
1724  9066.00000000  9067.00000000  9068.00000000
1725  9069.00000000  9070.00000000  9071.00000000
1726  9072.00000000  9073.00000000  9074.00000000
1727  9075.00000000  9076.00000000  9077.00000000
1728  9078.00000000  9079.00000000  9080.00000000
1729  9081.00000000  9082.00000000  9083.00000000
1730  9084.00000000  9085.00000000  9086.00000000
1731  9087.00000000  9088.00000000  9089.00000000
1732  9090.00000000  9091.00000000  9092.00000000
1733  9093.00000000  9094.00000000  9095.00000000
1734  9096.00000000  9097.00000000  9098.00000000
1735  9126.00000000  9127.00000000  9128.00000000
1736  9129.00000000  9130.00000000  9131.00000000
1737  9132.00000000  9133.00000000  9134.00000000
1738  9144.00000000  9145.00000000  9146.00000000
1739  9147.00000000  9148.00000000  9149.00000000
1740  9150.00000000  9151.00000000  9152.00000000
1741  9153.00000000  9154.00000000  9155.00000000
1742  9156.00000000  9157.00000000  9158.00000000
1743  9159.00000000  9160.00000000  9161.00000000
1744  9162.00000000  9163.00000000  9164.00000000
1745  9165.00000000  9166.00000000  9167.00000000
1746  9168.00000000  9169.00000000  9170.00000000
1747  9171.00000000  9172.00000000  9173.00000000
1748  9174.00000000  9175.00000000  9176.00000000
1749  9177.00000000  9178.00000000  9179.00000000
1750  9207.00000000  9208.00000000  9209.00000000
1751  9210.00000000  9211.00000000  9212.00000000
1752  9213.00000000  9214.00000000  9215.00000000
1753  9225.00000000  9226.00000000  9227.00000000
1754  9228.00000000  9229.00000000  9230.00000000
1755  9231.00000000  9232.00000000  9233.00000000
1756  9234.00000000  9235.00000000  9236.00000000
1757  9237.00000000  9238.00000000  9239.00000000
1758  9240.00000000  9241.00000000  9242.00000000
1759  9243.00000000  9244.00000000  9245.00000000
1760  9246.00000000  9247.00000000  9248.00000000
1761  9249.00000000  9250.00000000  9251.00000000
1762  9252.00000000  9253.00000000  9254.00000000
1763  9255.00000000  9256.00000000  9257.00000000
1764  9258.00000000  9259.00000000  9260.00000000
1765  9288.00000000  9289.00000000  9290.00000000
1766  9291.00000000  9292.00000000  9293.00000000
1767  9294.00000000  9295.00000000  9296.00000000
1768  9306.00000000  9307.00000000  9308.00000000
1769  9309.00000000  9310.00000000  9311.00000000
1770  9312.00000000  9313.00000000  9314.00000000
1771  9315.00000000  9316.00000000  9317.00000000
1772  9318.00000000  9319.00000000  9320.00000000
1773  9321.00000000  9322.00000000  9323.00000000
1774  9324.00000000  9325.00000000  9326.00000000
1775  9327.00000000  9328.00000000  9329.00000000
1776  9330.00000000  9331.00000000  9332.00000000
1777  9333.00000000  9334.00000000  9335.00000000
1778  9336.00000000  9337.00000000  9338.00000000
1779  9339.00000000  9340.00000000  9341.00000000
1780  9369.00000000  9370.00000000  9371.00000000
1781  9372.00000000  9373.00000000  9374.00000000
1782  9375.00000000  9376.00000000  9377.00000000
1783  9387.00000000  9388.00000000  9389.00000000
1784  9390.00000000  9391.00000000  9392.00000000
1785  9393.00000000  9394.00000000  9395.00000000
1786  9396.00000000  9397.00000000  9398.00000000
1787  9399.00000000  9400.00000000  9401.00000000
1788  9402.00000000  9403.00000000  9404.00000000
1789  9405.00000000  9406.00000000  9407.00000000
1790  9408.00000000  9409.00000000  9410.00000000
1791  9411.00000000  9412.00000000  9413.00000000
1792  9414.00000000  9415.00000000  9416.00000000
1793  9417.00000000  9418.00000000  9419.00000000
1794  9420.00000000  9421.00000000  9422.00000000
1795  9450.00000000  9451.00000000  9452.00000000
1796  9453.00000000  9454.00000000  9455.00000000
1797  9456.00000000  9457.00000000  9458.00000000
1798  9468.00000000  9469.00000000  9470.00000000
1799  9471.00000000  9472.00000000  9473.00000000
1800  9474.00000000  9475.00000000  9476.00000000
1801  9477.00000000  9478.00000000  9479.00000000
1802  9480.00000000  9481.00000000  9482.00000000
1803  9483.00000000  9484.00000000  9485.00000000
1804  9486.00000000  9487.00000000  9488.00000000
1805  9489.00000000  9490.00000000  9491.00000000
1806  9492.00000000  9493.00000000  9494.00000000
1807  9495.00000000  9496.00000000  9497.00000000
1808  9498.00000000  9499.00000000  9500.00000000
1809  9501.00000000  9502.00000000  9503.00000000
1810  9522.00000000  9523.00000000  9524.00000000
1811  9525.00000000  9526.00000000  9527.00000000
1812  9528.00000000  9529.00000000  9530.00000000
1813  9549.00000000  9550.00000000  9551.00000000
1814  9552.00000000  9553.00000000  9554.00000000
1815  9555.00000000  9556.00000000  9557.00000000
1816  9558.00000000  9559.00000000  9560.00000000
1817  9561.00000000  9562.00000000  9563.00000000
1818  9564.00000000  9565.00000000  9566.00000000
1819  9567.00000000  9568.00000000  9569.00000000
1820  9570.00000000  9571.00000000  9572.00000000
1821  9573.00000000  9574.00000000  9575.00000000
1822  9576.00000000  9577.00000000  9578.00000000
1823  9579.00000000  9580.00000000  9581.00000000
1824  9582.00000000  9583.00000000  9584.00000000
1825  9603.00000000  9604.00000000  9605.00000000
1826  9606.00000000  9607.00000000  9608.00000000
1827  9609.00000000  9610.00000000  9611.00000000
1828  9630.00000000  9631.00000000  9632.00000000
1829  9633.00000000  9634.00000000  9635.00000000
1830  9636.00000000  9637.00000000  9638.00000000
1831  9639.00000000  9640.00000000  9641.00000000
1832  9642.00000000  9643.00000000  9644.00000000
1833  9645.00000000  9646.00000000  9647.00000000
1834  9648.00000000  9649.00000000  9650.00000000
1835  9651.00000000  9652.00000000  9653.00000000
1836  9654.00000000  9655.00000000  9656.00000000
1837  9657.00000000  9658.00000000  9659.00000000
1838  9660.00000000  9661.00000000  9662.00000000
1839  9663.00000000  9664.00000000  9665.00000000
1840  9684.00000000  9685.00000000  9686.00000000
1841  9687.00000000  9688.00000000  9689.00000000
1842  9690.00000000  9691.00000000  9692.00000000
1843  9711.00000000  9712.00000000  9713.00000000
1844  9714.00000000  9715.00000000  9716.00000000
1845  9717.00000000  9718.00000000  9719.00000000
1846  9720.00000000  9721.00000000  9722.00000000
1847  9723.00000000  9724.00000000  9725.00000000
1848  9726.00000000  9727.00000000  9728.00000000
1849  9747.00000000  9748.00000000  9749.00000000
1850  9750.00000000  9751.00000000  9752.00000000
1851  9753.00000000  9754.00000000  9755.00000000
1852  9774.00000000  9775.00000000  9776.00000000
1853  9777.00000000  9778.00000000  9779.00000000
1854  9780.00000000  9781.00000000  9782.00000000
1855  9783.00000000  9784.00000000  9785.00000000
1856  9786.00000000  9787.00000000  9788.00000000
1857  9789.00000000  9790.00000000  9791.00000000
1858  9792.00000000  9793.00000000  9794.00000000
1859  9795.00000000  9796.00000000  9797.00000000
1860  9798.00000000  9799.00000000  9800.00000000
1861  9801.00000000  9802.00000000  9803.00000000
1862  9804.00000000  9805.00000000  9806.00000000
1863  9807.00000000  9808.00000000  9809.00000000
1864  9828.00000000  9829.00000000  9830.00000000
1865  9831.00000000  9832.00000000  9833.00000000
1866  9834.00000000  9835.00000000  9836.00000000
1867  9855.00000000  9856.00000000  9857.00000000
1868  9858.00000000  9859.00000000  9860.00000000
1869  9861.00000000  9862.00000000  9863.00000000
1870  9864.00000000  9865.00000000  9866.00000000
1871  9867.00000000  9868.00000000  9869.00000000
1872  9870.00000000  9871.00000000  9872.00000000
1873  9873.00000000  9874.00000000  9875.00000000
1874  9876.00000000  9877.00000000  9878.00000000
1875  9879.00000000  9880.00000000  9881.00000000
1876  9882.00000000  9883.00000000  9884.00000000
1877  9885.00000000  9886.00000000  9887.00000000
1878  9888.00000000  9889.00000000  9890.00000000
1879  9909.00000000  9910.00000000  9911.00000000
1880  9912.00000000  9913.00000000  9914.00000000
1881  9915.00000000  9916.00000000  9917.00000000
1882  9936.00000000  9937.00000000  9938.00000000
1883  9939.00000000  9940.00000000  9941.00000000
1884  9942.00000000  9943.00000000  9944.00000000
1885  9945.00000000  9946.00000000  9947.00000000
1886  9948.00000000  9949.00000000  9950.00000000
1887  9951.00000000  9952.00000000  9953.00000000
1888  9954.00000000  9955.00000000  9956.00000000
1889  9957.00000000  9958.00000000  9959.00000000
1890  9960.00000000  9961.00000000  9962.00000000
1891  9963.00000000  9964.00000000  9965.00000000
1892  9966.00000000  9967.00000000  9968.00000000
1893  9969.00000000  9970.00000000  9971.00000000
1894  9981.00000000  9982.00000000  9983.00000000
1895  9984.00000000  9985.00000000  9986.00000000
1896  9987.00000000  9988.00000000  9989.00000000
1897 10017.00000000 10018.00000000 10019.00000000
1898 10020.00000000 10021.00000000 10022.00000000
1899 10023.00000000 10024.00000000 10025.00000000
1900 10026.00000000 10027.00000000 10028.00000000
1901 10029.00000000 10030.00000000 10031.00000000
1902 10032.00000000 10033.00000000 10034.00000000
1903 10035.00000000 10036.00000000 10037.00000000
1904 10038.00000000 10039.00000000 10040.00000000
1905 10041.00000000 10042.00000000 10043.00000000
1906 10044.00000000 10045.00000000 10046.00000000
1907 10047.00000000 10048.00000000 10049.00000000
1908 10050.00000000 10051.00000000 10052.00000000
1909 10062.00000000 10063.00000000 10064.00000000
1910 10065.00000000 10066.00000000 10067.00000000
1911 10068.00000000 10069.00000000 10070.00000000
1912 10098.00000000 10099.00000000 10100.00000000
1913 10101.00000000 10102.00000000 10103.00000000
1914 10104.00000000 10105.00000000 10106.00000000
1915 10107.00000000 10108.00000000 10109.00000000
1916 10110.00000000 10111.00000000 10112.00000000
1917 10113.00000000 10114.00000000 10115.00000000
1918 10116.00000000 10117.00000000 10118.00000000
1919 10119.00000000 10120.00000000 10121.00000000
1920 10122.00000000 10123.00000000 10124.00000000
1921 10125.00000000 10126.00000000 10127.00000000
1922 10128.00000000 10129.00000000 10130.00000000
1923 10131.00000000 10132.00000000 10133.00000000
1924 10143.00000000 10144.00000000 10145.00000000
1925 10146.00000000 10147.00000000 10148.00000000
1926 10149.00000000 10150.00000000 10151.00000000
1927 10179.00000000 10180.00000000 10181.00000000
1928 10182.00000000 10183.00000000 10184.00000000
1929 10185.00000000 10186.00000000 10187.00000000
1930 10188.00000000 10189.00000000 10190.00000000
1931 10191.00000000 10192.00000000 10193.00000000
1932 10194.00000000 10195.00000000 10196.00000000
1933 10197.00000000 10198.00000000 10199.00000000
1934 10200.00000000 10201.00000000 10202.00000000
1935 10203.00000000 10204.00000000 10205.00000000
1936 10206.00000000 10207.00000000 10208.00000000
1937 10209.00000000 10210.00000000 10211.00000000
1938 10212.00000000 10213.00000000 10214.00000000
1939 10224.00000000 10225.00000000 10226.00000000
1940 10227.00000000 10228.00000000 10229.00000000
1941 10230.00000000 10231.00000000 10232.00000000
1942 10260.00000000 10261.00000000 10262.00000000
1943 10263.00000000 10264.00000000 10265.00000000
1944 10266.00000000 10267.00000000 10268.00000000
1945 10269.00000000 10270.00000000 10271.00000000
1946 10272.00000000 10273.00000000 10274.00000000
1947 10275.00000000 10276.00000000 10277.00000000
1948 10278.00000000 10279.00000000 10280.00000000
1949 10281.00000000 10282.00000000 10283.00000000
1950 10284.00000000 10285.00000000 10286.00000000
1951 10287.00000000 10288.00000000 10289.00000000
1952 10290.00000000 10291.00000000 10292.00000000
1953 10293.00000000 10294.00000000 10295.00000000
1954 10305.00000000 10306.00000000 10307.00000000
1955 10308.00000000 10309.00000000 10310.00000000
1956 10311.00000000 10312.00000000 10313.00000000
1957 10341.00000000 10342.00000000 10343.00000000
1958 10344.00000000 10345.00000000 10346.00000000
1959 10347.00000000 10348.00000000 10349.00000000
1960 10350.00000000 10351.00000000 10352.00000000
1961 10353.00000000 10354.00000000 10355.00000000
1962 10356.00000000 10357.00000000 10358.00000000
1963 10359.00000000 10360.00000000 10361.00000000
1964 10362.00000000 10363.00000000 10364.00000000
1965 10365.00000000 10366.00000000 10367.00000000
1966 10368.00000000 10369.00000000 10370.00000000
1967 10371.00000000 10372.00000000 10373.00000000
1968 10374.00000000 10375.00000000 10376.00000000
1969 10386.00000000 10387.00000000 10388.00000000
1970 10389.00000000 10390.00000000 10391.00000000
1971 10392.00000000 10393.00000000 10394.00000000
1972 10422.00000000 10423.00000000 10424.00000000
1973 10425.00000000 10426.00000000 10427.00000000
1974 10428.00000000 10429.00000000 10430.00000000
1975 10431.00000000 10432.00000000 10433.00000000
1976 10434.00000000 10435.00000000 10436.00000000
1977 10437.00000000 10438.00000000 10439.00000000
1978 10440.00000000 10441.00000000 10442.00000000
1979 10443.00000000 10444.00000000 10445.00000000
1980 10446.00000000 10447.00000000 10448.00000000
1981 10449.00000000 10450.00000000 10451.00000000
1982 10452.00000000 10453.00000000 10454.00000000
1983 10455.00000000 10456.00000000 10457.00000000
1984 10458.00000000 10459.00000000 10460.00000000
1985 10461.00000000 10462.00000000 10463.00000000
1986 10464.00000000 10465.00000000 10466.00000000
1987 10467.00000000 10468.00000000 10469.00000000
1988 10470.00000000 10471.00000000 10472.00000000
1989 10473.00000000 10474.00000000 10475.00000000
1990 10494.00000000 10495.00000000 10496.00000000
1991 10497.00000000 10498.00000000 10499.00000000
1992 10500.00000000 10501.00000000 10502.00000000
1993 10503.00000000 10504.00000000 10505.00000000
1994 10506.00000000 10507.00000000 10508.00000000
1995 10509.00000000 10510.00000000 10511.00000000
1996 10521.00000000 10522.00000000 10523.00000000
1997 10524.00000000 10525.00000000 10526.00000000
1998 10527.00000000 10528.00000000 10529.00000000
1999 10530.00000000 10531.00000000 10532.00000000
2000 10533.00000000 10534.00000000 10535.00000000
2001 10536.00000000 10537.00000000 10538.00000000
2002 10539.00000000 10540.00000000 10541.00000000
2003 10542.00000000 10543.00000000 10544.00000000
2004 10545.00000000 10546.00000000 10547.00000000
2005 10548.00000000 10549.00000000 10550.00000000
2006 10551.00000000 10552.00000000 10553.00000000
2007 10554.00000000 10555.00000000 10556.00000000
2008 10575.00000000 10576.00000000 10577.00000000
2009 10578.00000000 10579.00000000 10580.00000000
2010 10581.00000000 10582.00000000 10583.00000000
2011 10584.00000000 10585.00000000 10586.00000000
2012 10587.00000000 10588.00000000 10589.00000000
2013 10590.00000000 10591.00000000 10592.00000000
2014 10602.00000000 10603.00000000 10604.00000000
2015 10605.00000000 10606.00000000 10607.00000000
2016 10608.00000000 10609.00000000 10610.00000000
2017 10611.00000000 10612.00000000 10613.00000000
2018 10614.00000000 10615.00000000 10616.00000000
2019 10617.00000000 10618.00000000 10619.00000000
2020 10620.00000000 10621.00000000 10622.00000000
2021 10623.00000000 10624.00000000 10625.00000000
2022 10626.00000000 10627.00000000 10628.00000000
2023 10629.00000000 10630.00000000 10631.00000000
2024 10632.00000000 10633.00000000 10634.00000000
2025 10635.00000000 10636.00000000 10637.00000000
2026 10656.00000000 10657.00000000 10658.00000000
2027 10659.00000000 10660.00000000 10661.00000000
2028 10662.00000000 10663.00000000 10664.00000000
2029 10665.00000000 10666.00000000 10667.00000000
2030 10668.00000000 10669.00000000 10670.00000000
2031 10671.00000000 10672.00000000 10673.00000000
2032 10683.00000000 10684.00000000 10685.00000000
2033 10686.00000000 10687.00000000 10688.00000000
2034 10689.00000000 10690.00000000 10691.00000000
2035 10692.00000000 10693.00000000 10694.00000000
2036 10695.00000000 10696.00000000 10697.00000000
2037 10698.00000000 10699.00000000 10700.00000000
2038 10719.00000000 10720.00000000 10721.00000000
2039 10722.00000000 10723.00000000 10724.00000000
2040 10725.00000000 10726.00000000 10727.00000000
2041 10746.00000000 10747.00000000 10748.00000000
2042 10749.00000000 10750.00000000 10751.00000000
2043 10752.00000000 10753.00000000 10754.00000000
2044 10755.00000000 10756.00000000 10757.00000000
2045 10758.00000000 10759.00000000 10760.00000000
2046 10761.00000000 10762.00000000 10763.00000000
2047 10764.00000000 10765.00000000 10766.00000000
2048 10767.00000000 10768.00000000 10769.00000000
2049 10770.00000000 10771.00000000 10772.00000000
2050 10773.00000000 10774.00000000 10775.00000000
2051 10776.00000000 10777.00000000 10778.00000000
2052 10779.00000000 10780.00000000 10781.00000000
2053 10800.00000000 10801.00000000 10802.00000000
2054 10803.00000000 10804.00000000 10805.00000000
2055 10806.00000000 10807.00000000 10808.00000000
2056 10827.00000000 10828.00000000 10829.00000000
2057 10830.00000000 10831.00000000 10832.00000000
2058 10833.00000000 10834.00000000 10835.00000000
2059 10836.00000000 10837.00000000 10838.00000000
2060 10839.00000000 10840.00000000 10841.00000000
2061 10842.00000000 10843.00000000 10844.00000000
2062 10845.00000000 10846.00000000 10847.00000000
2063 10848.00000000 10849.00000000 10850.00000000
2064 10851.00000000 10852.00000000 10853.00000000
2065 10854.00000000 10855.00000000 10856.00000000
2066 10857.00000000 10858.00000000 10859.00000000
2067 10860.00000000 10861.00000000 10862.00000000
2068 10881.00000000 10882.00000000 10883.00000000
2069 10884.00000000 10885.00000000 10886.00000000
2070 10887.00000000 10888.00000000 10889.00000000
2071 10908.00000000 10909.00000000 10910.00000000
2072 10911.00000000 10912.00000000 10913.00000000
2073 10914.00000000 10915.00000000 10916.00000000
2074 10917.00000000 10918.00000000 10919.00000000
2075 10920.00000000 10921.00000000 10922.00000000
2076 10923.00000000 10924.00000000 10925.00000000
2077 10926.00000000 10927.00000000 10928.00000000
2078 10929.00000000 10930.00000000 10931.00000000
2079 10932.00000000 10933.00000000 10934.00000000
2080 10953.00000000 10954.00000000 10955.00000000
2081 10956.00000000 10957.00000000 10958.00000000
2082 10959.00000000 10960.00000000 10961.00000000
2083 10980.00000000 10981.00000000 10982.00000000
2084 10983.00000000 10984.00000000 10985.00000000
2085 10986.00000000 10987.00000000 10988.00000000
2086 10989.00000000 10990.00000000 10991.00000000
2087 10992.00000000 10993.00000000 10994.00000000
2088 10995.00000000 10996.00000000 10997.00000000
2089 10998.00000000 10999.00000000 11000.00000000
2090 11001.00000000 11002.00000000 11003.00000000
2091 11004.00000000 11005.00000000 11006.00000000
2092 11007.00000000 11008.00000000 11009.00000000
2093 11010.00000000 11011.00000000 11012.00000000
2094 11013.00000000 11014.00000000 11015.00000000
2095 11034.00000000 11035.00000000 11036.00000000
2096 11037.00000000 11038.00000000 11039.00000000
2097 11040.00000000 11041.00000000 11042.00000000
2098 11061.00000000 11062.00000000 11063.00000000
2099 11064.00000000 11065.00000000 11066.00000000
2100 11067.00000000 11068.00000000 11069.00000000
2101 11070.00000000 11071.00000000 11072.00000000
2102 11073.00000000 11074.00000000 11075.00000000
2103 11076.00000000 11077.00000000 11078.00000000
2104 11079.00000000 11080.00000000 11081.00000000
2105 11082.00000000 11083.00000000 11084.00000000
2106 11085.00000000 11086.00000000 11087.00000000
2107 11088.00000000 11089.00000000 11090.00000000
2108 11091.00000000 11092.00000000 11093.00000000
2109 11094.00000000 11095.00000000 11096.00000000
2110 11115.00000000 11116.00000000 11117.00000000
2111 11118.00000000 11119.00000000 11120.00000000
2112 11121.00000000 11122.00000000 11123.00000000
2113 11142.00000000 11143.00000000 11144.00000000
2114 11145.00000000 11146.00000000 11147.00000000
2115 11148.00000000 11149.00000000 11150.00000000
2116 11151.00000000 11152.00000000 11153.00000000
2117 11154.00000000 11155.00000000 11156.00000000
2118 11157.00000000 11158.00000000 11159.00000000
2119 11160.00000000 11161.00000000 11162.00000000
2120 11163.00000000 11164.00000000 11165.00000000
2121 11166.00000000 11167.00000000 11168.00000000
2122 11169.00000000 11170.00000000 11171.00000000
2123 11172.00000000 11173.00000000 11174.00000000
2124 11175.00000000 11176.00000000 11177.00000000
2125 11196.00000000 11197.00000000 11198.00000000
2126 11199.00000000 11200.00000000 11201.00000000
2127 11202.00000000 11203.00000000 11204.00000000
2128 11223.00000000 11224.00000000 11225.00000000
2129 11226.00000000 11227.00000000 11228.00000000
2130 11229.00000000 11230.00000000 11231.00000000
2131 11232.00000000 11233.00000000 11234.00000000
2132 11235.00000000 11236.00000000 11237.00000000
2133 11238.00000000 11239.00000000 11240.00000000
2134 11241.00000000 11242.00000000 11243.00000000
2135 11244.00000000 11245.00000000 11246.00000000
2136 11247.00000000 11248.00000000 11249.00000000
2137 11250.00000000 11251.00000000 11252.00000000
2138 11253.00000000 11254.00000000 11255.00000000
2139 11256.00000000 11257.00000000 11258.00000000
2140 11277.00000000 11278.00000000 11279.00000000
2141 11280.00000000 11281.00000000 11282.00000000
2142 11283.00000000 11284.00000000 11285.00000000
2143 11304.00000000 11305.00000000 11306.00000000
2144 11307.00000000 11308.00000000 11309.00000000
2145 11310.00000000 11311.00000000 11312.00000000
2146 11313.00000000 11314.00000000 11315.00000000
2147 11316.00000000 11317.00000000 11318.00000000
2148 11319.00000000 11320.00000000 11321.00000000
2149 11322.00000000 11323.00000000 11324.00000000
2150 11325.00000000 11326.00000000 11327.00000000
2151 11328.00000000 11329.00000000 11330.00000000
2152 11331.00000000 11332.00000000 11333.00000000
2153 11334.00000000 11335.00000000 11336.00000000
2154 11337.00000000 11338.00000000 11339.00000000
2155 11358.00000000 11359.00000000 11360.00000000
2156 11361.00000000 11362.00000000 11363.00000000
2157 11364.00000000 11365.00000000 11366.00000000
2158 11385.00000000 11386.00000000 11387.00000000
2159 11388.00000000 11389.00000000 11390.00000000
2160 11391.00000000 11392.00000000 11393.00000000
2161 11394.00000000 11395.00000000 11396.00000000
2162 11397.00000000 11398.00000000 11399.00000000
2163 11400.00000000 11401.00000000 11402.00000000
2164 11403.00000000 11404.00000000 11405.00000000
2165 11406.00000000 11407.00000000 11408.00000000
2166 11409.00000000 11410.00000000 11411.00000000
2167 11412.00000000 11413.00000000 11414.00000000
2168 11415.00000000 11416.00000000 11417.00000000
2169 11418.00000000 11419.00000000 11420.00000000
2170 11439.00000000 11440.00000000 11441.00000000
2171 11442.00000000 11443.00000000 11444.00000000
2172 11445.00000000 11446.00000000 11447.00000000
2173 11466.00000000 11467.00000000 11468.00000000
2174 11469.00000000 11470.00000000 11471.00000000
2175 11472.00000000 11473.00000000 11474.00000000
2176 11475.00000000 11476.00000000 11477.00000000
2177 11478.00000000 11479.00000000 11480.00000000
2178 11481.00000000 11482.00000000 11483.00000000
2179 11484.00000000 11485.00000000 11486.00000000
2180 11487.00000000 11488.00000000 11489.00000000
2181 11490.00000000 11491.00000000 11492.00000000
2182 11493.00000000 11494.00000000 11495.00000000
2183 11496.00000000 11497.00000000 11498.00000000
2184 11499.00000000 11500.00000000 11501.00000000
2185 11520.00000000 11521.00000000 11522.00000000
2186 11523.00000000 11524.00000000 11525.00000000
2187 11526.00000000 11527.00000000 11528.00000000
2188 11547.00000000 11548.00000000 11549.00000000
2189 11550.00000000 11551.00000000 11552.00000000
2190 11553.00000000 11554.00000000 11555.00000000
2191 11556.00000000 11557.00000000 11558.00000000
2192 11559.00000000 11560.00000000 11561.00000000
2193 11562.00000000 11563.00000000 11564.00000000
2194 11565.00000000 11566.00000000 11567.00000000
2195 11568.00000000 11569.00000000 11570.00000000
2196 11571.00000000 11572.00000000 11573.00000000
2197 11574.00000000 11575.00000000 11576.00000000
2198 11577.00000000 11578.00000000 11579.00000000
2199 11580.00000000 11581.00000000 11582.00000000
2200 11601.00000000 11602.00000000 11603.00000000
2201 11604.00000000 11605.00000000 11606.00000000
2202 11607.00000000 11608.00000000 11609.00000000
2203 11628.00000000 11629.00000000 11630.00000000
2204 11631.00000000 11632.00000000 11633.00000000
2205 11634.00000000 11635.00000000 11636.00000000
2206 11637.00000000 11638.00000000 11639.00000000
2207 11640.00000000 11641.00000000 11642.00000000
2208 11643.00000000 11644.00000000 11645.00000000
2209 11646.00000000 11647.00000000 11648.00000000
2210 11649.00000000 11650.00000000 11651.00000000
2211 11652.00000000 11653.00000000 11654.00000000
2212 11655.00000000 11656.00000000 11657.00000000
2213 11658.00000000 11659.00000000 11660.00000000
2214 11661.00000000 11662.00000000 11663.00000000
2215     0.00000000     0.00000000     0.00000000
2216     0.00000000     0.00000000     0.00000000
2217     0.00000000     0.00000000     0.00000000
2218     0.00000000     0.00000000     0.00000000
2219     0.00000000     0.00000000     0.00000000
2220     0.00000000     0.00000000     0.00000000
2221     0.00000000     0.00000000     0.00000000
2222     0.00000000     0.00000000     0.00000000
2223     0.00000000     0.00000000     0.00000000
2224     0.00000000     0.00000000     0.00000000
2225     0.00000000     0.00000000     0.00000000
2226     0.00000000     0.00000000     0.00000000
2227     0.00000000     0.00000000     0.00000000
2228     0.00000000     0.00000000     0.00000000
2229     0.00000000     0.00000000     0.00000000
2230     0.00000000     0.00000000     0.00000000
2231     0.00000000     0.00000000     0.00000000
2232     0.00000000     0.00000000     0.00000000
2233     0.00000000     0.00000000     0.00000000
2234     0.00000000     0.00000000     0.00000000
2235     0.00000000     0.00000000     0.00000000
2236     0.00000000     0.00000000     0.00000000
2237     0.00000000     0.00000000     0.00000000
2238     0.00000000     0.00000000     0.00000000
2239     0.00000000     0.00000000     0.00000000
2240     0.00000000     0.00000000     0.00000000
2241     0.00000000     0.00000000     0.00000000
2242     0.00000000     0.00000000     0.00000000
2243     0.00000000     0.00000000     0.00000000
2244     0.00000000     0.00000000     0.00000000
2245     0.00000000     0.00000000     0.00000000
2246     0.00000000     0.00000000     0.00000000
2247     0.00000000     0.00000000     0.00000000
2248     0.00000000     0.00000000     0.00000000
2249     0.00000000     0.00000000     0.00000000
2250     0.00000000     0.00000000     0.00000000
2251     0.00000000     0.00000000     0.00000000
2252     0.00000000     0.00000000     0.00000000
2253     0.00000000     0.00000000     0.00000000
2254     0.00000000     0.00000000     0.00000000
2255     0.00000000     0.00000000     0.00000000
2256     0.00000000     0.00000000     0.00000000
2257     0.00000000     0.00000000     0.00000000
2258     0.00000000     0.00000000     0.00000000
2259     0.00000000     0.00000000     0.00000000
2260     0.00000000     0.00000000     0.00000000
2261     0.00000000     0.00000000     0.00000000
2262     0.00000000     0.00000000     0.00000000
2263     0.00000000     0.00000000     0.00000000
2264     0.00000000     0.00000000     0.00000000
2265     0.00000000     0.00000000     0.00000000
2266     0.00000000     0.00000000     0.00000000
2267     0.00000000     0.00000000     0.00000000
2268     0.00000000     0.00000000     0.00000000
2269     0.00000000     0.00000000     0.00000000
2270     0.00000000     0.00000000     0.00000000
2271     0.00000000     0.00000000     0.00000000
2272     0.00000000     0.00000000     0.00000000
2273     0.00000000     0.00000000     0.00000000
2274     0.00000000     0.00000000     0.00000000
2275     0.00000000     0.00000000     0.00000000
2276     0.00000000     0.00000000     0.00000000
2277     0.00000000     0.00000000     0.00000000
2278     0.00000000     0.00000000     0.00000000
2279     0.00000000     0.00000000     0.00000000
2280     0.00000000     0.00000000     0.00000000
2281     0.00000000     0.00000000     0.00000000
2282     0.00000000     0.00000000     0.00000000
2283     0.00000000     0.00000000     0.00000000
2284     0.00000000     0.00000000     0.00000000
2285     0.00000000     0.00000000     0.00000000
2286     0.00000000     0.00000000     0.00000000
2287     0.00000000     0.00000000     0.00000000
2288     0.00000000     0.00000000     0.00000000
2289     0.00000000     0.00000000     0.00000000
2290     0.00000000     0.00000000     0.00000000
2291     0.00000000     0.00000000     0.00000000
2292     0.00000000     0.00000000     0.00000000
2293     0.00000000     0.00000000     0.00000000
2294     0.00000000     0.00000000     0.00000000
2295     0.00000000     0.00000000     0.00000000
2296     0.00000000     0.00000000     0.00000000
2297     0.00000000     0.00000000     0.00000000
2298     0.00000000     0.00000000     0.00000000
2299     0.00000000     0.00000000     0.00000000
2300     0.00000000     0.00000000     0.00000000
2301     0.00000000     0.00000000     0.00000000
2302     0.00000000     0.00000000     0.00000000
2303     0.00000000     0.00000000     0.00000000
2304     0.00000000     0.00000000     0.00000000
2305     0.00000000     0.00000000     0.00000000
2306     0.00000000     0.00000000     0.00000000
2307     0.00000000     0.00000000     0.00000000
2308     0.00000000     0.00000000     0.00000000
2309     0.00000000     0.00000000     0.00000000
2310     0.00000000     0.00000000     0.00000000
2311     0.00000000     0.00000000     0.00000000
2312     0.00000000     0.00000000     0.00000000
2313     0.00000000     0.00000000     0.00000000
2314     0.00000000     0.00000000     0.00000000
2315     0.00000000     0.00000000     0.00000000
2316     0.00000000     0.00000000     0.00000000
2317     0.00000000     0.00000000     0.00000000
2318     0.00000000     0.00000000     0.00000000
2319     0.00000000     0.00000000     0.00000000
2320     0.00000000     0.00000000     0.00000000
2321     0.00000000     0.00000000     0.00000000
2322     0.00000000     0.00000000     0.00000000
2323     0.00000000     0.00000000     0.00000000
2324     0.00000000     0.00000000     0.00000000
2325     0.00000000     0.00000000     0.00000000
2326     0.00000000     0.00000000     0.00000000
2327     0.00000000     0.00000000     0.00000000
2328     0.00000000     0.00000000     0.00000000
2329     0.00000000     0.00000000     0.00000000
2330     0.00000000     0.00000000     0.00000000
2331     0.00000000     0.00000000     0.00000000
2332     0.00000000     0.00000000     0.00000000
2333     0.00000000     0.00000000     0.00000000
2334     0.00000000     0.00000000     0.00000000
2335     0.00000000     0.00000000     0.00000000
2336     0.00000000     0.00000000     0.00000000
2337     0.00000000     0.00000000     0.00000000
2338     0.00000000     0.00000000     0.00000000
2339     0.00000000     0.00000000     0.00000000
2340     0.00000000     0.00000000     0.00000000
2341     0.00000000     0.00000000     0.00000000
2342     0.00000000     0.00000000     0.00000000
2343     0.00000000     0.00000000     0.00000000
2344     0.00000000     0.00000000     0.00000000
2345     0.00000000     0.00000000     0.00000000
2346     0.00000000     0.00000000     0.00000000
2347     0.00000000     0.00000000     0.00000000
2348     0.00000000     0.00000000     0.00000000
2349     0.00000000     0.00000000     0.00000000
2350     0.00000000     0.00000000     0.00000000
2351     0.00000000     0.00000000     0.00000000
2352     0.00000000     0.00000000     0.00000000
2353     0.00000000     0.00000000     0.00000000
2354     0.00000000     0.00000000     0.00000000
2355     0.00000000     0.00000000     0.00000000
2356     0.00000000     0.00000000     0.00000000
2357     0.00000000     0.00000000     0.00000000
2358     0.00000000     0.00000000     0.00000000
2359     0.00000000     0.00000000     0.00000000
2360     0.00000000     0.00000000     0.00000000
2361     0.00000000     0.00000000     0.00000000
2362     0.00000000     0.00000000     0.00000000
2363     0.00000000     0.00000000     0.00000000
2364     0.00000000     0.00000000     0.00000000
2365     0.00000000     0.00000000     0.00000000
2366     0.00000000     0.00000000     0.00000000
2367     0.00000000     0.00000000     0.00000000
2368     0.00000000     0.00000000     0.00000000
2369     0.00000000     0.00000000     0.00000000
2370     0.00000000     0.00000000     0.00000000
2371     0.00000000     0.00000000     0.00000000
2372     0.00000000     0.00000000     0.00000000
2373     0.00000000     0.00000000     0.00000000
2374     0.00000000     0.00000000     0.00000000
2375     0.00000000     0.00000000     0.00000000
2376     0.00000000     0.00000000     0.00000000
2377     0.00000000     0.00000000     0.00000000
2378     0.00000000     0.00000000     0.00000000
2379     0.00000000     0.00000000     0.00000000
2380     0.00000000     0.00000000     0.00000000
2381     0.00000000     0.00000000     0.00000000
2382     0.00000000     0.00000000     0.00000000
2383     0.00000000     0.00000000     0.00000000
2384     0.00000000     0.00000000     0.00000000
2385     0.00000000     0.00000000     0.00000000
2386     0.00000000     0.00000000     0.00000000
2387     0.00000000     0.00000000     0.00000000
2388     0.00000000     0.00000000     0.00000000
2389     0.00000000     0.00000000     0.00000000
2390     0.00000000     0.00000000     0.00000000
2391     0.00000000     0.00000000     0.00000000
2392     0.00000000     0.00000000     0.00000000
2393     0.00000000     0.00000000     0.00000000
2394     0.00000000     0.00000000     0.00000000
2395     0.00000000     0.00000000     0.00000000
2396     0.00000000     0.00000000     0.00000000
2397     0.00000000     0.00000000     0.00000000
2398     0.00000000     0.00000000     0.00000000
2399     0.00000000     0.00000000     0.00000000
2400     0.00000000     0.00000000     0.00000000
2401     0.00000000     0.00000000     0.00000000
2402     0.00000000     0.00000000     0.00000000
2403     0.00000000     0.00000000     0.00000000
2404     0.00000000     0.00000000     0.00000000
2405     0.00000000     0.00000000     0.00000000
2406     0.00000000     0.00000000     0.00000000
2407     0.00000000     0.00000000     0.00000000
2408     0.00000000     0.00000000     0.00000000
2409     0.00000000     0.00000000     0.00000000
2410     0.00000000     0.00000000     0.00000000
2411     0.00000000     0.00000000     0.00000000
2412     0.00000000     0.00000000     0.00000000
2413     0.00000000     0.00000000     0.00000000
2414     0.00000000     0.00000000     0.00000000
2415     0.00000000     0.00000000     0.00000000
2416     0.00000000     0.00000000     0.00000000
2417     0.00000000     0.00000000     0.00000000
2418     0.00000000     0.00000000     0.00000000
2419     0.00000000     0.00000000     0.00000000
2420     0.00000000     0.00000000     0.00000000
2421     0.00000000     0.00000000     0.00000000
2422     0.00000000     0.00000000     0.00000000
2423     0.00000000     0.00000000     0.00000000
2424     0.00000000     0.00000000     0.00000000
2425     0.00000000     0.00000000     0.00000000
2426     0.00000000     0.00000000     0.00000000
2427     0.00000000     0.00000000     0.00000000
2428     0.00000000     0.00000000     0.00000000
2429     0.00000000     0.00000000     0.00000000
2430     0.00000000     0.00000000     0.00000000
2431     0.00000000     0.00000000     0.00000000
2432     0.00000000     0.00000000     0.00000000
2433     0.00000000     0.00000000     0.00000000
2434     0.00000000     0.00000000     0.00000000
2435     0.00000000     0.00000000     0.00000000
2436     0.00000000     0.00000000     0.00000000
2437     0.00000000     0.00000000     0.00000000
2438     0.00000000     0.00000000     0.00000000
2439     0.00000000     0.00000000     0.00000000
2440     0.00000000     0.00000000     0.00000000
2441     0.00000000     0.00000000     0.00000000
2442     0.00000000     0.00000000     0.00000000
2443     0.00000000     0.00000000     0.00000000
2444     0.00000000     0.00000000     0.00000000
2445     0.00000000     0.00000000     0.00000000
2446     0.00000000     0.00000000     0.00000000
2447     0.00000000     0.00000000     0.00000000
2448     0.00000000     0.00000000     0.00000000
2449     0.00000000     0.00000000     0.00000000
2450     0.00000000     0.00000000     0.00000000
2451     0.00000000     0.00000000     0.00000000
2452     0.00000000     0.00000000     0.00000000
2453     0.00000000     0.00000000     0.00000000
2454     0.00000000     0.00000000     0.00000000
2455     0.00000000     0.00000000     0.00000000
2456     0.00000000     0.00000000     0.00000000
2457     0.00000000     0.00000000     0.00000000
2458     0.00000000     0.00000000     0.00000000
2459     0.00000000     0.00000000     0.00000000
2460     0.00000000     0.00000000     0.00000000
2461     0.00000000     0.00000000     0.00000000
2462     0.00000000     0.00000000     0.00000000
2463     0.00000000     0.00000000     0.00000000
2464     0.00000000     0.00000000     0.00000000
2465     0.00000000     0.00000000     0.00000000
2466     0.00000000     0.00000000     0.00000000
2467     0.00000000     0.00000000     0.00000000
2468     0.00000000     0.00000000     0.00000000
2469     0.00000000     0.00000000     0.00000000
2470     0.00000000     0.00000000     0.00000000
2471     0.00000000     0.00000000     0.00000000
2472     0.00000000     0.00000000     0.00000000
2473     0.00000000     0.00000000     0.00000000
2474     0.00000000     0.00000000     0.00000000
2475     0.00000000     0.00000000     0.00000000
2476     0.00000000     0.00000000     0.00000000
2477     0.00000000     0.00000000     0.00000000
2478     0.00000000     0.00000000     0.00000000
2479     0.00000000     0.00000000     0.00000000
2480     0.00000000     0.00000000     0.00000000
2481     0.00000000     0.00000000     0.00000000
2482     0.00000000     0.00000000     0.00000000
2483     0.00000000     0.00000000     0.00000000
2484     0.00000000     0.00000000     0.00000000
2485     0.00000000     0.00000000     0.00000000
2486     0.00000000     0.00000000     0.00000000
2487     0.00000000     0.00000000     0.00000000
2488     0.00000000     0.00000000     0.00000000
2489     0.00000000     0.00000000     0.00000000
2490     0.00000000     0.00000000     0.00000000
2491     0.00000000     0.00000000     0.00000000
2492     0.00000000     0.00000000     0.00000000
2493     0.00000000     0.00000000     0.00000000
2494     0.00000000     0.00000000     0.00000000
2495     0.00000000     0.00000000     0.00000000
2496     0.00000000     0.00000000     0.00000000
2497     0.00000000     0.00000000     0.00000000
2498     0.00000000     0.00000000     0.00000000
2499     0.00000000     0.00000000     0.00000000
2500     0.00000000     0.00000000     0.00000000
2501     0.00000000     0.00000000     0.00000000
2502     0.00000000     0.00000000     0.00000000
2503     0.00000000     0.00000000     0.00000000
2504     0.00000000     0.00000000     0.00000000
2505     0.00000000     0.00000000     0.00000000
2506     0.00000000     0.00000000     0.00000000
2507     0.00000000     0.00000000     0.00000000
2508     0.00000000     0.00000000     0.00000000
2509     0.00000000     0.00000000     0.00000000
2510     0.00000000     0.00000000     0.00000000
2511     0.00000000     0.00000000     0.00000000
2512     0.00000000     0.00000000     0.00000000
2513     0.00000000     0.00000000     0.00000000
2514     0.00000000     0.00000000     0.00000000
2515     0.00000000     0.00000000     0.00000000
2516     0.00000000     0.00000000     0.00000000
2517     0.00000000     0.00000000     0.00000000
2518     0.00000000     0.00000000     0.00000000
2519     0.00000000     0.00000000     0.00000000
2520     0.00000000     0.00000000     0.00000000
2521     0.00000000     0.00000000     0.00000000
2522     0.00000000     0.00000000     0.00000000
2523     0.00000000     0.00000000     0.00000000
2524     0.00000000     0.00000000     0.00000000
2525     0.00000000     0.00000000     0.00000000
2526     0.00000000     0.00000000     0.00000000
2527     0.00000000     0.00000000     0.00000000
2528     0.00000000     0.00000000     0.00000000
2529     0.00000000     0.00000000     0.00000000
2530     0.00000000     0.00000000     0.00000000
2531     0.00000000     0.00000000     0.00000000
2532     0.00000000     0.00000000     0.00000000
2533     0.00000000     0.00000000     0.00000000
2534     0.00000000     0.00000000     0.00000000
2535     0.00000000     0.00000000     0.00000000
2536     0.00000000     0.00000000     0.00000000
2537     0.00000000     0.00000000     0.00000000
2538     0.00000000     0.00000000     0.00000000
2539     0.00000000     0.00000000     0.00000000
2540     0.00000000     0.00000000     0.00000000
2541     0.00000000     0.00000000     0.00000000
2542     0.00000000     0.00000000     0.00000000
2543     0.00000000     0.00000000     0.00000000
2544     0.00000000     0.00000000     0.00000000
2545     0.00000000     0.00000000     0.00000000
2546     0.00000000     0.00000000     0.00000000
2547     0.00000000     0.00000000     0.00000000
2548     0.00000000     0.00000000     0.00000000
2549     0.00000000     0.00000000     0.00000000
2550     0.00000000     0.00000000     0.00000000
2551     0.00000000     0.00000000     0.00000000
2552     0.00000000     0.00000000     0.00000000
2553     0.00000000     0.00000000     0.00000000
2554     0.00000000     0.00000000     0.00000000
2555     0.00000000     0.00000000     0.00000000
2556     0.00000000     0.00000000     0.00000000
2557     0.00000000     0.00000000     0.00000000
2558     0.00000000     0.00000000     0.00000000
2559     0.00000000     0.00000000     0.00000000
2560     0.00000000     0.00000000     0.00000000
2561     0.00000000     0.00000000     0.00000000
2562     0.00000000     0.00000000     0.00000000
2563     0.00000000     0.00000000     0.00000000
2564     0.00000000     0.00000000     0.00000000
2565     0.00000000     0.00000000     0.00000000
2566     0.00000000     0.00000000     0.00000000
2567     0.00000000     0.00000000     0.00000000
2568     0.00000000     0.00000000     0.00000000
2569     0.00000000     0.00000000     0.00000000
2570     0.00000000     0.00000000     0.00000000
2571     0.00000000     0.00000000     0.00000000
2572     0.00000000     0.00000000     0.00000000
2573     0.00000000     0.00000000     0.00000000
2574     0.00000000     0.00000000     0.00000000
2575     0.00000000     0.00000000     0.00000000
2576     0.00000000     0.00000000     0.00000000
2577     0.00000000     0.00000000     0.00000000
2578     0.00000000     0.00000000     0.00000000
2579     0.00000000     0.00000000     0.00000000
2580     0.00000000     0.00000000     0.00000000
2581     0.00000000     0.00000000     0.00000000
2582     0.00000000     0.00000000     0.00000000
2583     0.00000000     0.00000000     0.00000000
2584     0.00000000     0.00000000     0.00000000
2585     0.00000000     0.00000000     0.00000000
2586     0.00000000     0.00000000     0.00000000
2587     0.00000000     0.00000000     0.00000000
2588     0.00000000     0.00000000     0.00000000
2589     0.00000000     0.00000000     0.00000000
2590     0.00000000     0.00000000     0.00000000
2591     0.00000000     0.00000000     0.00000000
2592     0.00000000     0.00000000     0.00000000
2593     0.00000000     0.00000000     0.00000000
2594     0.00000000     0.00000000     0.00000000
2595     0.00000000     0.00000000     0.00000000
2596     0.00000000     0.00000000     0.00000000
2597     0.00000000     0.00000000     0.00000000
2598     0.00000000     0.00000000     0.00000000
2599     0.00000000     0.00000000     0.00000000
2600     0.00000000     0.00000000     0.00000000
2601     0.00000000     0.00000000     0.00000000
2602     0.00000000     0.00000000     0.00000000
2603     0.00000000     0.00000000     0.00000000
2604     0.00000000     0.00000000     0.00000000
2605     0.00000000     0.00000000     0.00000000
2606     0.00000000     0.00000000     0.00000000
2607     0.00000000     0.00000000     0.00000000
2608     0.00000000     0.00000000     0.00000000
2609     0.00000000     0.00000000     0.00000000
2610     0.00000000     0.00000000     0.00000000
2611     0.00000000     0.00000000     0.00000000
2612     0.00000000     0.00000000     0.00000000
2613     0.00000000     0.00000000     0.00000000
2614     0.00000000     0.00000000     0.00000000
2615     0.00000000     0.00000000     0.00000000
2616     0.00000000     0.00000000     0.00000000
2617     0.00000000     0.00000000     0.00000000
2618     0.00000000     0.00000000     0.00000000
2619     0.00000000     0.00000000     0.00000000
2620     0.00000000     0.00000000     0.00000000
2621     0.00000000     0.00000000     0.00000000
2622     0.00000000     0.00000000     0.00000000
2623     0.00000000     0.00000000     0.00000000
2624     0.00000000     0.00000000     0.00000000
2625     0.00000000     0.00000000     0.00000000
2626     0.00000000     0.00000000     0.00000000
2627     0.00000000     0.00000000     0.00000000
2628     0.00000000     0.00000000     0.00000000
2629     0.00000000     0.00000000     0.00000000
2630     0.00000000     0.00000000     0.00000000
2631     0.00000000     0.00000000     0.00000000
2632     0.00000000     0.00000000     0.00000000
2633     0.00000000     0.00000000     0.00000000
2634     0.00000000     0.00000000     0.00000000
2635     0.00000000     0.00000000     0.00000000
2636     0.00000000     0.00000000     0.00000000
2637     0.00000000     0.00000000     0.00000000
2638     0.00000000     0.00000000     0.00000000
2639     0.00000000     0.00000000     0.00000000
2640     0.00000000     0.00000000     0.00000000
2641     0.00000000     0.00000000     0.00000000
2642     0.00000000     0.00000000     0.00000000
2643     0.00000000     0.00000000     0.00000000
2644     0.00000000     0.00000000     0.00000000
2645     0.00000000     0.00000000     0.00000000
2646     0.00000000     0.00000000     0.00000000
2647     0.00000000     0.00000000     0.00000000
2648     0.00000000     0.00000000     0.00000000
2649     0.00000000     0.00000000     0.00000000
2650     0.00000000     0.00000000     0.00000000
2651     0.00000000     0.00000000     0.00000000
2652     0.00000000     0.00000000     0.00000000
2653     0.00000000     0.00000000     0.00000000
2654     0.00000000     0.00000000     0.00000000
2655     0.00000000     0.00000000     0.00000000
2656     0.00000000     0.00000000     0.00000000
2657     0.00000000     0.00000000     0.00000000
2658     0.00000000     0.00000000     0.00000000
2659     0.00000000     0.00000000     0.00000000
2660     0.00000000     0.00000000     0.00000000
2661     0.00000000     0.00000000     0.00000000
2662     0.00000000     0.00000000     0.00000000
2663     0.00000000     0.00000000     0.00000000
2664     0.00000000     0.00000000     0.00000000
2665     0.00000000     0.00000000     0.00000000
2666     0.00000000     0.00000000     0.00000000
2667     0.00000000     0.00000000     0.00000000
2668     0.00000000     0.00000000     0.00000000
2669     0.00000000     0.00000000     0.00000000
2670     0.00000000     0.00000000     0.00000000
2671     0.00000000     0.00000000     0.00000000
2672     0.00000000     0.00000000     0.00000000
2673     0.00000000     0.00000000     0.00000000
2674     0.00000000     0.00000000     0.00000000
2675     0.00000000     0.00000000     0.00000000
2676     0.00000000     0.00000000     0.00000000
2677     0.00000000     0.00000000     0.00000000
2678     0.00000000     0.00000000     0.00000000
2679     0.00000000     0.00000000     0.00000000
2680     0.00000000     0.00000000     0.00000000
2681     0.00000000     0.00000000     0.00000000
2682     0.00000000     0.00000000     0.00000000
2683     0.00000000     0.00000000     0.00000000
2684     0.00000000     0.00000000     0.00000000
2685     0.00000000     0.00000000     0.00000000
2686     0.00000000     0.00000000     0.00000000
2687     0.00000000     0.00000000     0.00000000
2688     0.00000000     0.00000000     0.00000000
2689     0.00000000     0.00000000     0.00000000
2690     0.00000000     0.00000000     0.00000000
2691     0.00000000     0.00000000     0.00000000
2692     0.00000000     0.00000000     0.00000000
2693     0.00000000     0.00000000     0.00000000
2694     0.00000000     0.00000000     0.00000000
2695     0.00000000     0.00000000     0.00000000
2696     0.00000000     0.00000000     0.00000000
2697     0.00000000     0.00000000     0.00000000
2698     0.00000000     0.00000000     0.00000000
2699     0.00000000     0.00000000     0.00000000
2700     0.00000000     0.00000000     0.00000000
2701     0.00000000     0.00000000     0.00000000
2702     0.00000000     0.00000000     0.00000000
2703     0.00000000     0.00000000     0.00000000
2704     0.00000000     0.00000000     0.00000000
2705     0.00000000     0.00000000     0.00000000
2706     0.00000000     0.00000000     0.00000000
2707     0.00000000     0.00000000     0.00000000
2708     0.00000000     0.00000000     0.00000000
2709     0.00000000     0.00000000     0.00000000
2710     0.00000000     0.00000000     0.00000000
2711     0.00000000     0.00000000     0.00000000
2712     0.00000000     0.00000000     0.00000000
2713     0.00000000     0.00000000     0.00000000
2714     0.00000000     0.00000000     0.00000000
2715     0.00000000     0.00000000     0.00000000
2716     0.00000000     0.00000000     0.00000000
2717     0.00000000     0.00000000     0.00000000
2718     0.00000000     0.00000000     0.00000000
2719     0.00000000     0.00000000     0.00000000
2720     0.00000000     0.00000000     0.00000000
2721     0.00000000     0.00000000     0.00000000
2722     0.00000000     0.00000000     0.00000000
2723     0.00000000     0.00000000     0.00000000
2724     0.00000000     0.00000000     0.00000000
2725     0.00000000     0.00000000     0.00000000
2726     0.00000000     0.00000000     0.00000000
2727     0.00000000     0.00000000     0.00000000
2728     0.00000000     0.00000000     0.00000000
2729     0.00000000     0.00000000     0.00000000
2730     0.00000000     0.00000000     0.00000000
2731     0.00000000     0.00000000     0.00000000
2732     0.00000000     0.00000000     0.00000000
2733     0.00000000     0.00000000     0.00000000
2734     0.00000000     0.00000000     0.00000000
2735     0.00000000     0.00000000     0.00000000
2736     0.00000000     0.00000000     0.00000000
2737     0.00000000     0.00000000     0.00000000
2738     0.00000000     0.00000000     0.00000000
2739     0.00000000     0.00000000     0.00000000
2740     0.00000000     0.00000000     0.00000000
2741     0.00000000     0.00000000     0.00000000
2742     0.00000000     0.00000000     0.00000000
2743     0.00000000     0.00000000     0.00000000
2744     0.00000000     0.00000000     0.00000000
2745     0.00000000     0.00000000     0.00000000
2746     0.00000000     0.00000000     0.00000000
2747     0.00000000     0.00000000     0.00000000
2748     0.00000000     0.00000000     0.00000000
2749     0.00000000     0.00000000     0.00000000
2750     0.00000000     0.00000000     0.00000000
2751     0.00000000     0.00000000     0.00000000
2752     0.00000000     0.00000000     0.00000000
2753     0.00000000     0.00000000     0.00000000
2754     0.00000000     0.00000000     0.00000000
2755     0.00000000     0.00000000     0.00000000
2756     0.00000000     0.00000000     0.00000000
2757     0.00000000     0.00000000     0.00000000
2758     0.00000000     0.00000000     0.00000000
2759     0.00000000     0.00000000     0.00000000
2760     0.00000000     0.00000000     0.00000000
2761     0.00000000     0.00000000     0.00000000
2762     0.00000000     0.00000000     0.00000000
2763     0.00000000     0.00000000     0.00000000
2764     0.00000000     0.00000000     0.00000000
2765     0.00000000     0.00000000     0.00000000
2766     0.00000000     0.00000000     0.00000000
2767     0.00000000     0.00000000     0.00000000
2768     0.00000000     0.00000000     0.00000000
2769     0.00000000     0.00000000     0.00000000
2770     0.00000000     0.00000000     0.00000000
2771     0.00000000     0.00000000     0.00000000
2772     0.00000000     0.00000000     0.00000000
2773     0.00000000     0.00000000     0.00000000
2774     0.00000000     0.00000000     0.00000000
2775     0.00000000     0.00000000     0.00000000
2776     0.00000000     0.00000000     0.00000000
2777     0.00000000     0.00000000     0.00000000
2778     0.00000000     0.00000000     0.00000000
2779     0.00000000     0.00000000     0.00000000
2780     0.00000000     0.00000000     0.00000000
2781     0.00000000     0.00000000     0.00000000
2782     0.00000000     0.00000000     0.00000000
2783     0.00000000     0.00000000     0.00000000
2784     0.00000000     0.00000000     0.00000000
2785     0.00000000     0.00000000     0.00000000
2786     0.00000000     0.00000000     0.00000000
2787     0.00000000     0.00000000     0.00000000
2788     0.00000000     0.00000000     0.00000000
2789     0.00000000     0.00000000     0.00000000
2790     0.00000000     0.00000000     0.00000000
2791     0.00000000     0.00000000     0.00000000
2792     0.00000000     0.00000000     0.00000000
2793     0.00000000     0.00000000     0.00000000
2794     0.00000000     0.00000000     0.00000000
2795     0.00000000     0.00000000     0.00000000
2796     0.00000000     0.00000000     0.00000000
2797     0.00000000     0.00000000     0.00000000
2798     0.00000000     0.00000000     0.00000000
2799     0.00000000     0.00000000     0.00000000
2800     0.00000000     0.00000000     0.00000000
2801     0.00000000     0.00000000     0.00000000
2802     0.00000000     0.00000000     0.00000000
2803     0.00000000     0.00000000     0.00000000
2804     0.00000000     0.00000000     0.00000000
2805     0.00000000     0.00000000     0.00000000
2806     0.00000000     0.00000000     0.00000000
2807     0.00000000     0.00000000     0.00000000
2808     0.00000000     0.00000000     0.00000000
2809     0.00000000     0.00000000     0.00000000
2810     0.00000000     0.00000000     0.00000000
2811     0.00000000     0.00000000     0.00000000
2812     0.00000000     0.00000000     0.00000000
2813     0.00000000     0.00000000     0.00000000
2814     0.00000000     0.00000000     0.00000000
2815     0.00000000     0.00000000     0.00000000
2816     0.00000000     0.00000000     0.00000000
2817     0.00000000     0.00000000     0.00000000
2818     0.00000000     0.00000000     0.00000000
2819     0.00000000     0.00000000     0.00000000
2820     0.00000000     0.00000000     0.00000000
2821     0.00000000     0.00000000     0.00000000
2822     0.00000000     0.00000000     0.00000000
2823     0.00000000     0.00000000     0.00000000
2824     0.00000000     0.00000000     0.00000000
2825     0.00000000     0.00000000     0.00000000
2826     0.00000000     0.00000000     0.00000000
2827     0.00000000     0.00000000     0.00000000
2828     0.00000000     0.00000000     0.00000000
2829     0.00000000     0.00000000     0.00000000
2830     0.00000000     0.00000000     0.00000000
2831     0.00000000     0.00000000     0.00000000
2832     0.00000000     0.00000000     0.00000000
2833     0.00000000     0.00000000     0.00000000
2834     0.00000000     0.00000000     0.00000000
2835     0.00000000     0.00000000     0.00000000
2836     0.00000000     0.00000000     0.00000000
2837     0.00000000     0.00000000     0.00000000
2838     0.00000000     0.00000000     0.00000000
2839     0.00000000     0.00000000     0.00000000
2840     0.00000000     0.00000000     0.00000000
2841     0.00000000     0.00000000     0.00000000
2842     0.00000000     0.00000000     0.00000000
2843     0.00000000     0.00000000     0.00000000
2844     0.00000000     0.00000000     0.00000000
2845     0.00000000     0.00000000     0.00000000
2846     0.00000000     0.00000000     0.00000000
2847     0.00000000     0.00000000     0.00000000
2848     0.00000000     0.00000000     0.00000000
2849     0.00000000     0.00000000     0.00000000
2850     0.00000000     0.00000000     0.00000000
2851     0.00000000     0.00000000     0.00000000
2852     0.00000000     0.00000000     0.00000000
2853     0.00000000     0.00000000     0.00000000
2854     0.00000000     0.00000000     0.00000000
2855     0.00000000     0.00000000     0.00000000
2856     0.00000000     0.00000000     0.00000000
2857     0.00000000     0.00000000     0.00000000
2858     0.00000000     0.00000000     0.00000000
2859     0.00000000     0.00000000     0.00000000
2860     0.00000000     0.00000000     0.00000000
2861     0.00000000     0.00000000     0.00000000
2862     0.00000000     0.00000000     0.00000000
2863 11664.00000000 11665.00000000 11666.00000000
2864 11667.00000000 11668.00000000 11669.00000000
2865 11670.00000000 11671.00000000 11672.00000000
2866 11673.00000000 11674.00000000 11675.00000000
2867 11676.00000000 11677.00000000 11678.00000000
2868 11679.00000000 11680.00000000 11681.00000000
2869 11682.00000000 11683.00000000 11684.00000000
2870 11685.00000000 11686.00000000 11687.00000000
2871 11688.00000000 11689.00000000 11690.00000000
2872 11691.00000000 11692.00000000 11693.00000000
2873 11694.00000000 11695.00000000 11696.00000000
2874 11697.00000000 11698.00000000 11699.00000000
2875 11718.00000000 11719.00000000 11720.00000000
2876 11721.00000000 11722.00000000 11723.00000000
2877 11724.00000000 11725.00000000 11726.00000000
2878 11745.00000000 11746.00000000 11747.00000000
2879 11748.00000000 11749.00000000 11750.00000000
2880 11751.00000000 11752.00000000 11753.00000000
2881 11754.00000000 11755.00000000 11756.00000000
2882 11757.00000000 11758.00000000 11759.00000000
2883 11760.00000000 11761.00000000 11762.00000000
2884 11763.00000000 11764.00000000 11765.00000000
2885 11766.00000000 11767.00000000 11768.00000000
2886 11769.00000000 11770.00000000 11771.00000000
2887 11772.00000000 11773.00000000 11774.00000000
2888 11775.00000000 11776.00000000 11777.00000000
2889 11778.00000000 11779.00000000 11780.00000000
2890 11799.00000000 11800.00000000 11801.00000000
2891 11802.00000000 11803.00000000 11804.00000000
2892 11805.00000000 11806.00000000 11807.00000000
2893 11826.00000000 11827.00000000 11828.00000000
2894 11829.00000000 11830.00000000 11831.00000000
2895 11832.00000000 11833.00000000 11834.00000000
2896 11835.00000000 11836.00000000 11837.00000000
2897 11838.00000000 11839.00000000 11840.00000000
2898 11841.00000000 11842.00000000 11843.00000000
2899 11844.00000000 11845.00000000 11846.00000000
2900 11847.00000000 11848.00000000 11849.00000000
2901 11850.00000000 11851.00000000 11852.00000000
2902 11853.00000000 11854.00000000 11855.00000000
2903 11856.00000000 11857.00000000 11858.00000000
2904 11859.00000000 11860.00000000 11861.00000000
2905 11880.00000000 11881.00000000 11882.00000000
2906 11883.00000000 11884.00000000 11885.00000000
2907 11886.00000000 11887.00000000 11888.00000000
2908 11907.00000000 11908.00000000 11909.00000000
2909 11910.00000000 11911.00000000 11912.00000000
2910 11913.00000000 11914.00000000 11915.00000000
2911 11916.00000000 11917.00000000 11918.00000000
2912 11919.00000000 11920.00000000 11921.00000000
2913 11922.00000000 11923.00000000 11924.00000000
2914 11925.00000000 11926.00000000 11927.00000000
2915 11928.00000000 11929.00000000 11930.00000000
2916 11931.00000000 11932.00000000 11933.00000000
2917 11934.00000000 11935.00000000 11936.00000000
2918 11937.00000000 11938.00000000 11939.00000000
2919 11940.00000000 11941.00000000 11942.00000000
2920 11961.00000000 11962.00000000 11963.00000000
2921 11964.00000000 11965.00000000 11966.00000000
2922 11967.00000000 11968.00000000 11969.00000000
2923 11979.00000000 11980.00000000 11981.00000000
2924 11982.00000000 11983.00000000 11984.00000000
2925 11985.00000000 11986.00000000 11987.00000000
2926 11988.00000000 11989.00000000 11990.00000000
2927 11991.00000000 11992.00000000 11993.00000000
2928 11994.00000000 11995.00000000 11996.00000000
2929 11997.00000000 11998.00000000 11999.00000000
2930 12000.00000000 12001.00000000 12002.00000000
2931 12003.00000000 12004.00000000 12005.00000000
2932 12006.00000000 12007.00000000 12008.00000000
2933 12009.00000000 12010.00000000 12011.00000000
2934 12012.00000000 12013.00000000 12014.00000000
2935 12015.00000000 12016.00000000 12017.00000000
2936 12018.00000000 12019.00000000 12020.00000000
2937 12021.00000000 12022.00000000 12023.00000000
2938 12042.00000000 12043.00000000 12044.00000000
2939 12045.00000000 12046.00000000 12047.00000000
2940 12048.00000000 12049.00000000 12050.00000000
2941 12060.00000000 12061.00000000 12062.00000000
2942 12063.00000000 12064.00000000 12065.00000000
2943 12066.00000000 12067.00000000 12068.00000000
2944 12069.00000000 12070.00000000 12071.00000000
2945 12072.00000000 12073.00000000 12074.00000000
2946 12075.00000000 12076.00000000 12077.00000000
2947 12078.00000000 12079.00000000 12080.00000000
2948 12081.00000000 12082.00000000 12083.00000000
2949 12084.00000000 12085.00000000 12086.00000000
2950 12087.00000000 12088.00000000 12089.00000000
2951 12090.00000000 12091.00000000 12092.00000000
2952 12093.00000000 12094.00000000 12095.00000000
2953 12096.00000000 12097.00000000 12098.00000000
2954 12099.00000000 12100.00000000 12101.00000000
2955 12102.00000000 12103.00000000 12104.00000000
2956 12123.00000000 12124.00000000 12125.00000000
2957 12126.00000000 12127.00000000 12128.00000000
2958 12129.00000000 12130.00000000 12131.00000000
2959 12141.00000000 12142.00000000 12143.00000000
2960 12144.00000000 12145.00000000 12146.00000000
2961 12147.00000000 12148.00000000 12149.00000000
2962 12150.00000000 12151.00000000 12152.00000000
2963 12153.00000000 12154.00000000 12155.00000000
2964 12156.00000000 12157.00000000 12158.00000000
2965 12159.00000000 12160.00000000 12161.00000000
2966 12162.00000000 12163.00000000 12164.00000000
2967 12165.00000000 12166.00000000 12167.00000000
2968 12168.00000000 12169.00000000 12170.00000000
2969 12171.00000000 12172.00000000 12173.00000000
2970 12174.00000000 12175.00000000 12176.00000000
2971 12177.00000000 12178.00000000 12179.00000000
2972 12180.00000000 12181.00000000 12182.00000000
2973 12183.00000000 12184.00000000 12185.00000000
2974 12204.00000000 12205.00000000 12206.00000000
2975 12207.00000000 12208.00000000 12209.00000000
2976 12210.00000000 12211.00000000 12212.00000000
2977 12222.00000000 12223.00000000 12224.00000000
2978 12225.00000000 12226.00000000 12227.00000000
2979 12228.00000000 12229.00000000 12230.00000000
2980 12231.00000000 12232.00000000 12233.00000000
2981 12234.00000000 12235.00000000 12236.00000000
2982 12237.00000000 12238.00000000 12239.00000000
2983 12240.00000000 12241.00000000 12242.00000000
2984 12243.00000000 12244.00000000 12245.00000000
2985 12246.00000000 12247.00000000 12248.00000000
2986 12249.00000000 12250.00000000 12251.00000000
2987 12252.00000000 12253.00000000 12254.00000000
2988 12255.00000000 12256.00000000 12257.00000000
2989 12258.00000000 12259.00000000 12260.00000000
2990 12261.00000000 12262.00000000 12263.00000000
2991 12264.00000000 12265.00000000 12266.00000000
2992 12285.00000000 12286.00000000 12287.00000000
2993 12288.00000000 12289.00000000 12290.00000000
2994 12291.00000000 12292.00000000 12293.00000000
2995 12303.00000000 12304.00000000 12305.00000000
2996 12306.00000000 12307.00000000 12308.00000000
2997 12309.00000000 12310.00000000 12311.00000000
2998 12312.00000000 12313.00000000 12314.00000000
2999 12315.00000000 12316.00000000 12317.00000000
3000 12318.00000000 12319.00000000 12320.00000000
3001 12321.00000000 12322.00000000 12323.00000000
3002 12324.00000000 12325.00000000 12326.00000000
3003 12327.00000000 12328.00000000 12329.00000000
3004 12330.00000000 12331.00000000 12332.00000000
3005 12333.00000000 12334.00000000 12335.00000000
3006 12336.00000000 12337.00000000 12338.00000000
3007 12339.00000000 12340.00000000 12341.00000000
3008 12342.00000000 12343.00000000 12344.00000000
3009 12345.00000000 12346.00000000 12347.00000000
3010 12366.00000000 12367.00000000 12368.00000000
3011 12369.00000000 12370.00000000 12371.00000000
3012 12372.00000000 12373.00000000 12374.00000000
3013 12384.00000000 12385.00000000 12386.00000000
3014 12387.00000000 12388.00000000 12389.00000000
3015 12390.00000000 12391.00000000 12392.00000000
3016 12393.00000000 12394.00000000 12395.00000000
3017 12396.00000000 12397.00000000 12398.00000000
3018 12399.00000000 12400.00000000 12401.00000000
3019 12402.00000000 12403.00000000 12404.00000000
3020 12405.00000000 12406.00000000 12407.00000000
3021 12408.00000000 12409.00000000 12410.00000000
3022 12411.00000000 12412.00000000 12413.00000000
3023 12414.00000000 12415.00000000 12416.00000000
3024 12417.00000000 12418.00000000 12419.00000000
3025 12438.00000000 12439.00000000 12440.00000000
3026 12441.00000000 12442.00000000 12443.00000000
3027 12444.00000000 12445.00000000 12446.00000000
3028 12447.00000000 12448.00000000 12449.00000000
3029 12450.00000000 12451.00000000 12452.00000000
3030 12453.00000000 12454.00000000 12455.00000000
3031 12465.00000000 12466.00000000 12467.00000000
3032 12468.00000000 12469.00000000 12470.00000000
3033 12471.00000000 12472.00000000 12473.00000000
3034 12474.00000000 12475.00000000 12476.00000000
3035 12477.00000000 12478.00000000 12479.00000000
3036 12480.00000000 12481.00000000 12482.00000000
3037 12483.00000000 12484.00000000 12485.00000000
3038 12486.00000000 12487.00000000 12488.00000000
3039 12489.00000000 12490.00000000 12491.00000000
3040 12492.00000000 12493.00000000 12494.00000000
3041 12495.00000000 12496.00000000 12497.00000000
3042 12498.00000000 12499.00000000 12500.00000000
3043 12519.00000000 12520.00000000 12521.00000000
3044 12522.00000000 12523.00000000 12524.00000000
3045 12525.00000000 12526.00000000 12527.00000000
3046 12528.00000000 12529.00000000 12530.00000000
3047 12531.00000000 12532.00000000 12533.00000000
3048 12534.00000000 12535.00000000 12536.00000000
3049 12546.00000000 12547.00000000 12548.00000000
3050 12549.00000000 12550.00000000 12551.00000000
3051 12552.00000000 12553.00000000 12554.00000000
3052 12555.00000000 12556.00000000 12557.00000000
3053 12558.00000000 12559.00000000 12560.00000000
3054 12561.00000000 12562.00000000 12563.00000000
3055 12564.00000000 12565.00000000 12566.00000000
3056 12567.00000000 12568.00000000 12569.00000000
3057 12570.00000000 12571.00000000 12572.00000000
3058 12573.00000000 12574.00000000 12575.00000000
3059 12576.00000000 12577.00000000 12578.00000000
3060 12579.00000000 12580.00000000 12581.00000000
3061 12600.00000000 12601.00000000 12602.00000000
3062 12603.00000000 12604.00000000 12605.00000000
3063 12606.00000000 12607.00000000 12608.00000000
3064 12609.00000000 12610.00000000 12611.00000000
3065 12612.00000000 12613.00000000 12614.00000000
3066 12615.00000000 12616.00000000 12617.00000000
3067 12627.00000000 12628.00000000 12629.00000000
3068 12630.00000000 12631.00000000 12632.00000000
3069 12633.00000000 12634.00000000 12635.00000000
3070 12636.00000000 12637.00000000 12638.00000000
3071 12639.00000000 12640.00000000 12641.00000000
3072 12642.00000000 12643.00000000 12644.00000000
3073 12645.00000000 12646.00000000 12647.00000000
3074 12648.00000000 12649.00000000 12650.00000000
3075 12651.00000000 12652.00000000 12653.00000000
3076 12654.00000000 12655.00000000 12656.00000000
3077 12657.00000000 12658.00000000 12659.00000000
3078 12660.00000000 12661.00000000 12662.00000000
3079 12663.00000000 12664.00000000 12665.00000000
3080 12666.00000000 12667.00000000 12668.00000000
3081 12669.00000000 12670.00000000 12671.00000000
3082 12690.00000000 12691.00000000 12692.00000000
3083 12693.00000000 12694.00000000 12695.00000000
3084 12696.00000000 12697.00000000 12698.00000000
3085 12699.00000000 12700.00000000 12701.00000000
3086 12702.00000000 12703.00000000 12704.00000000
3087 12705.00000000 12706.00000000 12707.00000000
3088 12708.00000000 12709.00000000 12710.00000000
3089 12711.00000000 12712.00000000 12713.00000000
3090 12714.00000000 12715.00000000 12716.00000000
3091 12717.00000000 12718.00000000 12719.00000000
3092 12720.00000000 12721.00000000 12722.00000000
3093 12723.00000000 12724.00000000 12725.00000000
3094 12726.00000000 12727.00000000 12728.00000000
3095 12729.00000000 12730.00000000 12731.00000000
3096 12732.00000000 12733.00000000 12734.00000000
3097 12735.00000000 12736.00000000 12737.00000000
3098 12738.00000000 12739.00000000 12740.00000000
3099 12741.00000000 12742.00000000 12743.00000000
3100 12744.00000000 12745.00000000 12746.00000000
3101 12747.00000000 12748.00000000 12749.00000000
3102 12750.00000000 12751.00000000 12752.00000000
3103 12771.00000000 12772.00000000 12773.00000000
3104 12774.00000000 12775.00000000 12776.00000000
3105 12777.00000000 12778.00000000 12779.00000000
3106 12780.00000000 12781.00000000 12782.00000000
3107 12783.00000000 12784.00000000 12785.00000000
3108 12786.00000000 12787.00000000 12788.00000000
3109 12789.00000000 12790.00000000 12791.00000000
3110 12792.00000000 12793.00000000 12794.00000000
3111 12795.00000000 12796.00000000 12797.00000000
3112 12798.00000000 12799.00000000 12800.00000000
3113 12801.00000000 12802.00000000 12803.00000000
3114 12804.00000000 12805.00000000 12806.00000000
3115 12807.00000000 12808.00000000 12809.00000000
3116 12810.00000000 12811.00000000 12812.00000000
3117 12813.00000000 12814.00000000 12815.00000000
3118 12816.00000000 12817.00000000 12818.00000000
3119 12819.00000000 12820.00000000 12821.00000000
3120 12822.00000000 12823.00000000 12824.00000000
3121 12825.00000000 12826.00000000 12827.00000000
3122 12828.00000000 12829.00000000 12830.00000000
3123 12831.00000000 12832.00000000 12833.00000000
3124 12852.00000000 12853.00000000 12854.00000000
3125 12855.00000000 12856.00000000 12857.00000000
3126 12858.00000000 12859.00000000 12860.00000000
3127 12861.00000000 12862.00000000 12863.00000000
3128 12864.00000000 12865.00000000 12866.00000000
3129 12867.00000000 12868.00000000 12869.00000000
3130 12870.00000000 12871.00000000 12872.00000000
3131 12873.00000000 12874.00000000 12875.00000000
3132 12876.00000000 12877.00000000 12878.00000000
3133 12879.00000000 12880.00000000 12881.00000000
3134 12882.00000000 12883.00000000 12884.00000000
3135 12885.00000000 12886.00000000 12887.00000000
3136 12888.00000000 12889.00000000 12890.00000000
3137 12891.00000000 12892.00000000 12893.00000000
3138 12894.00000000 12895.00000000 12896.00000000
3139 12897.00000000 12898.00000000 12899.00000000
3140 12900.00000000 12901.00000000 12902.00000000
3141 12903.00000000 12904.00000000 12905.00000000
3142 12906.00000000 12907.00000000 12908.00000000
3143 12909.00000000 12910.00000000 12911.00000000
3144 12912.00000000 12913.00000000 12914.00000000
3145 12933.00000000 12934.00000000 12935.00000000
3146 12936.00000000 12937.00000000 12938.00000000
3147 12939.00000000 12940.00000000 12941.00000000
3148 12942.00000000 12943.00000000 12944.00000000
3149 12945.00000000 12946.00000000 12947.00000000
3150 12948.00000000 12949.00000000 12950.00000000
3151 12951.00000000 12952.00000000 12953.00000000
3152 12954.00000000 12955.00000000 12956.00000000
3153 12957.00000000 12958.00000000 12959.00000000
3154 12960.00000000 12961.00000000 12962.00000000
3155 12963.00000000 12964.00000000 12965.00000000
3156 12966.00000000 12967.00000000 12968.00000000
3157 12969.00000000 12970.00000000 12971.00000000
3158 12972.00000000 12973.00000000 12974.00000000
3159 12975.00000000 12976.00000000 12977.00000000
3160 12978.00000000 12979.00000000 12980.00000000
3161 12981.00000000 12982.00000000 12983.00000000
3162 12984.00000000 12985.00000000 12986.00000000
3163 12987.00000000 12988.00000000 12989.00000000
3164 12990.00000000 12991.00000000 12992.00000000
3165 12993.00000000 12994.00000000 12995.00000000
3166 13014.00000000 13015.00000000 13016.00000000
3167 13017.00000000 13018.00000000 13019.00000000
3168 13020.00000000 13021.00000000 13022.00000000
3169 13023.00000000 13024.00000000 13025.00000000
3170 13026.00000000 13027.00000000 13028.00000000
3171 13029.00000000 13030.00000000 13031.00000000
3172 13032.00000000 13033.00000000 13034.00000000
3173 13035.00000000 13036.00000000 13037.00000000
3174 13038.00000000 13039.00000000 13040.00000000
3175 13041.00000000 13042.00000000 13043.00000000
3176 13044.00000000 13045.00000000 13046.00000000
3177 13047.00000000 13048.00000000 13049.00000000
3178 13050.00000000 13051.00000000 13052.00000000
3179 13053.00000000 13054.00000000 13055.00000000
3180 13056.00000000 13057.00000000 13058.00000000
3181 13059.00000000 13060.00000000 13061.00000000
3182 13062.00000000 13063.00000000 13064.00000000
3183 13065.00000000 13066.00000000 13067.00000000
3184 13068.00000000 13069.00000000 13070.00000000
3185 13071.00000000 13072.00000000 13073.00000000
3186 13074.00000000 13075.00000000 13076.00000000
3187 13095.00000000 13096.00000000 13097.00000000
3188 13098.00000000 13099.00000000 13100.00000000
3189 13101.00000000 13102.00000000 13103.00000000
3190 13104.00000000 13105.00000000 13106.00000000
3191 13107.00000000 13108.00000000 13109.00000000
3192 13110.00000000 13111.00000000 13112.00000000
3193 13113.00000000 13114.00000000 13115.00000000
3194 13116.00000000 13117.00000000 13118.00000000
3195 13119.00000000 13120.00000000 13121.00000000
3196 13122.00000000 13123.00000000 13124.00000000
3197 13125.00000000 13126.00000000 13127.00000000
3198 13128.00000000 13129.00000000 13130.00000000
3199 13131.00000000 13132.00000000 13133.00000000
3200 13134.00000000 13135.00000000 13136.00000000
3201 13137.00000000 13138.00000000 13139.00000000
3202 13140.00000000 13141.00000000 13142.00000000
3203 13143.00000000 13144.00000000 13145.00000000
3204 13146.00000000 13147.00000000 13148.00000000
3205 13167.00000000 13168.00000000 13169.00000000
3206 13170.00000000 13171.00000000 13172.00000000
3207 13173.00000000 13174.00000000 13175.00000000
3208 13176.00000000 13177.00000000 13178.00000000
3209 13179.00000000 13180.00000000 13181.00000000
3210 13182.00000000 13183.00000000 13184.00000000
3211 13194.00000000 13195.00000000 13196.00000000
3212 13197.00000000 13198.00000000 13199.00000000
3213 13200.00000000 13201.00000000 13202.00000000
3214 13203.00000000 13204.00000000 13205.00000000
3215 13206.00000000 13207.00000000 13208.00000000
3216 13209.00000000 13210.00000000 13211.00000000
3217 13212.00000000 13213.00000000 13214.00000000
3218 13215.00000000 13216.00000000 13217.00000000
3219 13218.00000000 13219.00000000 13220.00000000
3220 13221.00000000 13222.00000000 13223.00000000
3221 13224.00000000 13225.00000000 13226.00000000
3222 13227.00000000 13228.00000000 13229.00000000
3223 13248.00000000 13249.00000000 13250.00000000
3224 13251.00000000 13252.00000000 13253.00000000
3225 13254.00000000 13255.00000000 13256.00000000
3226 13257.00000000 13258.00000000 13259.00000000
3227 13260.00000000 13261.00000000 13262.00000000
3228 13263.00000000 13264.00000000 13265.00000000
3229 13275.00000000 13276.00000000 13277.00000000
3230 13278.00000000 13279.00000000 13280.00000000
3231 13281.00000000 13282.00000000 13283.00000000
3232 13284.00000000 13285.00000000 13286.00000000
3233 13287.00000000 13288.00000000 13289.00000000
3234 13290.00000000 13291.00000000 13292.00000000
3235 13293.00000000 13294.00000000 13295.00000000
3236 13296.00000000 13297.00000000 13298.00000000
3237 13299.00000000 13300.00000000 13301.00000000
3238 13302.00000000 13303.00000000 13304.00000000
3239 13305.00000000 13306.00000000 13307.00000000
3240 13308.00000000 13309.00000000 13310.00000000
3241 13329.00000000 13330.00000000 13331.00000000
3242 13332.00000000 13333.00000000 13334.00000000
3243 13335.00000000 13336.00000000 13337.00000000
3244 13338.00000000 13339.00000000 13340.00000000
3245 13341.00000000 13342.00000000 13343.00000000
3246 13344.00000000 13345.00000000 13346.00000000
3247 13356.00000000 13357.00000000 13358.00000000
3248 13359.00000000 13360.00000000 13361.00000000
3249 13362.00000000 13363.00000000 13364.00000000
3250 13365.00000000 13366.00000000 13367.00000000
3251 13368.00000000 13369.00000000 13370.00000000
3252 13371.00000000 13372.00000000 13373.00000000
3253 13374.00000000 13375.00000000 13376.00000000
3254 13377.00000000 13378.00000000 13379.00000000
3255 13380.00000000 13381.00000000 13382.00000000
3256 13383.00000000 13384.00000000 13385.00000000
3257 13386.00000000 13387.00000000 13388.00000000
3258 13389.00000000 13390.00000000 13391.00000000
3259 13410.00000000 13411.00000000 13412.00000000
3260 13413.00000000 13414.00000000 13415.00000000
3261 13416.00000000 13417.00000000 13418.00000000
3262 13437.00000000 13438.00000000 13439.00000000
3263 13440.00000000 13441.00000000 13442.00000000
3264 13443.00000000 13444.00000000 13445.00000000
3265 13446.00000000 13447.00000000 13448.00000000
3266 13449.00000000 13450.00000000 13451.00000000
3267 13452.00000000 13453.00000000 13454.00000000
3268 13455.00000000 13456.00000000 13457.00000000
3269 13458.00000000 13459.00000000 13460.00000000
3270 13461.00000000 13462.00000000 13463.00000000
3271 13464.00000000 13465.00000000 13466.00000000
3272 13467.00000000 13468.00000000 13469.00000000
3273 13470.00000000 13471.00000000 13472.00000000
3274 13491.00000000 13492.00000000 13493.00000000
3275 13494.00000000 13495.00000000 13496.00000000
3276 13497.00000000 13498.00000000 13499.00000000
3277 13518.00000000 13519.00000000 13520.00000000
3278 13521.00000000 13522.00000000 13523.00000000
3279 13524.00000000 13525.00000000 13526.00000000
3280 13527.00000000 13528.00000000 13529.00000000
3281 13530.00000000 13531.00000000 13532.00000000
3282 13533.00000000 13534.00000000 13535.00000000
3283 13536.00000000 13537.00000000 13538.00000000
3284 13539.00000000 13540.00000000 13541.00000000
3285 13542.00000000 13543.00000000 13544.00000000
3286 13545.00000000 13546.00000000 13547.00000000
3287 13548.00000000 13549.00000000 13550.00000000
3288 13551.00000000 13552.00000000 13553.00000000
3289 13572.00000000 13573.00000000 13574.00000000
3290 13575.00000000 13576.00000000 13577.00000000
3291 13578.00000000 13579.00000000 13580.00000000
3292 13599.00000000 13600.00000000 13601.00000000
3293 13602.00000000 13603.00000000 13604.00000000
3294 13605.00000000 13606.00000000 13607.00000000
3295 13608.00000000 13609.00000000 13610.00000000
3296 13611.00000000 13612.00000000 13613.00000000
3297 13614.00000000 13615.00000000 13616.00000000
3298 13635.00000000 13636.00000000 13637.00000000
3299 13638.00000000 13639.00000000 13640.00000000
3300 13641.00000000 13642.00000000 13643.00000000
3301 13662.00000000 13663.00000000 13664.00000000
3302 13665.00000000 13666.00000000 13667.00000000
3303 13668.00000000 13669.00000000 13670.00000000
3304 13671.00000000 13672.00000000 13673.00000000
3305 13674.00000000 13675.00000000 13676.00000000
3306 13677.00000000 13678.00000000 13679.00000000
3307 13680.00000000 13681.00000000 13682.00000000
3308 13683.00000000 13684.00000000 13685.00000000
3309 13686.00000000 13687.00000000 13688.00000000
3310 13689.00000000 13690.00000000 13691.00000000
3311 13692.00000000 13693.00000000 13694.00000000
3312 13695.00000000 13696.00000000 13697.00000000
3313 13716.00000000 13717.00000000 13718.00000000
3314 13719.00000000 13720.00000000 13721.00000000
3315 13722.00000000 13723.00000000 13724.00000000
3316 13743.00000000 13744.00000000 13745.00000000
3317 13746.00000000 13747.00000000 13748.00000000
3318 13749.00000000 13750.00000000 13751.00000000
3319 13752.00000000 13753.00000000 13754.00000000
3320 13755.00000000 13756.00000000 13757.00000000
3321 13758.00000000 13759.00000000 13760.00000000
3322 13761.00000000 13762.00000000 13763.00000000
3323 13764.00000000 13765.00000000 13766.00000000
3324 13767.00000000 13768.00000000 13769.00000000
3325 13770.00000000 13771.00000000 13772.00000000
3326 13773.00000000 13774.00000000 13775.00000000
3327 13776.00000000 13777.00000000 13778.00000000
3328 13797.00000000 13798.00000000 13799.00000000
3329 13800.00000000 13801.00000000 13802.00000000
3330 13803.00000000 13804.00000000 13805.00000000
3331 13824.00000000 13825.00000000 13826.00000000
3332 13827.00000000 13828.00000000 13829.00000000
3333 13830.00000000 13831.00000000 13832.00000000
3334 13833.00000000 13834.00000000 13835.00000000
3335 13836.00000000 13837.00000000 13838.00000000
3336 13839.00000000 13840.00000000 13841.00000000
3337 13842.00000000 13843.00000000 13844.00000000
3338 13845.00000000 13846.00000000 13847.00000000
3339 13848.00000000 13849.00000000 13850.00000000
3340 13851.00000000 13852.00000000 13853.00000000
3341 13854.00000000 13855.00000000 13856.00000000
3342 13857.00000000 13858.00000000 13859.00000000
3343 13869.00000000 13870.00000000 13871.00000000
3344 13872.00000000 13873.00000000 13874.00000000
3345 13875.00000000 13876.00000000 13877.00000000
3346 13878.00000000 13879.00000000 13880.00000000
3347 13881.00000000 13882.00000000 13883.00000000
3348 13884.00000000 13885.00000000 13886.00000000
3349 13905.00000000 13906.00000000 13907.00000000
3350 13908.00000000 13909.00000000 13910.00000000
3351 13911.00000000 13912.00000000 13913.00000000
3352 13914.00000000 13915.00000000 13916.00000000
3353 13917.00000000 13918.00000000 13919.00000000
3354 13920.00000000 13921.00000000 13922.00000000
3355 13923.00000000 13924.00000000 13925.00000000
3356 13926.00000000 13927.00000000 13928.00000000
3357 13929.00000000 13930.00000000 13931.00000000
3358 13932.00000000 13933.00000000 13934.00000000
3359 13935.00000000 13936.00000000 13937.00000000
3360 13938.00000000 13939.00000000 13940.00000000
3361 13950.00000000 13951.00000000 13952.00000000
3362 13953.00000000 13954.00000000 13955.00000000
3363 13956.00000000 13957.00000000 13958.00000000
3364 13959.00000000 13960.00000000 13961.00000000
3365 13962.00000000 13963.00000000 13964.00000000
3366 13965.00000000 13966.00000000 13967.00000000
3367 13986.00000000 13987.00000000 13988.00000000
3368 13989.00000000 13990.00000000 13991.00000000
3369 13992.00000000 13993.00000000 13994.00000000
3370 13995.00000000 13996.00000000 13997.00000000
3371 13998.00000000 13999.00000000 14000.00000000
3372 14001.00000000 14002.00000000 14003.00000000
3373 14004.00000000 14005.00000000 14006.00000000
3374 14007.00000000 14008.00000000 14009.00000000
3375 14010.00000000 14011.00000000 14012.00000000
3376 14013.00000000 14014.00000000 14015.00000000
3377 14016.00000000 14017.00000000 14018.00000000
3378 14019.00000000 14020.00000000 14021.00000000
3379 14031.00000000 14032.00000000 14033.00000000
3380 14034.00000000 14035.00000000 14036.00000000
3381 14037.00000000 14038.00000000 14039.00000000
3382 14040.00000000 14041.00000000 14042.00000000
3383 14043.00000000 14044.00000000 14045.00000000
3384 14046.00000000 14047.00000000 14048.00000000
3385 14067.00000000 14068.00000000 14069.00000000
3386 14070.00000000 14071.00000000 14072.00000000
3387 14073.00000000 14074.00000000 14075.00000000
3388 14076.00000000 14077.00000000 14078.00000000
3389 14079.00000000 14080.00000000 14081.00000000
3390 14082.00000000 14083.00000000 14084.00000000
3391 14085.00000000 14086.00000000 14087.00000000
3392 14088.00000000 14089.00000000 14090.00000000
3393 14091.00000000 14092.00000000 14093.00000000
3394 14094.00000000 14095.00000000 14096.00000000
3395 14097.00000000 14098.00000000 14099.00000000
3396 14100.00000000 14101.00000000 14102.00000000
3397 14103.00000000 14104.00000000 14105.00000000
3398 14106.00000000 14107.00000000 14108.00000000
3399 14109.00000000 14110.00000000 14111.00000000
3400 14112.00000000 14113.00000000 14114.00000000
3401 14115.00000000 14116.00000000 14117.00000000
3402 14118.00000000 14119.00000000 14120.00000000
3403 14139.00000000 14140.00000000 14141.00000000
3404 14142.00000000 14143.00000000 14144.00000000
3405 14145.00000000 14146.00000000 14147.00000000
3406 14148.00000000 14149.00000000 14150.00000000
3407 14151.00000000 14152.00000000 14153.00000000
3408 14154.00000000 14155.00000000 14156.00000000
3409 14157.00000000 14158.00000000 14159.00000000
3410 14160.00000000 14161.00000000 14162.00000000
3411 14163.00000000 14164.00000000 14165.00000000
3412 14166.00000000 14167.00000000 14168.00000000
3413 14169.00000000 14170.00000000 14171.00000000
3414 14172.00000000 14173.00000000 14174.00000000
3415 14175.00000000 14176.00000000 14177.00000000
3416 14178.00000000 14179.00000000 14180.00000000
3417 14181.00000000 14182.00000000 14183.00000000
3418 14184.00000000 14185.00000000 14186.00000000
3419 14187.00000000 14188.00000000 14189.00000000
3420 14190.00000000 14191.00000000 14192.00000000
3421 14193.00000000 14194.00000000 14195.00000000
3422 14196.00000000 14197.00000000 14198.00000000
3423 14199.00000000 14200.00000000 14201.00000000
3424 14220.00000000 14221.00000000 14222.00000000
3425 14223.00000000 14224.00000000 14225.00000000
3426 14226.00000000 14227.00000000 14228.00000000
3427 14229.00000000 14230.00000000 14231.00000000
3428 14232.00000000 14233.00000000 14234.00000000
3429 14235.00000000 14236.00000000 14237.00000000
3430 14238.00000000 14239.00000000 14240.00000000
3431 14241.00000000 14242.00000000 14243.00000000
3432 14244.00000000 14245.00000000 14246.00000000
3433 14247.00000000 14248.00000000 14249.00000000
3434 14250.00000000 14251.00000000 14252.00000000
3435 14253.00000000 14254.00000000 14255.00000000
3436 14256.00000000 14257.00000000 14258.00000000
3437 14259.00000000 14260.00000000 14261.00000000
3438 14262.00000000 14263.00000000 14264.00000000
3439 14265.00000000 14266.00000000 14267.00000000
3440 14268.00000000 14269.00000000 14270.00000000
3441 14271.00000000 14272.00000000 14273.00000000
3442 14274.00000000 14275.00000000 14276.00000000
3443 14277.00000000 14278.00000000 14279.00000000
3444 14280.00000000 14281.00000000 14282.00000000
3445 14301.00000000 14302.00000000 14303.00000000
3446 14304.00000000 14305.00000000 14306.00000000
3447 14307.00000000 14308.00000000 14309.00000000
3448 14310.00000000 14311.00000000 14312.00000000
3449 14313.00000000 14314.00000000 14315.00000000
3450 14316.00000000 14317.00000000 14318.00000000
3451 14319.00000000 14320.00000000 14321.00000000
3452 14322.00000000 14323.00000000 14324.00000000
3453 14325.00000000 14326.00000000 14327.00000000
3454 14328.00000000 14329.00000000 14330.00000000
3455 14331.00000000 14332.00000000 14333.00000000
3456 14334.00000000 14335.00000000 14336.00000000
3457 14337.00000000 14338.00000000 14339.00000000
3458 14340.00000000 14341.00000000 14342.00000000
3459 14343.00000000 14344.00000000 14345.00000000
3460 14346.00000000 14347.00000000 14348.00000000
3461 14349.00000000 14350.00000000 14351.00000000
3462 14352.00000000 14353.00000000 14354.00000000
3463 14355.00000000 14356.00000000 14357.00000000
3464 14358.00000000 14359.00000000 14360.00000000
3465 14361.00000000 14362.00000000 14363.00000000
3466 14382.00000000 14383.00000000 14384.00000000
3467 14385.00000000 14386.00000000 14387.00000000
3468 14388.00000000 14389.00000000 14390.00000000
3469 14391.00000000 14392.00000000 14393.00000000
3470 14394.00000000 14395.00000000 14396.00000000
3471 14397.00000000 14398.00000000 14399.00000000
3472 14400.00000000 14401.00000000 14402.00000000
3473 14403.00000000 14404.00000000 14405.00000000
3474 14406.00000000 14407.00000000 14408.00000000
3475 14409.00000000 14410.00000000 14411.00000000
3476 14412.00000000 14413.00000000 14414.00000000
3477 14415.00000000 14416.00000000 14417.00000000
3478 14418.00000000 14419.00000000 14420.00000000
3479 14421.00000000 14422.00000000 14423.00000000
3480 14424.00000000 14425.00000000 14426.00000000
3481 14427.00000000 14428.00000000 14429.00000000
3482 14430.00000000 14431.00000000 14432.00000000
3483 14433.00000000 14434.00000000 14435.00000000
3484 14436.00000000 14437.00000000 14438.00000000
3485 14439.00000000 14440.00000000 14441.00000000
3486 14442.00000000 14443.00000000 14444.00000000
3487 14463.00000000 14464.00000000 14465.00000000
3488 14466.00000000 14467.00000000 14468.00000000
3489 14469.00000000 14470.00000000 14471.00000000
3490 14472.00000000 14473.00000000 14474.00000000
3491 14475.00000000 14476.00000000 14477.00000000
3492 14478.00000000 14479.00000000 14480.00000000
3493 14481.00000000 14482.00000000 14483.00000000
3494 14484.00000000 14485.00000000 14486.00000000
3495 14487.00000000 14488.00000000 14489.00000000
3496 14490.00000000 14491.00000000 14492.00000000
3497 14493.00000000 14494.00000000 14495.00000000
3498 14496.00000000 14497.00000000 14498.00000000
3499 14499.00000000 14500.00000000 14501.00000000
3500 14502.00000000 14503.00000000 14504.00000000
3501 14505.00000000 14506.00000000 14507.00000000
3502 14508.00000000 14509.00000000 14510.00000000
3503 14511.00000000 14512.00000000 14513.00000000
3504 14514.00000000 14515.00000000 14516.00000000
3505 14517.00000000 14518.00000000 14519.00000000
3506 14520.00000000 14521.00000000 14522.00000000
3507 14523.00000000 14524.00000000 14525.00000000
3508 14544.00000000 14545.00000000 14546.00000000
3509 14547.00000000 14548.00000000 14549.00000000
3510 14550.00000000 14551.00000000 14552.00000000
3511 14553.00000000 14554.00000000 14555.00000000
3512 14556.00000000 14557.00000000 14558.00000000
3513 14559.00000000 14560.00000000 14561.00000000
3514 14562.00000000 14563.00000000 14564.00000000
3515 14565.00000000 14566.00000000 14567.00000000
3516 14568.00000000 14569.00000000 14570.00000000
3517 14571.00000000 14572.00000000 14573.00000000
3518 14574.00000000 14575.00000000 14576.00000000
3519 14577.00000000 14578.00000000 14579.00000000
3520 14580.00000000 14581.00000000 14582.00000000
3521 14583.00000000 14584.00000000 14585.00000000
3522 14586.00000000 14587.00000000 14588.00000000
3523 14598.00000000 14599.00000000 14600.00000000
3524 14601.00000000 14602.00000000 14603.00000000
3525 14604.00000000 14605.00000000 14606.00000000
3526 14607.00000000 14608.00000000 14609.00000000
3527 14610.00000000 14611.00000000 14612.00000000
3528 14613.00000000 14614.00000000 14615.00000000
3529 14634.00000000 14635.00000000 14636.00000000
3530 14637.00000000 14638.00000000 14639.00000000
3531 14640.00000000 14641.00000000 14642.00000000
3532 14643.00000000 14644.00000000 14645.00000000
3533 14646.00000000 14647.00000000 14648.00000000
3534 14649.00000000 14650.00000000 14651.00000000
3535 14652.00000000 14653.00000000 14654.00000000
3536 14655.00000000 14656.00000000 14657.00000000
3537 14658.00000000 14659.00000000 14660.00000000
3538 14661.00000000 14662.00000000 14663.00000000
3539 14664.00000000 14665.00000000 14666.00000000
3540 14667.00000000 14668.00000000 14669.00000000
3541 14679.00000000 14680.00000000 14681.00000000
3542 14682.00000000 14683.00000000 14684.00000000
3543 14685.00000000 14686.00000000 14687.00000000
3544 14688.00000000 14689.00000000 14690.00000000
3545 14691.00000000 14692.00000000 14693.00000000
3546 14694.00000000 14695.00000000 14696.00000000
3547 14715.00000000 14716.00000000 14717.00000000
3548 14718.00000000 14719.00000000 14720.00000000
3549 14721.00000000 14722.00000000 14723.00000000
3550 14724.00000000 14725.00000000 14726.00000000
3551 14727.00000000 14728.00000000 14729.00000000
3552 14730.00000000 14731.00000000 14732.00000000
3553 14733.00000000 14734.00000000 14735.00000000
3554 14736.00000000 14737.00000000 14738.00000000
3555 14739.00000000 14740.00000000 14741.00000000
3556 14742.00000000 14743.00000000 14744.00000000
3557 14745.00000000 14746.00000000 14747.00000000
3558 14748.00000000 14749.00000000 14750.00000000
3559 14760.00000000 14761.00000000 14762.00000000
3560 14763.00000000 14764.00000000 14765.00000000
3561 14766.00000000 14767.00000000 14768.00000000
3562 14769.00000000 14770.00000000 14771.00000000
3563 14772.00000000 14773.00000000 14774.00000000
3564 14775.00000000 14776.00000000 14777.00000000
3565 14796.00000000 14797.00000000 14798.00000000
3566 14799.00000000 14800.00000000 14801.00000000
3567 14802.00000000 14803.00000000 14804.00000000
3568 14805.00000000 14806.00000000 14807.00000000
3569 14808.00000000 14809.00000000 14810.00000000
3570 14811.00000000 14812.00000000 14813.00000000
3571 14814.00000000 14815.00000000 14816.00000000
3572 14817.00000000 14818.00000000 14819.00000000
3573 14820.00000000 14821.00000000 14822.00000000
3574 14823.00000000 14824.00000000 14825.00000000
3575 14826.00000000 14827.00000000 14828.00000000
3576 14829.00000000 14830.00000000 14831.00000000
3577 14841.00000000 14842.00000000 14843.00000000
3578 14844.00000000 14845.00000000 14846.00000000
3579 14847.00000000 14848.00000000 14849.00000000
3580 14868.00000000 14869.00000000 14870.00000000
3581 14871.00000000 14872.00000000 14873.00000000
3582 14874.00000000 14875.00000000 14876.00000000
3583 14877.00000000 14878.00000000 14879.00000000
3584 14880.00000000 14881.00000000 14882.00000000
3585 14883.00000000 14884.00000000 14885.00000000
3586 14886.00000000 14887.00000000 14888.00000000
3587 14889.00000000 14890.00000000 14891.00000000
3588 14892.00000000 14893.00000000 14894.00000000
3589 14895.00000000 14896.00000000 14897.00000000
3590 14898.00000000 14899.00000000 14900.00000000
3591 14901.00000000 14902.00000000 14903.00000000
3592 14904.00000000 14905.00000000 14906.00000000
3593 14907.00000000 14908.00000000 14909.00000000
3594 14910.00000000 14911.00000000 14912.00000000
3595 14922.00000000 14923.00000000 14924.00000000
3596 14925.00000000 14926.00000000 14927.00000000
3597 14928.00000000 14929.00000000 14930.00000000
3598 14949.00000000 14950.00000000 14951.00000000
3599 14952.00000000 14953.00000000 14954.00000000
3600 14955.00000000 14956.00000000 14957.00000000
3601 14958.00000000 14959.00000000 14960.00000000
3602 14961.00000000 14962.00000000 14963.00000000
3603 14964.00000000 14965.00000000 14966.00000000
3604 14967.00000000 14968.00000000 14969.00000000
3605 14970.00000000 14971.00000000 14972.00000000
3606 14973.00000000 14974.00000000 14975.00000000
3607 14976.00000000 14977.00000000 14978.00000000
3608 14979.00000000 14980.00000000 14981.00000000
3609 14982.00000000 14983.00000000 14984.00000000
3610 14985.00000000 14986.00000000 14987.00000000
3611 14988.00000000 14989.00000000 14990.00000000
3612 14991.00000000 14992.00000000 14993.00000000
3613 15003.00000000 15004.00000000 15005.00000000
3614 15006.00000000 15007.00000000 15008.00000000
3615 15009.00000000 15010.00000000 15011.00000000
3616 15030.00000000 15031.00000000 15032.00000000
3617 15033.00000000 15034.00000000 15035.00000000
3618 15036.00000000 15037.00000000 15038.00000000
3619 15039.00000000 15040.00000000 15041.00000000
3620 15042.00000000 15043.00000000 15044.00000000
3621 15045.00000000 15046.00000000 15047.00000000
3622 15048.00000000 15049.00000000 15050.00000000
3623 15051.00000000 15052.00000000 15053.00000000
3624 15054.00000000 15055.00000000 15056.00000000
3625 15057.00000000 15058.00000000 15059.00000000
3626 15060.00000000 15061.00000000 15062.00000000
3627 15063.00000000 15064.00000000 15065.00000000
3628 15066.00000000 15067.00000000 15068.00000000
3629 15069.00000000 15070.00000000 15071.00000000
3630 15072.00000000 15073.00000000 15074.00000000
3631 15084.00000000 15085.00000000 15086.00000000
3632 15087.00000000 15088.00000000 15089.00000000
3633 15090.00000000 15091.00000000 15092.00000000
3634 15111.00000000 15112.00000000 15113.00000000
3635 15114.00000000 15115.00000000 15116.00000000
3636 15117.00000000 15118.00000000 15119.00000000
3637 15120.00000000 15121.00000000 15122.00000000
3638 15123.00000000 15124.00000000 15125.00000000
3639 15126.00000000 15127.00000000 15128.00000000
3640 15129.00000000 15130.00000000 15131.00000000
3641 15132.00000000 15133.00000000 15134.00000000
3642 15135.00000000 15136.00000000 15137.00000000
3643 15138.00000000 15139.00000000 15140.00000000
3644 15141.00000000 15142.00000000 15143.00000000
3645 15144.00000000 15145.00000000 15146.00000000
3646 15147.00000000 15148.00000000 15149.00000000
3647 15150.00000000 15151.00000000 15152.00000000
3648 15153.00000000 15154.00000000 15155.00000000
3649 15165.00000000 15166.00000000 15167.00000000
3650 15168.00000000 15169.00000000 15170.00000000
3651 15171.00000000 15172.00000000 15173.00000000
3652 15192.00000000 15193.00000000 15194.00000000
3653 15195.00000000 15196.00000000 15197.00000000
3654 15198.00000000 15199.00000000 15200.00000000
3655 15201.00000000 15202.00000000 15203.00000000
3656 15204.00000000 15205.00000000 15206.00000000
3657 15207.00000000 15208.00000000 15209.00000000
3658 15210.00000000 15211.00000000 15212.00000000
3659 15213.00000000 15214.00000000 15215.00000000
3660 15216.00000000 15217.00000000 15218.00000000
3661 15219.00000000 15220.00000000 15221.00000000
3662 15222.00000000 15223.00000000 15224.00000000
3663 15225.00000000 15226.00000000 15227.00000000
3664 15228.00000000 15229.00000000 15230.00000000
3665 15231.00000000 15232.00000000 15233.00000000
3666 15234.00000000 15235.00000000 15236.00000000
3667 15246.00000000 15247.00000000 15248.00000000
3668 15249.00000000 15250.00000000 15251.00000000
3669 15252.00000000 15253.00000000 15254.00000000
3670 15273.00000000 15274.00000000 15275.00000000
3671 15276.00000000 15277.00000000 15278.00000000
3672 15279.00000000 15280.00000000 15281.00000000
3673 15282.00000000 15283.00000000 15284.00000000
3674 15285.00000000 15286.00000000 15287.00000000
3675 15288.00000000 15289.00000000 15290.00000000
3676 15291.00000000 15292.00000000 15293.00000000
3677 15294.00000000 15295.00000000 15296.00000000
3678 15297.00000000 15298.00000000 15299.00000000
3679 15300.00000000 15301.00000000 15302.00000000
3680 15303.00000000 15304.00000000 15305.00000000
3681 15306.00000000 15307.00000000 15308.00000000
3682 15327.00000000 15328.00000000 15329.00000000
3683 15330.00000000 15331.00000000 15332.00000000
3684 15333.00000000 15334.00000000 15335.00000000
3685 15354.00000000 15355.00000000 15356.00000000
3686 15357.00000000 15358.00000000 15359.00000000
3687 15360.00000000 15361.00000000 15362.00000000
3688 15363.00000000 15364.00000000 15365.00000000
3689 15366.00000000 15367.00000000 15368.00000000
3690 15369.00000000 15370.00000000 15371.00000000
3691 15372.00000000 15373.00000000 15374.00000000
3692 15375.00000000 15376.00000000 15377.00000000
3693 15378.00000000 15379.00000000 15380.00000000
3694 15381.00000000 15382.00000000 15383.00000000
3695 15384.00000000 15385.00000000 15386.00000000
3696 15387.00000000 15388.00000000 15389.00000000
3697 15408.00000000 15409.00000000 15410.00000000
3698 15411.00000000 15412.00000000 15413.00000000
3699 15414.00000000 15415.00000000 15416.00000000
3700 15435.00000000 15436.00000000 15437.00000000
3701 15438.00000000 15439.00000000 15440.00000000
3702 15441.00000000 15442.00000000 15443.00000000
3703 15444.00000000 15445.00000000 15446.00000000
3704 15447.00000000 15448.00000000 15449.00000000
3705 15450.00000000 15451.00000000 15452.00000000
3706 15453.00000000 15454.00000000 15455.00000000
3707 15456.00000000 15457.00000000 15458.00000000
3708 15459.00000000 15460.00000000 15461.00000000
3709 15462.00000000 15463.00000000 15464.00000000
3710 15465.00000000 15466.00000000 15467.00000000
3711 15468.00000000 15469.00000000 15470.00000000
3712 15489.00000000 15490.00000000 15491.00000000
3713 15492.00000000 15493.00000000 15494.00000000
3714 15495.00000000 15496.00000000 15497.00000000
3715 15516.00000000 15517.00000000 15518.00000000
3716 15519.00000000 15520.00000000 15521.00000000
3717 15522.00000000 15523.00000000 15524.00000000
3718 15525.00000000 15526.00000000 15527.00000000
3719 15528.00000000 15529.00000000 15530.00000000
3720 15531.00000000 15532.00000000 15533.00000000
3721 15534.00000000 15535.00000000 15536.00000000
3722 15537.00000000 15538.00000000 15539.00000000
3723 15540.00000000 15541.00000000 15542.00000000
3724 15543.00000000 15544.00000000 15545.00000000
3725 15546.00000000 15547.00000000 15548.00000000
3726 15549.00000000 15550.00000000 15551.00000000
3727 15552.00000000 15553.00000000 15554.00000000
3728 15555.00000000 15556.00000000 15557.00000000
3729 15558.00000000 15559.00000000 15560.00000000
3730 15561.00000000 15562.00000000 15563.00000000
3731 15564.00000000 15565.00000000 15566.00000000
3732 15567.00000000 15568.00000000 15569.00000000
3733 15570.00000000 15571.00000000 15572.00000000
3734 15573.00000000 15574.00000000 15575.00000000
3735 15576.00000000 15577.00000000 15578.00000000
3736 15579.00000000 15580.00000000 15581.00000000
3737 15582.00000000 15583.00000000 15584.00000000
3738 15585.00000000 15586.00000000 15587.00000000
3739 15606.00000000 15607.00000000 15608.00000000
3740 15609.00000000 15610.00000000 15611.00000000
3741 15612.00000000 15613.00000000 15614.00000000
3742 15633.00000000 15634.00000000 15635.00000000
3743 15636.00000000 15637.00000000 15638.00000000
3744 15639.00000000 15640.00000000 15641.00000000
3745 15642.00000000 15643.00000000 15644.00000000
3746 15645.00000000 15646.00000000 15647.00000000
3747 15648.00000000 15649.00000000 15650.00000000
3748 15651.00000000 15652.00000000 15653.00000000
3749 15654.00000000 15655.00000000 15656.00000000
3750 15657.00000000 15658.00000000 15659.00000000
3751 15660.00000000 15661.00000000 15662.00000000
3752 15663.00000000 15664.00000000 15665.00000000
3753 15666.00000000 15667.00000000 15668.00000000
3754 15687.00000000 15688.00000000 15689.00000000
3755 15690.00000000 15691.00000000 15692.00000000
3756 15693.00000000 15694.00000000 15695.00000000
3757 15714.00000000 15715.00000000 15716.00000000
3758 15717.00000000 15718.00000000 15719.00000000
3759 15720.00000000 15721.00000000 15722.00000000
3760 15723.00000000 15724.00000000 15725.00000000
3761 15726.00000000 15727.00000000 15728.00000000
3762 15729.00000000 15730.00000000 15731.00000000
3763 15732.00000000 15733.00000000 15734.00000000
3764 15735.00000000 15736.00000000 15737.00000000
3765 15738.00000000 15739.00000000 15740.00000000
3766 15741.00000000 15742.00000000 15743.00000000
3767 15744.00000000 15745.00000000 15746.00000000
3768 15747.00000000 15748.00000000 15749.00000000
3769 15768.00000000 15769.00000000 15770.00000000
3770 15771.00000000 15772.00000000 15773.00000000
3771 15774.00000000 15775.00000000 15776.00000000
3772 15795.00000000 15796.00000000 15797.00000000
3773 15798.00000000 15799.00000000 15800.00000000
3774 15801.00000000 15802.00000000 15803.00000000
3775 15804.00000000 15805.00000000 15806.00000000
3776 15807.00000000 15808.00000000 15809.00000000
3777 15810.00000000 15811.00000000 15812.00000000
3778 15813.00000000 15814.00000000 15815.00000000
3779 15816.00000000 15817.00000000 15818.00000000
3780 15819.00000000 15820.00000000 15821.00000000
3781 15822.00000000 15823.00000000 15824.00000000
3782 15825.00000000 15826.00000000 15827.00000000
3783 15828.00000000 15829.00000000 15830.00000000
3784 15849.00000000 15850.00000000 15851.00000000
3785 15852.00000000 15853.00000000 15854.00000000
3786 15855.00000000 15856.00000000 15857.00000000
3787 15858.00000000 15859.00000000 15860.00000000
3788 15861.00000000 15862.00000000 15863.00000000
3789 15864.00000000 15865.00000000 15866.00000000
3790 15867.00000000 15868.00000000 15869.00000000
3791 15870.00000000 15871.00000000 15872.00000000
3792 15873.00000000 15874.00000000 15875.00000000
3793 15876.00000000 15877.00000000 15878.00000000
3794 15879.00000000 15880.00000000 15881.00000000
3795 15882.00000000 15883.00000000 15884.00000000
3796 15885.00000000 15886.00000000 15887.00000000
3797 15888.00000000 15889.00000000 15890.00000000
3798 15891.00000000 15892.00000000 15893.00000000
3799 15894.00000000 15895.00000000 15896.00000000
3800 15897.00000000 15898.00000000 15899.00000000
3801 15900.00000000 15901.00000000 15902.00000000
3802 15903.00000000 15904.00000000 15905.00000000
3803 15906.00000000 15907.00000000 15908.00000000
3804 15909.00000000 15910.00000000 15911.00000000
3805 15930.00000000 15931.00000000 15932.00000000
3806 15933.00000000 15934.00000000 15935.00000000
3807 15936.00000000 15937.00000000 15938.00000000
3808 15939.00000000 15940.00000000 15941.00000000
3809 15942.00000000 15943.00000000 15944.00000000
3810 15945.00000000 15946.00000000 15947.00000000
3811 15948.00000000 15949.00000000 15950.00000000
3812 15951.00000000 15952.00000000 15953.00000000
3813 15954.00000000 15955.00000000 15956.00000000
3814 15957.00000000 15958.00000000 15959.00000000
3815 15960.00000000 15961.00000000 15962.00000000
3816 15963.00000000 15964.00000000 15965.00000000
3817 15966.00000000 15967.00000000 15968.00000000
3818 15969.00000000 15970.00000000 15971.00000000
3819 15972.00000000 15973.00000000 15974.00000000
3820 15975.00000000 15976.00000000 15977.00000000
3821 15978.00000000 15979.00000000 15980.00000000
3822 15981.00000000 15982.00000000 15983.00000000
3823 15984.00000000 15985.00000000 15986.00000000
3824 15987.00000000 15988.00000000 15989.00000000
3825 15990.00000000 15991.00000000 15992.00000000
3826 16011.00000000 16012.00000000 16013.00000000
3827 16014.00000000 16015.00000000 16016.00000000
3828 16017.00000000 16018.00000000 16019.00000000
3829 16020.00000000 16021.00000000 16022.00000000
3830 16023.00000000 16024.00000000 16025.00000000
3831 16026.00000000 16027.00000000 16028.00000000
3832 16029.00000000 16030.00000000 16031.00000000
3833 16032.00000000 16033.00000000 16034.00000000
3834 16035.00000000 16036.00000000 16037.00000000
3835 16038.00000000 16039.00000000 16040.00000000
3836 16041.00000000 16042.00000000 16043.00000000
3837 16044.00000000 16045.00000000 16046.00000000
3838 16047.00000000 16048.00000000 16049.00000000
3839 16050.00000000 16051.00000000 16052.00000000
3840 16053.00000000 16054.00000000 16055.00000000
3841 16056.00000000 16057.00000000 16058.00000000
3842 16059.00000000 16060.00000000 16061.00000000
3843 16062.00000000 16063.00000000 16064.00000000
3844 16065.00000000 16066.00000000 16067.00000000
3845 16068.00000000 16069.00000000 16070.00000000
3846 16071.00000000 16072.00000000 16073.00000000
3847 16092.00000000 16093.00000000 16094.00000000
3848 16095.00000000 16096.00000000 16097.00000000
3849 16098.00000000 16099.00000000 16100.00000000
3850 16110.00000000 16111.00000000 16112.00000000
3851 16113.00000000 16114.00000000 16115.00000000
3852 16116.00000000 16117.00000000 16118.00000000
3853 16119.00000000 16120.00000000 16121.00000000
3854 16122.00000000 16123.00000000 16124.00000000
3855 16125.00000000 16126.00000000 16127.00000000
3856 16128.00000000 16129.00000000 16130.00000000
3857 16131.00000000 16132.00000000 16133.00000000
3858 16134.00000000 16135.00000000 16136.00000000
3859 16137.00000000 16138.00000000 16139.00000000
3860 16140.00000000 16141.00000000 16142.00000000
3861 16143.00000000 16144.00000000 16145.00000000
3862 16146.00000000 16147.00000000 16148.00000000
3863 16149.00000000 16150.00000000 16151.00000000
3864 16152.00000000 16153.00000000 16154.00000000
3865 16173.00000000 16174.00000000 16175.00000000
3866 16176.00000000 16177.00000000 16178.00000000
3867 16179.00000000 16180.00000000 16181.00000000
3868 16191.00000000 16192.00000000 16193.00000000
3869 16194.00000000 16195.00000000 16196.00000000
3870 16197.00000000 16198.00000000 16199.00000000
3871 16200.00000000 16201.00000000 16202.00000000
3872 16203.00000000 16204.00000000 16205.00000000
3873 16206.00000000 16207.00000000 16208.00000000
3874 16209.00000000 16210.00000000 16211.00000000
3875 16212.00000000 16213.00000000 16214.00000000
3876 16215.00000000 16216.00000000 16217.00000000
3877 16218.00000000 16219.00000000 16220.00000000
3878 16221.00000000 16222.00000000 16223.00000000
3879 16224.00000000 16225.00000000 16226.00000000
3880 16227.00000000 16228.00000000 16229.00000000
3881 16230.00000000 16231.00000000 16232.00000000
3882 16233.00000000 16234.00000000 16235.00000000
3883 16254.00000000 16255.00000000 16256.00000000
3884 16257.00000000 16258.00000000 16259.00000000
3885 16260.00000000 16261.00000000 16262.00000000
3886 16272.00000000 16273.00000000 16274.00000000
3887 16275.00000000 16276.00000000 16277.00000000
3888 16278.00000000 16279.00000000 16280.00000000
3889 16281.00000000 16282.00000000 16283.00000000
3890 16284.00000000 16285.00000000 16286.00000000
3891 16287.00000000 16288.00000000 16289.00000000
3892 16290.00000000 16291.00000000 16292.00000000
3893 16293.00000000 16294.00000000 16295.00000000
3894 16296.00000000 16297.00000000 16298.00000000
3895 16299.00000000 16300.00000000 16301.00000000
3896 16302.00000000 16303.00000000 16304.00000000
3897 16305.00000000 16306.00000000 16307.00000000
3898 16308.00000000 16309.00000000 16310.00000000
3899 16311.00000000 16312.00000000 16313.00000000
3900 16314.00000000 16315.00000000 16316.00000000
3901 16326.00000000 16327.00000000 16328.00000000
3902 16329.00000000 16330.00000000 16331.00000000
3903 16332.00000000 16333.00000000 16334.00000000
3904 16335.00000000 16336.00000000 16337.00000000
3905 16338.00000000 16339.00000000 16340.00000000
3906 16341.00000000 16342.00000000 16343.00000000
3907 16353.00000000 16354.00000000 16355.00000000
3908 16356.00000000 16357.00000000 16358.00000000
3909 16359.00000000 16360.00000000 16361.00000000
3910 16362.00000000 16363.00000000 16364.00000000
3911 16365.00000000 16366.00000000 16367.00000000
3912 16368.00000000 16369.00000000 16370.00000000
3913 16371.00000000 16372.00000000 16373.00000000
3914 16374.00000000 16375.00000000 16376.00000000
3915 16377.00000000 16378.00000000 16379.00000000
3916 16380.00000000 16381.00000000 16382.00000000
3917 16383.00000000 16384.00000000 16385.00000000
3918 16386.00000000 16387.00000000 16388.00000000
3919 16389.00000000 16390.00000000 16391.00000000
3920 16392.00000000 16393.00000000 16394.00000000
3921 16395.00000000 16396.00000000 16397.00000000
3922 16407.00000000 16408.00000000 16409.00000000
3923 16410.00000000 16411.00000000 16412.00000000
3924 16413.00000000 16414.00000000 16415.00000000
3925 16416.00000000 16417.00000000 16418.00000000
3926 16419.00000000 16420.00000000 16421.00000000
3927 16422.00000000 16423.00000000 16424.00000000
3928 16434.00000000 16435.00000000 16436.00000000
3929 16437.00000000 16438.00000000 16439.00000000
3930 16440.00000000 16441.00000000 16442.00000000
3931 16443.00000000 16444.00000000 16445.00000000
3932 16446.00000000 16447.00000000 16448.00000000
3933 16449.00000000 16450.00000000 16451.00000000
3934 16452.00000000 16453.00000000 16454.00000000
3935 16455.00000000 16456.00000000 16457.00000000
3936 16458.00000000 16459.00000000 16460.00000000
3937 16461.00000000 16462.00000000 16463.00000000
3938 16464.00000000 16465.00000000 16466.00000000
3939 16467.00000000 16468.00000000 16469.00000000
3940 16470.00000000 16471.00000000 16472.00000000
3941 16473.00000000 16474.00000000 16475.00000000
3942 16476.00000000 16477.00000000 16478.00000000
3943 16488.00000000 16489.00000000 16490.00000000
3944 16491.00000000 16492.00000000 16493.00000000
3945 16494.00000000 16495.00000000 16496.00000000
3946 16497.00000000 16498.00000000 16499.00000000
3947 16500.00000000 16501.00000000 16502.00000000
3948 16503.00000000 16504.00000000 16505.00000000
3949 16515.00000000 16516.00000000 16517.00000000
3950 16518.00000000 16519.00000000 16520.00000000
3951 16521.00000000 16522.00000000 16523.00000000
3952 16524.00000000 16525.00000000 16526.00000000
3953 16527.00000000 16528.00000000 16529.00000000
3954 16530.00000000 16531.00000000 16532.00000000
3955 16533.00000000 16534.00000000 16535.00000000
3956 16536.00000000 16537.00000000 16538.00000000
3957 16539.00000000 16540.00000000 16541.00000000
3958 16542.00000000 16543.00000000 16544.00000000
3959 16545.00000000 16546.00000000 16547.00000000
3960 16548.00000000 16549.00000000 16550.00000000
3961 16551.00000000 16552.00000000 16553.00000000
3962 16554.00000000 16555.00000000 16556.00000000
3963 16557.00000000 16558.00000000 16559.00000000
3964 16578.00000000 16579.00000000 16580.00000000
3965 16581.00000000 16582.00000000 16583.00000000
3966 16584.00000000 16585.00000000 16586.00000000
3967 16587.00000000 16588.00000000 16589.00000000
3968 16590.00000000 16591.00000000 16592.00000000
3969 16593.00000000 16594.00000000 16595.00000000
3970 16596.00000000 16597.00000000 16598.00000000
3971 16599.00000000 16600.00000000 16601.00000000
3972 16602.00000000 16603.00000000 16604.00000000
3973 16605.00000000 16606.00000000 16607.00000000
3974 16608.00000000 16609.00000000 16610.00000000
3975 16611.00000000 16612.00000000 16613.00000000
3976 16614.00000000 16615.00000000 16616.00000000
3977 16617.00000000 16618.00000000 16619.00000000
3978 16620.00000000 16621.00000000 16622.00000000
3979 16623.00000000 16624.00000000 16625.00000000
3980 16626.00000000 16627.00000000 16628.00000000
3981 16629.00000000 16630.00000000 16631.00000000
3982 16632.00000000 16633.00000000 16634.00000000
3983 16635.00000000 16636.00000000 16637.00000000
3984 16638.00000000 16639.00000000 16640.00000000
3985 16659.00000000 16660.00000000 16661.00000000
3986 16662.00000000 16663.00000000 16664.00000000
3987 16665.00000000 16666.00000000 16667.00000000
3988 16668.00000000 16669.00000000 16670.00000000
3989 16671.00000000 16672.00000000 16673.00000000
3990 16674.00000000 16675.00000000 16676.00000000
3991 16677.00000000 16678.00000000 16679.00000000
3992 16680.00000000 16681.00000000 16682.00000000
3993 16683.00000000 16684.00000000 16685.00000000
3994 16686.00000000 16687.00000000 16688.00000000
3995 16689.00000000 16690.00000000 16691.00000000
3996 16692.00000000 16693.00000000 16694.00000000
3997 16695.00000000 16696.00000000 16697.00000000
3998 16698.00000000 16699.00000000 16700.00000000
3999 16701.00000000 16702.00000000 16703.00000000
4000 16704.00000000 16705.00000000 16706.00000000
4001 16707.00000000 16708.00000000 16709.00000000
4002 16710.00000000 16711.00000000 16712.00000000
4003 16713.00000000 16714.00000000 16715.00000000
4004 16716.00000000 16717.00000000 16718.00000000
4005 16719.00000000 16720.00000000 16721.00000000
4006 16740.00000000 16741.00000000 16742.00000000
4007 16743.00000000 16744.00000000 16745.00000000
4008 16746.00000000 16747.00000000 16748.00000000
4009 16749.00000000 16750.00000000 16751.00000000
4010 16752.00000000 16753.00000000 16754.00000000
4011 16755.00000000 16756.00000000 16757.00000000
4012 16758.00000000 16759.00000000 16760.00000000
4013 16761.00000000 16762.00000000 16763.00000000
4014 16764.00000000 16765.00000000 16766.00000000
4015 16767.00000000 16768.00000000 16769.00000000
4016 16770.00000000 16771.00000000 16772.00000000
4017 16773.00000000 16774.00000000 16775.00000000
4018 16776.00000000 16777.00000000 16778.00000000
4019 16779.00000000 16780.00000000 16781.00000000
4020 16782.00000000 16783.00000000 16784.00000000
4021 16785.00000000 16786.00000000 16787.00000000
4022 16788.00000000 16789.00000000 16790.00000000
4023 16791.00000000 16792.00000000 16793.00000000
4024 16794.00000000 16795.00000000 16796.00000000
4025 16797.00000000 16798.00000000 16799.00000000
4026 16800.00000000 16801.00000000 16802.00000000
4027 16821.00000000 16822.00000000 16823.00000000
4028 16824.00000000 16825.00000000 16826.00000000
4029 16827.00000000 16828.00000000 16829.00000000
4030 16830.00000000 16831.00000000 16832.00000000
4031 16833.00000000 16834.00000000 16835.00000000
4032 16836.00000000 16837.00000000 16838.00000000
4033 16839.00000000 16840.00000000 16841.00000000
4034 16842.00000000 16843.00000000 16844.00000000
4035 16845.00000000 16846.00000000 16847.00000000
4036 16848.00000000 16849.00000000 16850.00000000
4037 16851.00000000 16852.00000000 16853.00000000
4038 16854.00000000 16855.00000000 16856.00000000
4039 16857.00000000 16858.00000000 16859.00000000
4040 16860.00000000 16861.00000000 16862.00000000
4041 16863.00000000 16864.00000000 16865.00000000
4042 16866.00000000 16867.00000000 16868.00000000
4043 16869.00000000 16870.00000000 16871.00000000
4044 16872.00000000 16873.00000000 16874.00000000
4045 16875.00000000 16876.00000000 16877.00000000
4046 16878.00000000 16879.00000000 16880.00000000
4047 16881.00000000 16882.00000000 16883.00000000
4048 16902.00000000 16903.00000000 16904.00000000
4049 16905.00000000 16906.00000000 16907.00000000
4050 16908.00000000 16909.00000000 16910.00000000
4051 16911.00000000 16912.00000000 16913.00000000
4052 16914.00000000 16915.00000000 16916.00000000
4053 16917.00000000 16918.00000000 16919.00000000
4054 16920.00000000 16921.00000000 16922.00000000
4055 16923.00000000 16924.00000000 16925.00000000
4056 16926.00000000 16927.00000000 16928.00000000
4057 16929.00000000 16930.00000000 16931.00000000
4058 16932.00000000 16933.00000000 16934.00000000
4059 16935.00000000 16936.00000000 16937.00000000
4060 16938.00000000 16939.00000000 16940.00000000
4061 16941.00000000 16942.00000000 16943.00000000
4062 16944.00000000 16945.00000000 16946.00000000
4063 16947.00000000 16948.00000000 16949.00000000
4064 16950.00000000 16951.00000000 16952.00000000
4065 16953.00000000 16954.00000000 16955.00000000
4066 16956.00000000 16957.00000000 16958.00000000
4067 16959.00000000 16960.00000000 16961.00000000
4068 16962.00000000 16963.00000000 16964.00000000
4069 16983.00000000 16984.00000000 16985.00000000
4070 16986.00000000 16987.00000000 16988.00000000
4071 16989.00000000 16990.00000000 16991.00000000
4072 16992.00000000 16993.00000000 16994.00000000
4073 16995.00000000 16996.00000000 16997.00000000
4074 16998.00000000 16999.00000000 17000.00000000
4075 17001.00000000 17002.00000000 17003.00000000
4076 17004.00000000 17005.00000000 17006.00000000
4077 17007.00000000 17008.00000000 17009.00000000
4078 17010.00000000 17011.00000000 17012.00000000
4079 17013.00000000 17014.00000000 17015.00000000
4080 17016.00000000 17017.00000000 17018.00000000
4081 17019.00000000 17020.00000000 17021.00000000
4082 17022.00000000 17023.00000000 17024.00000000
4083 17025.00000000 17026.00000000 17027.00000000
4084 17028.00000000 17029.00000000 17030.00000000
4085 17031.00000000 17032.00000000 17033.00000000
4086 17034.00000000 17035.00000000 17036.00000000
4087 17064.00000000 17065.00000000 17066.00000000
4088 17067.00000000 17068.00000000 17069.00000000
4089 17070.00000000 17071.00000000 17072.00000000
4090 17082.00000000 17083.00000000 17084.00000000
4091 17085.00000000 17086.00000000 17087.00000000
4092 17088.00000000 17089.00000000 17090.00000000
4093 17091.00000000 17092.00000000 17093.00000000
4094 17094.00000000 17095.00000000 17096.00000000
4095 17097.00000000 17098.00000000 17099.00000000
4096 17100.00000000 17101.00000000 17102.00000000
4097 17103.00000000 17104.00000000 17105.00000000
4098 17106.00000000 17107.00000000 17108.00000000
4099 17109.00000000 17110.00000000 17111.00000000
4100 17112.00000000 17113.00000000 17114.00000000
4101 17115.00000000 17116.00000000 17117.00000000
4102 17145.00000000 17146.00000000 17147.00000000
4103 17148.00000000 17149.00000000 17150.00000000
4104 17151.00000000 17152.00000000 17153.00000000
4105 17163.00000000 17164.00000000 17165.00000000
4106 17166.00000000 17167.00000000 17168.00000000
4107 17169.00000000 17170.00000000 17171.00000000
4108 17172.00000000 17173.00000000 17174.00000000
4109 17175.00000000 17176.00000000 17177.00000000
4110 17178.00000000 17179.00000000 17180.00000000
4111 17181.00000000 17182.00000000 17183.00000000
4112 17184.00000000 17185.00000000 17186.00000000
4113 17187.00000000 17188.00000000 17189.00000000
4114 17190.00000000 17191.00000000 17192.00000000
4115 17193.00000000 17194.00000000 17195.00000000
4116 17196.00000000 17197.00000000 17198.00000000
4117 17226.00000000 17227.00000000 17228.00000000
4118 17229.00000000 17230.00000000 17231.00000000
4119 17232.00000000 17233.00000000 17234.00000000
4120 17244.00000000 17245.00000000 17246.00000000
4121 17247.00000000 17248.00000000 17249.00000000
4122 17250.00000000 17251.00000000 17252.00000000
4123 17253.00000000 17254.00000000 17255.00000000
4124 17256.00000000 17257.00000000 17258.00000000
4125 17259.00000000 17260.00000000 17261.00000000
4126 17262.00000000 17263.00000000 17264.00000000
4127 17265.00000000 17266.00000000 17267.00000000
4128 17268.00000000 17269.00000000 17270.00000000
4129 17271.00000000 17272.00000000 17273.00000000
4130 17274.00000000 17275.00000000 17276.00000000
4131 17277.00000000 17278.00000000 17279.00000000
4132 17298.00000000 17299.00000000 17300.00000000
4133 17301.00000000 17302.00000000 17303.00000000
4134 17304.00000000 17305.00000000 17306.00000000
4135 17307.00000000 17308.00000000 17309.00000000
4136 17310.00000000 17311.00000000 17312.00000000
4137 17313.00000000 17314.00000000 17315.00000000
4138 17325.00000000 17326.00000000 17327.00000000
4139 17328.00000000 17329.00000000 17330.00000000
4140 17331.00000000 17332.00000000 17333.00000000
4141 17334.00000000 17335.00000000 17336.00000000
4142 17337.00000000 17338.00000000 17339.00000000
4143 17340.00000000 17341.00000000 17342.00000000
4144 17343.00000000 17344.00000000 17345.00000000
4145 17346.00000000 17347.00000000 17348.00000000
4146 17349.00000000 17350.00000000 17351.00000000
4147 17352.00000000 17353.00000000 17354.00000000
4148 17355.00000000 17356.00000000 17357.00000000
4149 17358.00000000 17359.00000000 17360.00000000
4150 17379.00000000 17380.00000000 17381.00000000
4151 17382.00000000 17383.00000000 17384.00000000
4152 17385.00000000 17386.00000000 17387.00000000
4153 17388.00000000 17389.00000000 17390.00000000
4154 17391.00000000 17392.00000000 17393.00000000
4155 17394.00000000 17395.00000000 17396.00000000
4156 17406.00000000 17407.00000000 17408.00000000
4157 17409.00000000 17410.00000000 17411.00000000
4158 17412.00000000 17413.00000000 17414.00000000
4159 17415.00000000 17416.00000000 17417.00000000
4160 17418.00000000 17419.00000000 17420.00000000
4161 17421.00000000 17422.00000000 17423.00000000
4162 17424.00000000 17425.00000000 17426.00000000
4163 17427.00000000 17428.00000000 17429.00000000
4164 17430.00000000 17431.00000000 17432.00000000
4165 17433.00000000 17434.00000000 17435.00000000
4166 17436.00000000 17437.00000000 17438.00000000
4167 17439.00000000 17440.00000000 17441.00000000
4168 17460.00000000 17461.00000000 17462.00000000
4169 17463.00000000 17464.00000000 17465.00000000
4170 17466.00000000 17467.00000000 17468.00000000
4171 17469.00000000 17470.00000000 17471.00000000
4172 17472.00000000 17473.00000000 17474.00000000
4173 17475.00000000 17476.00000000 17477.00000000
4174 17487.00000000 17488.00000000 17489.00000000
4175 17490.00000000 17491.00000000 17492.00000000
4176 17493.00000000 17494.00000000 17495.00000000
4177 17496.00000000 17497.00000000 17498.00000000
4178 17499.00000000 17500.00000000 17501.00000000
4179 17502.00000000 17503.00000000 17504.00000000
4180 17523.00000000 17524.00000000 17525.00000000
4181 17526.00000000 17527.00000000 17528.00000000
4182 17529.00000000 17530.00000000 17531.00000000
4183 17550.00000000 17551.00000000 17552.00000000
4184 17553.00000000 17554.00000000 17555.00000000
4185 17556.00000000 17557.00000000 17558.00000000
4186 17559.00000000 17560.00000000 17561.00000000
4187 17562.00000000 17563.00000000 17564.00000000
4188 17565.00000000 17566.00000000 17567.00000000
4189 17568.00000000 17569.00000000 17570.00000000
4190 17571.00000000 17572.00000000 17573.00000000
4191 17574.00000000 17575.00000000 17576.00000000
4192 17577.00000000 17578.00000000 17579.00000000
4193 17580.00000000 17581.00000000 17582.00000000
4194 17583.00000000 17584.00000000 17585.00000000
4195 17604.00000000 17605.00000000 17606.00000000
4196 17607.00000000 17608.00000000 17609.00000000
4197 17610.00000000 17611.00000000 17612.00000000
4198 17631.00000000 17632.00000000 17633.00000000
4199 17634.00000000 17635.00000000 17636.00000000
4200 17637.00000000 17638.00000000 17639.00000000
4201 17640.00000000 17641.00000000 17642.00000000
4202 17643.00000000 17644.00000000 17645.00000000
4203 17646.00000000 17647.00000000 17648.00000000
4204 17649.00000000 17650.00000000 17651.00000000
4205 17652.00000000 17653.00000000 17654.00000000
4206 17655.00000000 17656.00000000 17657.00000000
4207 17658.00000000 17659.00000000 17660.00000000
4208 17661.00000000 17662.00000000 17663.00000000
4209 17664.00000000 17665.00000000 17666.00000000
4210 17685.00000000 17686.00000000 17687.00000000
4211 17688.00000000 17689.00000000 17690.00000000
4212 17691.00000000 17692.00000000 17693.00000000
4213 17712.00000000 17713.00000000 17714.00000000
4214 17715.00000000 17716.00000000 17717.00000000
4215 17718.00000000 17719.00000000 17720.00000000
4216 17721.00000000 17722.00000000 17723.00000000
4217 17724.00000000 17725.00000000 17726.00000000
4218 17727.00000000 17728.00000000 17729.00000000
4219 17730.00000000 17731.00000000 17732.00000000
4220 17733.00000000 17734.00000000 17735.00000000
4221 17736.00000000 17737.00000000 17738.00000000
4222 17739.00000000 17740.00000000 17741.00000000
4223 17742.00000000 17743.00000000 17744.00000000
4224 17745.00000000 17746.00000000 17747.00000000
4225 17757.00000000 17758.00000000 17759.00000000
4226 17760.00000000 17761.00000000 17762.00000000
4227 17763.00000000 17764.00000000 17765.00000000
4228 17766.00000000 17767.00000000 17768.00000000
4229 17769.00000000 17770.00000000 17771.00000000
4230 17772.00000000 17773.00000000 17774.00000000
4231 17793.00000000 17794.00000000 17795.00000000
4232 17796.00000000 17797.00000000 17798.00000000
4233 17799.00000000 17800.00000000 17801.00000000
4234 17802.00000000 17803.00000000 17804.00000000
4235 17805.00000000 17806.00000000 17807.00000000
4236 17808.00000000 17809.00000000 17810.00000000
4237 17811.00000000 17812.00000000 17813.00000000
4238 17814.00000000 17815.00000000 17816.00000000
4239 17817.00000000 17818.00000000 17819.00000000
4240 17820.00000000 17821.00000000 17822.00000000
4241 17823.00000000 17824.00000000 17825.00000000
4242 17826.00000000 17827.00000000 17828.00000000
4243 17838.00000000 17839.00000000 17840.00000000
4244 17841.00000000 17842.00000000 17843.00000000
4245 17844.00000000 17845.00000000 17846.00000000
4246 17847.00000000 17848.00000000 17849.00000000
4247 17850.00000000 17851.00000000 17852.00000000
4248 17853.00000000 17854.00000000 17855.00000000
4249 17874.00000000 17875.00000000 17876.00000000
4250 17877.00000000 17878.00000000 17879.00000000
4251 17880.00000000 17881.00000000 17882.00000000
4252 17883.00000000 17884.00000000 17885.00000000
4253 17886.00000000 17887.00000000 17888.00000000
4254 17889.00000000 17890.00000000 17891.00000000
4255 17892.00000000 17893.00000000 17894.00000000
4256 17895.00000000 17896.00000000 17897.00000000
4257 17898.00000000 17899.00000000 17900.00000000
4258 17901.00000000 17902.00000000 17903.00000000
4259 17904.00000000 17905.00000000 17906.00000000
4260 17907.00000000 17908.00000000 17909.00000000
4261 17919.00000000 17920.00000000 17921.00000000
4262 17922.00000000 17923.00000000 17924.00000000
4263 17925.00000000 17926.00000000 17927.00000000
4264 17928.00000000 17929.00000000 17930.00000000
4265 17931.00000000 17932.00000000 17933.00000000
4266 17934.00000000 17935.00000000 17936.00000000
4267 17955.00000000 17956.00000000 17957.00000000
4268 17958.00000000 17959.00000000 17960.00000000
4269 17961.00000000 17962.00000000 17963.00000000
4270 17964.00000000 17965.00000000 17966.00000000
4271 17967.00000000 17968.00000000 17969.00000000
4272 17970.00000000 17971.00000000 17972.00000000
4273 17973.00000000 17974.00000000 17975.00000000
4274 17976.00000000 17977.00000000 17978.00000000
4275 17979.00000000 17980.00000000 17981.00000000
4276 17982.00000000 17983.00000000 17984.00000000
4277 17985.00000000 17986.00000000 17987.00000000
4278 17988.00000000 17989.00000000 17990.00000000
4279 18000.00000000 18001.00000000 18002.00000000
4280 18003.00000000 18004.00000000 18005.00000000
4281 18006.00000000 18007.00000000 18008.00000000
4282 18036.00000000 18037.00000000 18038.00000000
4283 18039.00000000 18040.00000000 18041.00000000
4284 18042.00000000 18043.00000000 18044.00000000
4285 18045.00000000 18046.00000000 18047.00000000
4286 18048.00000000 18049.00000000 18050.00000000
4287 18051.00000000 18052.00000000 18053.00000000
4288 18054.00000000 18055.00000000 18056.00000000
4289 18057.00000000 18058.00000000 18059.00000000
4290 18060.00000000 18061.00000000 18062.00000000
4291 18063.00000000 18064.00000000 18065.00000000
4292 18066.00000000 18067.00000000 18068.00000000
4293 18069.00000000 18070.00000000 18071.00000000
4294 18081.00000000 18082.00000000 18083.00000000
4295 18084.00000000 18085.00000000 18086.00000000
4296 18087.00000000 18088.00000000 18089.00000000
4297 18117.00000000 18118.00000000 18119.00000000
4298 18120.00000000 18121.00000000 18122.00000000
4299 18123.00000000 18124.00000000 18125.00000000
4300 18126.00000000 18127.00000000 18128.00000000
4301 18129.00000000 18130.00000000 18131.00000000
4302 18132.00000000 18133.00000000 18134.00000000
4303 18135.00000000 18136.00000000 18137.00000000
4304 18138.00000000 18139.00000000 18140.00000000
4305 18141.00000000 18142.00000000 18143.00000000
4306 18144.00000000 18145.00000000 18146.00000000
4307 18147.00000000 18148.00000000 18149.00000000
4308 18150.00000000 18151.00000000 18152.00000000
4309 18162.00000000 18163.00000000 18164.00000000
4310 18165.00000000 18166.00000000 18167.00000000
4311 18168.00000000 18169.00000000 18170.00000000
4312 18198.00000000 18199.00000000 18200.00000000
4313 18201.00000000 18202.00000000 18203.00000000
4314 18204.00000000 18205.00000000 18206.00000000
4315 18207.00000000 18208.00000000 18209.00000000
4316 18210.00000000 18211.00000000 18212.00000000
4317 18213.00000000 18214.00000000 18215.00000000
4318 18216.00000000 18217.00000000 18218.00000000
4319 18219.00000000 18220.00000000 18221.00000000
4320 18222.00000000 18223.00000000 18224.00000000
4321 18225.00000000 18226.00000000 18227.00000000
4322 18228.00000000 18229.00000000 18230.00000000
4323 18231.00000000 18232.00000000 18233.00000000
4324 18234.00000000 18235.00000000 18236.00000000
4325 18237.00000000 18238.00000000 18239.00000000
4326 18240.00000000 18241.00000000 18242.00000000
4327 18243.00000000 18244.00000000 18245.00000000
4328 18246.00000000 18247.00000000 18248.00000000
4329 18249.00000000 18250.00000000 18251.00000000
4330 18270.00000000 18271.00000000 18272.00000000
4331 18273.00000000 18274.00000000 18275.00000000
4332 18276.00000000 18277.00000000 18278.00000000
4333 18279.00000000 18280.00000000 18281.00000000
4334 18282.00000000 18283.00000000 18284.00000000
4335 18285.00000000 18286.00000000 18287.00000000
4336 18288.00000000 18289.00000000 18290.00000000
4337 18291.00000000 18292.00000000 18293.00000000
4338 18294.00000000 18295.00000000 18296.00000000
4339 18297.00000000 18298.00000000 18299.00000000
4340 18300.00000000 18301.00000000 18302.00000000
4341 18303.00000000 18304.00000000 18305.00000000
4342 18306.00000000 18307.00000000 18308.00000000
4343 18309.00000000 18310.00000000 18311.00000000
4344 18312.00000000 18313.00000000 18314.00000000
4345 18315.00000000 18316.00000000 18317.00000000
4346 18318.00000000 18319.00000000 18320.00000000
4347 18321.00000000 18322.00000000 18323.00000000
4348 18324.00000000 18325.00000000 18326.00000000
4349 18327.00000000 18328.00000000 18329.00000000
4350 18330.00000000 18331.00000000 18332.00000000
4351 18351.00000000 18352.00000000 18353.00000000
4352 18354.00000000 18355.00000000 18356.00000000
4353 18357.00000000 18358.00000000 18359.00000000
4354 18360.00000000 18361.00000000 18362.00000000
4355 18363.00000000 18364.00000000 18365.00000000
4356 18366.00000000 18367.00000000 18368.00000000
4357 18369.00000000 18370.00000000 18371.00000000
4358 18372.00000000 18373.00000000 18374.00000000
4359 18375.00000000 18376.00000000 18377.00000000
4360 18378.00000000 18379.00000000 18380.00000000
4361 18381.00000000 18382.00000000 18383.00000000
4362 18384.00000000 18385.00000000 18386.00000000
4363 18387.00000000 18388.00000000 18389.00000000
4364 18390.00000000 18391.00000000 18392.00000000
4365 18393.00000000 18394.00000000 18395.00000000
4366 18396.00000000 18397.00000000 18398.00000000
4367 18399.00000000 18400.00000000 18401.00000000
4368 18402.00000000 18403.00000000 18404.00000000
4369 18405.00000000 18406.00000000 18407.00000000
4370 18408.00000000 18409.00000000 18410.00000000
4371 18411.00000000 18412.00000000 18413.00000000
4372 18432.00000000 18433.00000000 18434.00000000
4373 18435.00000000 18436.00000000 18437.00000000
4374 18438.00000000 18439.00000000 18440.00000000
4375 18441.00000000 18442.00000000 18443.00000000
4376 18444.00000000 18445.00000000 18446.00000000
4377 18447.00000000 18448.00000000 18449.00000000
4378 18450.00000000 18451.00000000 18452.00000000
4379 18453.00000000 18454.00000000 18455.00000000
4380 18456.00000000 18457.00000000 18458.00000000
4381 18459.00000000 18460.00000000 18461.00000000
4382 18462.00000000 18463.00000000 18464.00000000
4383 18465.00000000 18466.00000000 18467.00000000
4384 18468.00000000 18469.00000000 18470.00000000
4385 18471.00000000 18472.00000000 18473.00000000
4386 18474.00000000 18475.00000000 18476.00000000
4387 18477.00000000 18478.00000000 18479.00000000
4388 18480.00000000 18481.00000000 18482.00000000
4389 18483.00000000 18484.00000000 18485.00000000
4390 18486.00000000 18487.00000000 18488.00000000
4391 18489.00000000 18490.00000000 18491.00000000
4392 18492.00000000 18493.00000000 18494.00000000
4393 18495.00000000 18496.00000000 18497.00000000
4394 18498.00000000 18499.00000000 18500.00000000
4395 18501.00000000 18502.00000000 18503.00000000
4396 18522.00000000 18523.00000000 18524.00000000
4397 18525.00000000 18526.00000000 18527.00000000
4398 18528.00000000 18529.00000000 18530.00000000
4399 18549.00000000 18550.00000000 18551.00000000
4400 18552.00000000 18553.00000000 18554.00000000
4401 18555.00000000 18556.00000000 18557.00000000
4402 18558.00000000 18559.00000000 18560.00000000
4403 18561.00000000 18562.00000000 18563.00000000
4404 18564.00000000 18565.00000000 18566.00000000
4405 18567.00000000 18568.00000000 18569.00000000
4406 18570.00000000 18571.00000000 18572.00000000
4407 18573.00000000 18574.00000000 18575.00000000
4408 18576.00000000 18577.00000000 18578.00000000
4409 18579.00000000 18580.00000000 18581.00000000
4410 18582.00000000 18583.00000000 18584.00000000
4411 18603.00000000 18604.00000000 18605.00000000
4412 18606.00000000 18607.00000000 18608.00000000
4413 18609.00000000 18610.00000000 18611.00000000
4414 18630.00000000 18631.00000000 18632.00000000
4415 18633.00000000 18634.00000000 18635.00000000
4416 18636.00000000 18637.00000000 18638.00000000
4417 18639.00000000 18640.00000000 18641.00000000
4418 18642.00000000 18643.00000000 18644.00000000
4419 18645.00000000 18646.00000000 18647.00000000
4420 18648.00000000 18649.00000000 18650.00000000
4421 18651.00000000 18652.00000000 18653.00000000
4422 18654.00000000 18655.00000000 18656.00000000
4423 18657.00000000 18658.00000000 18659.00000000
4424 18660.00000000 18661.00000000 18662.00000000
4425 18663.00000000 18664.00000000 18665.00000000
4426 18684.00000000 18685.00000000 18686.00000000
4427 18687.00000000 18688.00000000 18689.00000000
4428 18690.00000000 18691.00000000 18692.00000000
4429 18711.00000000 18712.00000000 18713.00000000
4430 18714.00000000 18715.00000000 18716.00000000
4431 18717.00000000 18718.00000000 18719.00000000
4432 18729.00000000 18730.00000000 18731.00000000
4433 18732.00000000 18733.00000000 18734.00000000
4434 18735.00000000 18736.00000000 18737.00000000
4435 18738.00000000 18739.00000000 18740.00000000
4436 18741.00000000 18742.00000000 18743.00000000
4437 18744.00000000 18745.00000000 18746.00000000
4438 18756.00000000 18757.00000000 18758.00000000
4439 18759.00000000 18760.00000000 18761.00000000
4440 18762.00000000 18763.00000000 18764.00000000
4441 18765.00000000 18766.00000000 18767.00000000
4442 18768.00000000 18769.00000000 18770.00000000
4443 18771.00000000 18772.00000000 18773.00000000
4444 18774.00000000 18775.00000000 18776.00000000
4445 18777.00000000 18778.00000000 18779.00000000
4446 18780.00000000 18781.00000000 18782.00000000
4447 18783.00000000 18784.00000000 18785.00000000
4448 18786.00000000 18787.00000000 18788.00000000
4449 18789.00000000 18790.00000000 18791.00000000
4450 18792.00000000 18793.00000000 18794.00000000
4451 18795.00000000 18796.00000000 18797.00000000
4452 18798.00000000 18799.00000000 18800.00000000
4453 18810.00000000 18811.00000000 18812.00000000
4454 18813.00000000 18814.00000000 18815.00000000
4455 18816.00000000 18817.00000000 18818.00000000
4456 18819.00000000 18820.00000000 18821.00000000
4457 18822.00000000 18823.00000000 18824.00000000
4458 18825.00000000 18826.00000000 18827.00000000
4459 18837.00000000 18838.00000000 18839.00000000
4460 18840.00000000 18841.00000000 18842.00000000
4461 18843.00000000 18844.00000000 18845.00000000
4462 18846.00000000 18847.00000000 18848.00000000
4463 18849.00000000 18850.00000000 18851.00000000
4464 18852.00000000 18853.00000000 18854.00000000
4465 18855.00000000 18856.00000000 18857.00000000
4466 18858.00000000 18859.00000000 18860.00000000
4467 18861.00000000 18862.00000000 18863.00000000
4468 18864.00000000 18865.00000000 18866.00000000
4469 18867.00000000 18868.00000000 18869.00000000
4470 18870.00000000 18871.00000000 18872.00000000
4471 18873.00000000 18874.00000000 18875.00000000
4472 18876.00000000 18877.00000000 18878.00000000
4473 18879.00000000 18880.00000000 18881.00000000
4474 18891.00000000 18892.00000000 18893.00000000
4475 18894.00000000 18895.00000000 18896.00000000
4476 18897.00000000 18898.00000000 18899.00000000
4477 18900.00000000 18901.00000000 18902.00000000
4478 18903.00000000 18904.00000000 18905.00000000
4479 18906.00000000 18907.00000000 18908.00000000
4480 18918.00000000 18919.00000000 18920.00000000
4481 18921.00000000 18922.00000000 18923.00000000
4482 18924.00000000 18925.00000000 18926.00000000
4483 18927.00000000 18928.00000000 18929.00000000
4484 18930.00000000 18931.00000000 18932.00000000
4485 18933.00000000 18934.00000000 18935.00000000
4486 18936.00000000 18937.00000000 18938.00000000
4487 18939.00000000 18940.00000000 18941.00000000
4488 18942.00000000 18943.00000000 18944.00000000
4489 18945.00000000 18946.00000000 18947.00000000
4490 18948.00000000 18949.00000000 18950.00000000
4491 18951.00000000 18952.00000000 18953.00000000
4492 18954.00000000 18955.00000000 18956.00000000
4493 18957.00000000 18958.00000000 18959.00000000
4494 18960.00000000 18961.00000000 18962.00000000
4495 18972.00000000 18973.00000000 18974.00000000
4496 18975.00000000 18976.00000000 18977.00000000
4497 18978.00000000 18979.00000000 18980.00000000
4498 18999.00000000 19000.00000000 19001.00000000
4499 19002.00000000 19003.00000000 19004.00000000
4500 19005.00000000 19006.00000000 19007.00000000
4501 19008.00000000 19009.00000000 19010.00000000
4502 19011.00000000 19012.00000000 19013.00000000
4503 19014.00000000 19015.00000000 19016.00000000
4504 19017.00000000 19018.00000000 19019.00000000
4505 19020.00000000 19021.00000000 19022.00000000
4506 19023.00000000 19024.00000000 19025.00000000
4507 19026.00000000 19027.00000000 19028.00000000
4508 19029.00000000 19030.00000000 19031.00000000
4509 19032.00000000 19033.00000000 19034.00000000
4510 19035.00000000 19036.00000000 19037.00000000
4511 19038.00000000 19039.00000000 19040.00000000
4512 19041.00000000 19042.00000000 19043.00000000
4513 19053.00000000 19054.00000000 19055.00000000
4514 19056.00000000 19057.00000000 19058.00000000
4515 19059.00000000 19060.00000000 19061.00000000
4516 19080.00000000 19081.00000000 19082.00000000
4517 19083.00000000 19084.00000000 19085.00000000
4518 19086.00000000 19087.00000000 19088.00000000
4519 19089.00000000 19090.00000000 19091.00000000
4520 19092.00000000 19093.00000000 19094.00000000
4521 19095.00000000 19096.00000000 19097.00000000
4522 19098.00000000 19099.00000000 19100.00000000
4523 19101.00000000 19102.00000000 19103.00000000
4524 19104.00000000 19105.00000000 19106.00000000
4525 19107.00000000 19108.00000000 19109.00000000
4526 19110.00000000 19111.00000000 19112.00000000
4527 19113.00000000 19114.00000000 19115.00000000
4528 19116.00000000 19117.00000000 19118.00000000
4529 19119.00000000 19120.00000000 19121.00000000
4530 19122.00000000 19123.00000000 19124.00000000
4531 19134.00000000 19135.00000000 19136.00000000
4532 19137.00000000 19138.00000000 19139.00000000
4533 19140.00000000 19141.00000000 19142.00000000
4534 19161.00000000 19162.00000000 19163.00000000
4535 19164.00000000 19165.00000000 19166.00000000
4536 19167.00000000 19168.00000000 19169.00000000
4537 19170.00000000 19171.00000000 19172.00000000
4538 19173.00000000 19174.00000000 19175.00000000
4539 19176.00000000 19177.00000000 19178.00000000
4540 19179.00000000 19180.00000000 19181.00000000
4541 19182.00000000 19183.00000000 19184.00000000
4542 19185.00000000 19186.00000000 19187.00000000
4543 19188.00000000 19189.00000000 19190.00000000
4544 19191.00000000 19192.00000000 19193.00000000
4545 19194.00000000 19195.00000000 19196.00000000
4546 19197.00000000 19198.00000000 19199.00000000
4547 19200.00000000 19201.00000000 19202.00000000
4548 19203.00000000 19204.00000000 19205.00000000
4549 19206.00000000 19207.00000000 19208.00000000
4550 19209.00000000 19210.00000000 19211.00000000
4551 19212.00000000 19213.00000000 19214.00000000
4552 19215.00000000 19216.00000000 19217.00000000
4553 19218.00000000 19219.00000000 19220.00000000
4554 19221.00000000 19222.00000000 19223.00000000
4555 19242.00000000 19243.00000000 19244.00000000
4556 19245.00000000 19246.00000000 19247.00000000
4557 19248.00000000 19249.00000000 19250.00000000
4558 19269.00000000 19270.00000000 19271.00000000
4559 19272.00000000 19273.00000000 19274.00000000
4560 19275.00000000 19276.00000000 19277.00000000
4561 19278.00000000 19279.00000000 19280.00000000
4562 19281.00000000 19282.00000000 19283.00000000
4563 19284.00000000 19285.00000000 19286.00000000
4564 19287.00000000 19288.00000000 19289.00000000
4565 19290.00000000 19291.00000000 19292.00000000
4566 19293.00000000 19294.00000000 19295.00000000
4567 19296.00000000 19297.00000000 19298.00000000
4568 19299.00000000 19300.00000000 19301.00000000
4569 19302.00000000 19303.00000000 19304.00000000
4570 19323.00000000 19324.00000000 19325.00000000
4571 19326.00000000 19327.00000000 19328.00000000
4572 19329.00000000 19330.00000000 19331.00000000
4573 19350.00000000 19351.00000000 19352.00000000
4574 19353.00000000 19354.00000000 19355.00000000
4575 19356.00000000 19357.00000000 19358.00000000
4576 19359.00000000 19360.00000000 19361.00000000
4577 19362.00000000 19363.00000000 19364.00000000
4578 19365.00000000 19366.00000000 19367.00000000
4579 19368.00000000 19369.00000000 19370.00000000
4580 19371.00000000 19372.00000000 19373.00000000
4581 19374.00000000 19375.00000000 19376.00000000
4582 19377.00000000 19378.00000000 19379.00000000
4583 19380.00000000 19381.00000000 19382.00000000
4584 19383.00000000 19384.00000000 19385.00000000
4585 19404.00000000 19405.00000000 19406.00000000
4586 19407.00000000 19408.00000000 19409.00000000
4587 19410.00000000 19411.00000000 19412.00000000
4588 19431.00000000 19432.00000000 19433.00000000
4589 19434.00000000 19435.00000000 19436.00000000
4590 19437.00000000 19438.00000000 19439.00000000
4591 19440.00000000 19441.00000000 19442.00000000
4592 19443.00000000 19444.00000000 19445.00000000
4593 19446.00000000 19447.00000000 19448.00000000
4594 19449.00000000 19450.00000000 19451.00000000
4595 19452.00000000 19453.00000000 19454.00000000
4596 19455.00000000 19456.00000000 19457.00000000
4597 19458.00000000 19459.00000000 19460.00000000
4598 19461.00000000 19462.00000000 19463.00000000
4599 19464.00000000 19465.00000000 19466.00000000
4600 19467.00000000 19468.00000000 19469.00000000
4601 19470.00000000 19471.00000000 19472.00000000
4602 19473.00000000 19474.00000000 19475.00000000
4603 19494.00000000 19495.00000000 19496.00000000
4604 19497.00000000 19498.00000000 19499.00000000
4605 19500.00000000 19501.00000000 19502.00000000
4606 19521.00000000 19522.00000000 19523.00000000
4607 19524.00000000 19525.00000000 19526.00000000
4608 19527.00000000 19528.00000000 19529.00000000
4609 19530.00000000 19531.00000000 19532.00000000
4610 19533.00000000 19534.00000000 19535.00000000
4611 19536.00000000 19537.00000000 19538.00000000
4612 19539.00000000 19540.00000000 19541.00000000
4613 19542.00000000 19543.00000000 19544.00000000
4614 19545.00000000 19546.00000000 19547.00000000
4615 19548.00000000 19549.00000000 19550.00000000
4616 19551.00000000 19552.00000000 19553.00000000
4617 19554.00000000 19555.00000000 19556.00000000
4618 19575.00000000 19576.00000000 19577.00000000
4619 19578.00000000 19579.00000000 19580.00000000
4620 19581.00000000 19582.00000000 19583.00000000
4621 19602.00000000 19603.00000000 19604.00000000
4622 19605.00000000 19606.00000000 19607.00000000
4623 19608.00000000 19609.00000000 19610.00000000
4624 19611.00000000 19612.00000000 19613.00000000
4625 19614.00000000 19615.00000000 19616.00000000
4626 19617.00000000 19618.00000000 19619.00000000
4627 19620.00000000 19621.00000000 19622.00000000
4628 19623.00000000 19624.00000000 19625.00000000
4629 19626.00000000 19627.00000000 19628.00000000
4630 19629.00000000 19630.00000000 19631.00000000
4631 19632.00000000 19633.00000000 19634.00000000
4632 19635.00000000 19636.00000000 19637.00000000
4633 19656.00000000 19657.00000000 19658.00000000
4634 19659.00000000 19660.00000000 19661.00000000
4635 19662.00000000 19663.00000000 19664.00000000
4636 19683.00000000 19684.00000000 19685.00000000
4637 19686.00000000 19687.00000000 19688.00000000
4638 19689.00000000 19690.00000000 19691.00000000
4639 19692.00000000 19693.00000000 19694.00000000
4640 19695.00000000 19696.00000000 19697.00000000
4641 19698.00000000 19699.00000000 19700.00000000
4642 19701.00000000 19702.00000000 19703.00000000
4643 19704.00000000 19705.00000000 19706.00000000
4644 19707.00000000 19708.00000000 19709.00000000
4645 19710.00000000 19711.00000000 19712.00000000
4646 19713.00000000 19714.00000000 19715.00000000
4647 19716.00000000 19717.00000000 19718.00000000
4648 19737.00000000 19738.00000000 19739.00000000
4649 19740.00000000 19741.00000000 19742.00000000
4650 19743.00000000 19744.00000000 19745.00000000
4651 19746.00000000 19747.00000000 19748.00000000
4652 19749.00000000 19750.00000000 19751.00000000
4653 19752.00000000 19753.00000000 19754.00000000
4654 19755.00000000 19756.00000000 19757.00000000
4655 19758.00000000 19759.00000000 19760.00000000
4656 19761.00000000 19762.00000000 19763.00000000
4657 19764.00000000 19765.00000000 19766.00000000
4658 19767.00000000 19768.00000000 19769.00000000
4659 19770.00000000 19771.00000000 19772.00000000
4660 19773.00000000 19774.00000000 19775.00000000
4661 19776.00000000 19777.00000000 19778.00000000
4662 19779.00000000 19780.00000000 19781.00000000
4663 19782.00000000 19783.00000000 19784.00000000
4664 19785.00000000 19786.00000000 19787.00000000
4665 19788.00000000 19789.00000000 19790.00000000
4666 19791.00000000 19792.00000000 19793.00000000
4667 19794.00000000 19795.00000000 19796.00000000
4668 19797.00000000 19798.00000000 19799.00000000
4669 19818.00000000 19819.00000000 19820.00000000
4670 19821.00000000 19822.00000000 19823.00000000
4671 19824.00000000 19825.00000000 19826.00000000
4672 19827.00000000 19828.00000000 19829.00000000
4673 19830.00000000 19831.00000000 19832.00000000
4674 19833.00000000 19834.00000000 19835.00000000
4675 19836.00000000 19837.00000000 19838.00000000
4676 19839.00000000 19840.00000000 19841.00000000
4677 19842.00000000 19843.00000000 19844.00000000
4678 19845.00000000 19846.00000000 19847.00000000
4679 19848.00000000 19849.00000000 19850.00000000
4680 19851.00000000 19852.00000000 19853.00000000
4681 19854.00000000 19855.00000000 19856.00000000
4682 19857.00000000 19858.00000000 19859.00000000
4683 19860.00000000 19861.00000000 19862.00000000
4684 19863.00000000 19864.00000000 19865.00000000
4685 19866.00000000 19867.00000000 19868.00000000
4686 19869.00000000 19870.00000000 19871.00000000
4687 19872.00000000 19873.00000000 19874.00000000
4688 19875.00000000 19876.00000000 19877.00000000
4689 19878.00000000 19879.00000000 19880.00000000
4690 19899.00000000 19900.00000000 19901.00000000
4691 19902.00000000 19903.00000000 19904.00000000
4692 19905.00000000 19906.00000000 19907.00000000
4693 19908.00000000 19909.00000000 19910.00000000
4694 19911.00000000 19912.00000000 19913.00000000
4695 19914.00000000 19915.00000000 19916.00000000
4696 19917.00000000 19918.00000000 19919.00000000
4697 19920.00000000 19921.00000000 19922.00000000
4698 19923.00000000 19924.00000000 19925.00000000
4699 19926.00000000 19927.00000000 19928.00000000
4700 19929.00000000 19930.00000000 19931.00000000
4701 19932.00000000 19933.00000000 19934.00000000
4702 19935.00000000 19936.00000000 19937.00000000
4703 19938.00000000 19939.00000000 19940.00000000
4704 19941.00000000 19942.00000000 19943.00000000
4705 19944.00000000 19945.00000000 19946.00000000
4706 19947.00000000 19948.00000000 19949.00000000
4707 19950.00000000 19951.00000000 19952.00000000
4708 19953.00000000 19954.00000000 19955.00000000
4709 19956.00000000 19957.00000000 19958.00000000
4710 19959.00000000 19960.00000000 19961.00000000
4711 19980.00000000 19981.00000000 19982.00000000
4712 19983.00000000 19984.00000000 19985.00000000
4713 19986.00000000 19987.00000000 19988.00000000
4714 19998.00000000 19999.00000000 20000.00000000
4715 20001.00000000 20002.00000000 20003.00000000
4716 20004.00000000 20005.00000000 20006.00000000
4717 20007.00000000 20008.00000000 20009.00000000
4718 20010.00000000 20011.00000000 20012.00000000
4719 20013.00000000 20014.00000000 20015.00000000
4720 20016.00000000 20017.00000000 20018.00000000
4721 20019.00000000 20020.00000000 20021.00000000
4722 20022.00000000 20023.00000000 20024.00000000
4723 20025.00000000 20026.00000000 20027.00000000
4724 20028.00000000 20029.00000000 20030.00000000
4725 20031.00000000 20032.00000000 20033.00000000
4726 20034.00000000 20035.00000000 20036.00000000
4727 20037.00000000 20038.00000000 20039.00000000
4728 20040.00000000 20041.00000000 20042.00000000
4729 20061.00000000 20062.00000000 20063.00000000
4730 20064.00000000 20065.00000000 20066.00000000
4731 20067.00000000 20068.00000000 20069.00000000
4732 20079.00000000 20080.00000000 20081.00000000
4733 20082.00000000 20083.00000000 20084.00000000
4734 20085.00000000 20086.00000000 20087.00000000
4735 20088.00000000 20089.00000000 20090.00000000
4736 20091.00000000 20092.00000000 20093.00000000
4737 20094.00000000 20095.00000000 20096.00000000
4738 20097.00000000 20098.00000000 20099.00000000
4739 20100.00000000 20101.00000000 20102.00000000
4740 20103.00000000 20104.00000000 20105.00000000
4741 20106.00000000 20107.00000000 20108.00000000
4742 20109.00000000 20110.00000000 20111.00000000
4743 20112.00000000 20113.00000000 20114.00000000
4744 20115.00000000 20116.00000000 20117.00000000
4745 20118.00000000 20119.00000000 20120.00000000
4746 20121.00000000 20122.00000000 20123.00000000
4747 20142.00000000 20143.00000000 20144.00000000
4748 20145.00000000 20146.00000000 20147.00000000
4749 20148.00000000 20149.00000000 20150.00000000
4750 20160.00000000 20161.00000000 20162.00000000
4751 20163.00000000 20164.00000000 20165.00000000
4752 20166.00000000 20167.00000000 20168.00000000
4753 20169.00000000 20170.00000000 20171.00000000
4754 20172.00000000 20173.00000000 20174.00000000
4755 20175.00000000 20176.00000000 20177.00000000
4756 20178.00000000 20179.00000000 20180.00000000
4757 20181.00000000 20182.00000000 20183.00000000
4758 20184.00000000 20185.00000000 20186.00000000
4759 20187.00000000 20188.00000000 20189.00000000
4760 20190.00000000 20191.00000000 20192.00000000
4761 20193.00000000 20194.00000000 20195.00000000
4762 20214.00000000 20215.00000000 20216.00000000
4763 20217.00000000 20218.00000000 20219.00000000
4764 20220.00000000 20221.00000000 20222.00000000
4765 20223.00000000 20224.00000000 20225.00000000
4766 20226.00000000 20227.00000000 20228.00000000
4767 20229.00000000 20230.00000000 20231.00000000
4768 20241.00000000 20242.00000000 20243.00000000
4769 20244.00000000 20245.00000000 20246.00000000
4770 20247.00000000 20248.00000000 20249.00000000
4771 20250.00000000 20251.00000000 20252.00000000
4772 20253.00000000 20254.00000000 20255.00000000
4773 20256.00000000 20257.00000000 20258.00000000
4774 20259.00000000 20260.00000000 20261.00000000
4775 20262.00000000 20263.00000000 20264.00000000
4776 20265.00000000 20266.00000000 20267.00000000
4777 20268.00000000 20269.00000000 20270.00000000
4778 20271.00000000 20272.00000000 20273.00000000
4779 20274.00000000 20275.00000000 20276.00000000
4780 20295.00000000 20296.00000000 20297.00000000
4781 20298.00000000 20299.00000000 20300.00000000
4782 20301.00000000 20302.00000000 20303.00000000
4783 20304.00000000 20305.00000000 20306.00000000
4784 20307.00000000 20308.00000000 20309.00000000
4785 20310.00000000 20311.00000000 20312.00000000
4786 20322.00000000 20323.00000000 20324.00000000
4787 20325.00000000 20326.00000000 20327.00000000
4788 20328.00000000 20329.00000000 20330.00000000
4789 20331.00000000 20332.00000000 20333.00000000
4790 20334.00000000 20335.00000000 20336.00000000
4791 20337.00000000 20338.00000000 20339.00000000
4792 20340.00000000 20341.00000000 20342.00000000
4793 20343.00000000 20344.00000000 20345.00000000
4794 20346.00000000 20347.00000000 20348.00000000
4795 20349.00000000 20350.00000000 20351.00000000
4796 20352.00000000 20353.00000000 20354.00000000
4797 20355.00000000 20356.00000000 20357.00000000
4798 20376.00000000 20377.00000000 20378.00000000
4799 20379.00000000 20380.00000000 20381.00000000
4800 20382.00000000 20383.00000000 20384.00000000
4801 20385.00000000 20386.00000000 20387.00000000
4802 20388.00000000 20389.00000000 20390.00000000
4803 20391.00000000 20392.00000000 20393.00000000
4804 20403.00000000 20404.00000000 20405.00000000
4805 20406.00000000 20407.00000000 20408.00000000
4806 20409.00000000 20410.00000000 20411.00000000
4807 20412.00000000 20413.00000000 20414.00000000
4808 20415.00000000 20416.00000000 20417.00000000
4809 20418.00000000 20419.00000000 20420.00000000
4810 20430.00000000 20431.00000000 20432.00000000
4811 20433.00000000 20434.00000000 20435.00000000
4812 20436.00000000 20437.00000000 20438.00000000
4813 20439.00000000 20440.00000000 20441.00000000
4814 20442.00000000 20443.00000000 20444.00000000
4815 20445.00000000 20446.00000000 20447.00000000
4816 20466.00000000 20467.00000000 20468.00000000
4817 20469.00000000 20470.00000000 20471.00000000
4818 20472.00000000 20473.00000000 20474.00000000
4819 20475.00000000 20476.00000000 20477.00000000
4820 20478.00000000 20479.00000000 20480.00000000
4821 20481.00000000 20482.00000000 20483.00000000
4822 20484.00000000 20485.00000000 20486.00000000
4823 20487.00000000 20488.00000000 20489.00000000
4824 20490.00000000 20491.00000000 20492.00000000
4825 20493.00000000 20494.00000000 20495.00000000
4826 20496.00000000 20497.00000000 20498.00000000
4827 20499.00000000 20500.00000000 20501.00000000
4828 20511.00000000 20512.00000000 20513.00000000
4829 20514.00000000 20515.00000000 20516.00000000
4830 20517.00000000 20518.00000000 20519.00000000
4831 20520.00000000 20521.00000000 20522.00000000
4832 20523.00000000 20524.00000000 20525.00000000
4833 20526.00000000 20527.00000000 20528.00000000
4834 20547.00000000 20548.00000000 20549.00000000
4835 20550.00000000 20551.00000000 20552.00000000
4836 20553.00000000 20554.00000000 20555.00000000
4837 20556.00000000 20557.00000000 20558.00000000
4838 20559.00000000 20560.00000000 20561.00000000
4839 20562.00000000 20563.00000000 20564.00000000
4840 20565.00000000 20566.00000000 20567.00000000
4841 20568.00000000 20569.00000000 20570.00000000
4842 20571.00000000 20572.00000000 20573.00000000
4843 20574.00000000 20575.00000000 20576.00000000
4844 20577.00000000 20578.00000000 20579.00000000
4845 20580.00000000 20581.00000000 20582.00000000
4846 20592.00000000 20593.00000000 20594.00000000
4847 20595.00000000 20596.00000000 20597.00000000
4848 20598.00000000 20599.00000000 20600.00000000
4849 20601.00000000 20602.00000000 20603.00000000
4850 20604.00000000 20605.00000000 20606.00000000
4851 20607.00000000 20608.00000000 20609.00000000
4852 20628.00000000 20629.00000000 20630.00000000
4853 20631.00000000 20632.00000000 20633.00000000
4854 20634.00000000 20635.00000000 20636.00000000
4855 20637.00000000 20638.00000000 20639.00000000
4856 20640.00000000 20641.00000000 20642.00000000
4857 20643.00000000 20644.00000000 20645.00000000
4858 20646.00000000 20647.00000000 20648.00000000
4859 20649.00000000 20650.00000000 20651.00000000
4860 20652.00000000 20653.00000000 20654.00000000
4861 20655.00000000 20656.00000000 20657.00000000
4862 20658.00000000 20659.00000000 20660.00000000
4863 20661.00000000 20662.00000000 20663.00000000
4864 20664.00000000 20665.00000000 20666.00000000
4865 20667.00000000 20668.00000000 20669.00000000
4866 20670.00000000 20671.00000000 20672.00000000
4867 20673.00000000 20674.00000000 20675.00000000
4868 20676.00000000 20677.00000000 20678.00000000
4869 20679.00000000 20680.00000000 20681.00000000
4870 20682.00000000 20683.00000000 20684.00000000
4871 20685.00000000 20686.00000000 20687.00000000
4872 20688.00000000 20689.00000000 20690.00000000
4873 20709.00000000 20710.00000000 20711.00000000
4874 20712.00000000 20713.00000000 20714.00000000
4875 20715.00000000 20716.00000000 20717.00000000
4876 20718.00000000 20719.00000000 20720.00000000
4877 20721.00000000 20722.00000000 20723.00000000
4878 20724.00000000 20725.00000000 20726.00000000
4879 20727.00000000 20728.00000000 20729.00000000
4880 20730.00000000 20731.00000000 20732.00000000
4881 20733.00000000 20734.00000000 20735.00000000
4882 20736.00000000 20737.00000000 20738.00000000
4883 20739.00000000 20740.00000000 20741.00000000
4884 20742.00000000 20743.00000000 20744.00000000
4885 20745.00000000 20746.00000000 20747.00000000
4886 20748.00000000 20749.00000000 20750.00000000
4887 20751.00000000 20752.00000000 20753.00000000
4888 20754.00000000 20755.00000000 20756.00000000
4889 20757.00000000 20758.00000000 20759.00000000
4890 20760.00000000 20761.00000000 20762.00000000
4891 20763.00000000 20764.00000000 20765.00000000
4892 20766.00000000 20767.00000000 20768.00000000
4893 20769.00000000 20770.00000000 20771.00000000
4894 20790.00000000 20791.00000000 20792.00000000
4895 20793.00000000 20794.00000000 20795.00000000
4896 20796.00000000 20797.00000000 20798.00000000
4897 20799.00000000 20800.00000000 20801.00000000
4898 20802.00000000 20803.00000000 20804.00000000
4899 20805.00000000 20806.00000000 20807.00000000
4900 20808.00000000 20809.00000000 20810.00000000
4901 20811.00000000 20812.00000000 20813.00000000
4902 20814.00000000 20815.00000000 20816.00000000
4903 20817.00000000 20818.00000000 20819.00000000
4904 20820.00000000 20821.00000000 20822.00000000
4905 20823.00000000 20824.00000000 20825.00000000
4906 20826.00000000 20827.00000000 20828.00000000
4907 20829.00000000 20830.00000000 20831.00000000
4908 20832.00000000 20833.00000000 20834.00000000
4909 20835.00000000 20836.00000000 20837.00000000
4910 20838.00000000 20839.00000000 20840.00000000
4911 20841.00000000 20842.00000000 20843.00000000
4912 20844.00000000 20845.00000000 20846.00000000
4913 20847.00000000 20848.00000000 20849.00000000
4914 20850.00000000 20851.00000000 20852.00000000
4915 20871.00000000 20872.00000000 20873.00000000
4916 20874.00000000 20875.00000000 20876.00000000
4917 20877.00000000 20878.00000000 20879.00000000
4918 20880.00000000 20881.00000000 20882.00000000
4919 20883.00000000 20884.00000000 20885.00000000
4920 20886.00000000 20887.00000000 20888.00000000
4921 20889.00000000 20890.00000000 20891.00000000
4922 20892.00000000 20893.00000000 20894.00000000
4923 20895.00000000 20896.00000000 20897.00000000
4924 20898.00000000 20899.00000000 20900.00000000
4925 20901.00000000 20902.00000000 20903.00000000
4926 20904.00000000 20905.00000000 20906.00000000
4927 20907.00000000 20908.00000000 20909.00000000
4928 20910.00000000 20911.00000000 20912.00000000
4929 20913.00000000 20914.00000000 20915.00000000
4930 20916.00000000 20917.00000000 20918.00000000
4931 20919.00000000 20920.00000000 20921.00000000
4932 20922.00000000 20923.00000000 20924.00000000
4933 20943.00000000 20944.00000000 20945.00000000
4934 20946.00000000 20947.00000000 20948.00000000
4935 20949.00000000 20950.00000000 20951.00000000
4936 20952.00000000 20953.00000000 20954.00000000
4937 20955.00000000 20956.00000000 20957.00000000
4938 20958.00000000 20959.00000000 20960.00000000
4939 20961.00000000 20962.00000000 20963.00000000
4940 20964.00000000 20965.00000000 20966.00000000
4941 20967.00000000 20968.00000000 20969.00000000
4942 20970.00000000 20971.00000000 20972.00000000
4943 20973.00000000 20974.00000000 20975.00000000
4944 20976.00000000 20977.00000000 20978.00000000
4945 20979.00000000 20980.00000000 20981.00000000
4946 20982.00000000 20983.00000000 20984.00000000
4947 20985.00000000 20986.00000000 20987.00000000
4948 20988.00000000 20989.00000000 20990.00000000
4949 20991.00000000 20992.00000000 20993.00000000
4950 20994.00000000 20995.00000000 20996.00000000
4951 20997.00000000 20998.00000000 20999.00000000
4952 21000.00000000 21001.00000000 21002.00000000
4953 21003.00000000 21004.00000000 21005.00000000
4954 21024.00000000 21025.00000000 21026.00000000
4955 21027.00000000 21028.00000000 21029.00000000
4956 21030.00000000 21031.00000000 21032.00000000
4957 21033.00000000 21034.00000000 21035.00000000
4958 21036.00000000 21037.00000000 21038.00000000
4959 21039.00000000 21040.00000000 21041.00000000
4960 21042.00000000 21043.00000000 21044.00000000
4961 21045.00000000 21046.00000000 21047.00000000
4962 21048.00000000 21049.00000000 21050.00000000
4963 21051.00000000 21052.00000000 21053.00000000
4964 21054.00000000 21055.00000000 21056.00000000
4965 21057.00000000 21058.00000000 21059.00000000
4966 21060.00000000 21061.00000000 21062.00000000
4967 21063.00000000 21064.00000000 21065.00000000
4968 21066.00000000 21067.00000000 21068.00000000
4969 21069.00000000 21070.00000000 21071.00000000
4970 21072.00000000 21073.00000000 21074.00000000
4971 21075.00000000 21076.00000000 21077.00000000
4972 21078.00000000 21079.00000000 21080.00000000
4973 21081.00000000 21082.00000000 21083.00000000
4974 21084.00000000 21085.00000000 21086.00000000
4975 21105.00000000 21106.00000000 21107.00000000
4976 21108.00000000 21109.00000000 21110.00000000
4977 21111.00000000 21112.00000000 21113.00000000
4978 21114.00000000 21115.00000000 21116.00000000
4979 21117.00000000 21118.00000000 21119.00000000
4980 21120.00000000 21121.00000000 21122.00000000
4981 21123.00000000 21124.00000000 21125.00000000
4982 21126.00000000 21127.00000000 21128.00000000
4983 21129.00000000 21130.00000000 21131.00000000
4984 21132.00000000 21133.00000000 21134.00000000
4985 21135.00000000 21136.00000000 21137.00000000
4986 21138.00000000 21139.00000000 21140.00000000
4987 21141.00000000 21142.00000000 21143.00000000
4988 21144.00000000 21145.00000000 21146.00000000
4989 21147.00000000 21148.00000000 21149.00000000
4990 21150.00000000 21151.00000000 21152.00000000
4991 21153.00000000 21154.00000000 21155.00000000
4992 21156.00000000 21157.00000000 21158.00000000
4993 21159.00000000 21160.00000000 21161.00000000
4994 21162.00000000 21163.00000000 21164.00000000
4995 21165.00000000 21166.00000000 21167.00000000
4996 21186.00000000 21187.00000000 21188.00000000
4997 21189.00000000 21190.00000000 21191.00000000
4998 21192.00000000 21193.00000000 21194.00000000
4999 21195.00000000 21196.00000000 21197.00000000
5000 21198.00000000 21199.00000000 21200.00000000
5001 21201.00000000 21202.00000000 21203.00000000
5002 21213.00000000 21214.00000000 21215.00000000
5003 21216.00000000 21217.00000000 21218.00000000
5004 21219.00000000 21220.00000000 21221.00000000
5005 21222.00000000 21223.00000000 21224.00000000
5006 21225.00000000 21226.00000000 21227.00000000
5007 21228.00000000 21229.00000000 21230.00000000
5008 21231.00000000 21232.00000000 21233.00000000
5009 21234.00000000 21235.00000000 21236.00000000
5010 21237.00000000 21238.00000000 21239.00000000
5011 21240.00000000 21241.00000000 21242.00000000
5012 21243.00000000 21244.00000000 21245.00000000
5013 21246.00000000 21247.00000000 21248.00000000
5014 21267.00000000 21268.00000000 21269.00000000
5015 21270.00000000 21271.00000000 21272.00000000
5016 21273.00000000 21274.00000000 21275.00000000
5017 21276.00000000 21277.00000000 21278.00000000
5018 21279.00000000 21280.00000000 21281.00000000
5019 21282.00000000 21283.00000000 21284.00000000
5020 21294.00000000 21295.00000000 21296.00000000
5021 21297.00000000 21298.00000000 21299.00000000
5022 21300.00000000 21301.00000000 21302.00000000
5023 21303.00000000 21304.00000000 21305.00000000
5024 21306.00000000 21307.00000000 21308.00000000
5025 21309.00000000 21310.00000000 21311.00000000
5026 21312.00000000 21313.00000000 21314.00000000
5027 21315.00000000 21316.00000000 21317.00000000
5028 21318.00000000 21319.00000000 21320.00000000
5029 21321.00000000 21322.00000000 21323.00000000
5030 21324.00000000 21325.00000000 21326.00000000
5031 21327.00000000 21328.00000000 21329.00000000
5032 21348.00000000 21349.00000000 21350.00000000
5033 21351.00000000 21352.00000000 21353.00000000
5034 21354.00000000 21355.00000000 21356.00000000
5035 21357.00000000 21358.00000000 21359.00000000
5036 21360.00000000 21361.00000000 21362.00000000
5037 21363.00000000 21364.00000000 21365.00000000
5038 21375.00000000 21376.00000000 21377.00000000
5039 21378.00000000 21379.00000000 21380.00000000
5040 21381.00000000 21382.00000000 21383.00000000
5041 21384.00000000 21385.00000000 21386.00000000
5042 21387.00000000 21388.00000000 21389.00000000
5043 21390.00000000 21391.00000000 21392.00000000
5044 21411.00000000 21412.00000000 21413.00000000
5045 21414.00000000 21415.00000000 21416.00000000
5046 21417.00000000 21418.00000000 21419.00000000
5047 21438.00000000 21439.00000000 21440.00000000
5048 21441.00000000 21442.00000000 21443.00000000
5049 21444.00000000 21445.00000000 21446.00000000
5050 21447.00000000 21448.00000000 21449.00000000
5051 21450.00000000 21451.00000000 21452.00000000
5052 21453.00000000 21454.00000000 21455.00000000
5053 21456.00000000 21457.00000000 21458.00000000
5054 21459.00000000 21460.00000000 21461.00000000
5055 21462.00000000 21463.00000000 21464.00000000
5056 21465.00000000 21466.00000000 21467.00000000
5057 21468.00000000 21469.00000000 21470.00000000
5058 21471.00000000 21472.00000000 21473.00000000
5059 21492.00000000 21493.00000000 21494.00000000
5060 21495.00000000 21496.00000000 21497.00000000
5061 21498.00000000 21499.00000000 21500.00000000
5062 21519.00000000 21520.00000000 21521.00000000
5063 21522.00000000 21523.00000000 21524.00000000
5064 21525.00000000 21526.00000000 21527.00000000
5065 21528.00000000 21529.00000000 21530.00000000
5066 21531.00000000 21532.00000000 21533.00000000
5067 21534.00000000 21535.00000000 21536.00000000
5068 21537.00000000 21538.00000000 21539.00000000
5069 21540.00000000 21541.00000000 21542.00000000
5070 21543.00000000 21544.00000000 21545.00000000
5071 21546.00000000 21547.00000000 21548.00000000
5072 21549.00000000 21550.00000000 21551.00000000
5073 21552.00000000 21553.00000000 21554.00000000
5074 21573.00000000 21574.00000000 21575.00000000
5075 21576.00000000 21577.00000000 21578.00000000
5076 21579.00000000 21580.00000000 21581.00000000
5077 21600.00000000 21601.00000000 21602.00000000
5078 21603.00000000 21604.00000000 21605.00000000
5079 21606.00000000 21607.00000000 21608.00000000
5080 21609.00000000 21610.00000000 21611.00000000
5081 21612.00000000 21613.00000000 21614.00000000
5082 21615.00000000 21616.00000000 21617.00000000
5083 21618.00000000 21619.00000000 21620.00000000
5084 21621.00000000 21622.00000000 21623.00000000
5085 21624.00000000 21625.00000000 21626.00000000
5086 21627.00000000 21628.00000000 21629.00000000
5087 21630.00000000 21631.00000000 21632.00000000
5088 21633.00000000 21634.00000000 21635.00000000
5089 21645.00000000 21646.00000000 21647.00000000
5090 21648.00000000 21649.00000000 21650.00000000
5091 21651.00000000 21652.00000000 21653.00000000
5092 21654.00000000 21655.00000000 21656.00000000
5093 21657.00000000 21658.00000000 21659.00000000
5094 21660.00000000 21661.00000000 21662.00000000
5095 21681.00000000 21682.00000000 21683.00000000
5096 21684.00000000 21685.00000000 21686.00000000
5097 21687.00000000 21688.00000000 21689.00000000
5098 21690.00000000 21691.00000000 21692.00000000
5099 21693.00000000 21694.00000000 21695.00000000
5100 21696.00000000 21697.00000000 21698.00000000
5101 21699.00000000 21700.00000000 21701.00000000
5102 21702.00000000 21703.00000000 21704.00000000
5103 21705.00000000 21706.00000000 21707.00000000
5104 21708.00000000 21709.00000000 21710.00000000
5105 21711.00000000 21712.00000000 21713.00000000
5106 21714.00000000 21715.00000000 21716.00000000
5107 21726.00000000 21727.00000000 21728.00000000
5108 21729.00000000 21730.00000000 21731.00000000
5109 21732.00000000 21733.00000000 21734.00000000
5110 21735.00000000 21736.00000000 21737.00000000
5111 21738.00000000 21739.00000000 21740.00000000
5112 21741.00000000 21742.00000000 21743.00000000
5113 21762.00000000 21763.00000000 21764.00000000
5114 21765.00000000 21766.00000000 21767.00000000
5115 21768.00000000 21769.00000000 21770.00000000
5116 21771.00000000 21772.00000000 21773.00000000
5117 21774.00000000 21775.00000000 21776.00000000
5118 21777.00000000 21778.00000000 21779.00000000
5119 21780.00000000 21781.00000000 21782.00000000
5120 21783.00000000 21784.00000000 21785.00000000
5121 21786.00000000 21787.00000000 21788.00000000
5122 21789.00000000 21790.00000000 21791.00000000
5123 21792.00000000 21793.00000000 21794.00000000
5124 21795.00000000 21796.00000000 21797.00000000
5125 21807.00000000 21808.00000000 21809.00000000
5126 21810.00000000 21811.00000000 21812.00000000
5127 21813.00000000 21814.00000000 21815.00000000
5128 21816.00000000 21817.00000000 21818.00000000
5129 21819.00000000 21820.00000000 21821.00000000
5130 21822.00000000 21823.00000000 21824.00000000
5131 21843.00000000 21844.00000000 21845.00000000
5132 21846.00000000 21847.00000000 21848.00000000
5133 21849.00000000 21850.00000000 21851.00000000
5134 21852.00000000 21853.00000000 21854.00000000
5135 21855.00000000 21856.00000000 21857.00000000
5136 21858.00000000 21859.00000000 21860.00000000
5137 21861.00000000 21862.00000000 21863.00000000
5138 21864.00000000 21865.00000000 21866.00000000
5139 21867.00000000 21868.00000000 21869.00000000
5140 21870.00000000 21871.00000000 21872.00000000
5141 21873.00000000 21874.00000000 21875.00000000
5142 21876.00000000 21877.00000000 21878.00000000
5143 21888.00000000 21889.00000000 21890.00000000
5144 21891.00000000 21892.00000000 21893.00000000
5145 21894.00000000 21895.00000000 21896.00000000
5146 21915.00000000 21916.00000000 21917.00000000
5147 21918.00000000 21919.00000000 21920.00000000
5148 21921.00000000 21922.00000000 21923.00000000
5149 21924.00000000 21925.00000000 21926.00000000
5150 21927.00000000 21928.00000000 21929.00000000
5151 21930.00000000 21931.00000000 21932.00000000
5152 21933.00000000 21934.00000000 21935.00000000
5153 21936.00000000 21937.00000000 21938.00000000
5154 21939.00000000 21940.00000000 21941.00000000
5155 21942.00000000 21943.00000000 21944.00000000
5156 21945.00000000 21946.00000000 21947.00000000
5157 21948.00000000 21949.00000000 21950.00000000
5158 21951.00000000 21952.00000000 21953.00000000
5159 21954.00000000 21955.00000000 21956.00000000
5160 21957.00000000 21958.00000000 21959.00000000
5161 21969.00000000 21970.00000000 21971.00000000
5162 21972.00000000 21973.00000000 21974.00000000
5163 21975.00000000 21976.00000000 21977.00000000
5164 21996.00000000 21997.00000000 21998.00000000
5165 21999.00000000 22000.00000000 22001.00000000
5166 22002.00000000 22003.00000000 22004.00000000
5167 22005.00000000 22006.00000000 22007.00000000
5168 22008.00000000 22009.00000000 22010.00000000
5169 22011.00000000 22012.00000000 22013.00000000
5170 22014.00000000 22015.00000000 22016.00000000
5171 22017.00000000 22018.00000000 22019.00000000
5172 22020.00000000 22021.00000000 22022.00000000
5173 22023.00000000 22024.00000000 22025.00000000
5174 22026.00000000 22027.00000000 22028.00000000
5175 22029.00000000 22030.00000000 22031.00000000
5176 22032.00000000 22033.00000000 22034.00000000
5177 22035.00000000 22036.00000000 22037.00000000
5178 22038.00000000 22039.00000000 22040.00000000
5179 22050.00000000 22051.00000000 22052.00000000
5180 22053.00000000 22054.00000000 22055.00000000
5181 22056.00000000 22057.00000000 22058.00000000
5182 22077.00000000 22078.00000000 22079.00000000
5183 22080.00000000 22081.00000000 22082.00000000
5184 22083.00000000 22084.00000000 22085.00000000
5185 22086.00000000 22087.00000000 22088.00000000
5186 22089.00000000 22090.00000000 22091.00000000
5187 22092.00000000 22093.00000000 22094.00000000
5188 22095.00000000 22096.00000000 22097.00000000
5189 22098.00000000 22099.00000000 22100.00000000
5190 22101.00000000 22102.00000000 22103.00000000
5191 22104.00000000 22105.00000000 22106.00000000
5192 22107.00000000 22108.00000000 22109.00000000
5193 22110.00000000 22111.00000000 22112.00000000
5194 22113.00000000 22114.00000000 22115.00000000
5195 22116.00000000 22117.00000000 22118.00000000
5196 22119.00000000 22120.00000000 22121.00000000
5197 22122.00000000 22123.00000000 22124.00000000
5198 22125.00000000 22126.00000000 22127.00000000
5199 22128.00000000 22129.00000000 22130.00000000
5200 22131.00000000 22132.00000000 22133.00000000
5201 22134.00000000 22135.00000000 22136.00000000
5202 22137.00000000 22138.00000000 22139.00000000
5203 22158.00000000 22159.00000000 22160.00000000
5204 22161.00000000 22162.00000000 22163.00000000
5205 22164.00000000 22165.00000000 22166.00000000
5206 22167.00000000 22168.00000000 22169.00000000
5207 22170.00000000 22171.00000000 22172.00000000
5208 22173.00000000 22174.00000000 22175.00000000
5209 22176.00000000 22177.00000000 22178.00000000
5210 22179.00000000 22180.00000000 22181.00000000
5211 22182.00000000 22183.00000000 22184.00000000
5212 22185.00000000 22186.00000000 22187.00000000
5213 22188.00000000 22189.00000000 22190.00000000
5214 22191.00000000 22192.00000000 22193.00000000
5215 22194.00000000 22195.00000000 22196.00000000
5216 22197.00000000 22198.00000000 22199.00000000
5217 22200.00000000 22201.00000000 22202.00000000
5218 22203.00000000 22204.00000000 22205.00000000
5219 22206.00000000 22207.00000000 22208.00000000
5220 22209.00000000 22210.00000000 22211.00000000
5221 22212.00000000 22213.00000000 22214.00000000
5222 22215.00000000 22216.00000000 22217.00000000
5223 22218.00000000 22219.00000000 22220.00000000
5224 22239.00000000 22240.00000000 22241.00000000
5225 22242.00000000 22243.00000000 22244.00000000
5226 22245.00000000 22246.00000000 22247.00000000
5227 22248.00000000 22249.00000000 22250.00000000
5228 22251.00000000 22252.00000000 22253.00000000
5229 22254.00000000 22255.00000000 22256.00000000
5230 22257.00000000 22258.00000000 22259.00000000
5231 22260.00000000 22261.00000000 22262.00000000
5232 22263.00000000 22264.00000000 22265.00000000
5233 22266.00000000 22267.00000000 22268.00000000
5234 22269.00000000 22270.00000000 22271.00000000
5235 22272.00000000 22273.00000000 22274.00000000
5236 22275.00000000 22276.00000000 22277.00000000
5237 22278.00000000 22279.00000000 22280.00000000
5238 22281.00000000 22282.00000000 22283.00000000
5239 22284.00000000 22285.00000000 22286.00000000
5240 22287.00000000 22288.00000000 22289.00000000
5241 22290.00000000 22291.00000000 22292.00000000
5242 22293.00000000 22294.00000000 22295.00000000
5243 22296.00000000 22297.00000000 22298.00000000
5244 22299.00000000 22300.00000000 22301.00000000
5245 22320.00000000 22321.00000000 22322.00000000
5246 22323.00000000 22324.00000000 22325.00000000
5247 22326.00000000 22327.00000000 22328.00000000
5248 22329.00000000 22330.00000000 22331.00000000
5249 22332.00000000 22333.00000000 22334.00000000
5250 22335.00000000 22336.00000000 22337.00000000
5251 22338.00000000 22339.00000000 22340.00000000
5252 22341.00000000 22342.00000000 22343.00000000
5253 22344.00000000 22345.00000000 22346.00000000
5254 22347.00000000 22348.00000000 22349.00000000
5255 22350.00000000 22351.00000000 22352.00000000
5256 22353.00000000 22354.00000000 22355.00000000
5257 22356.00000000 22357.00000000 22358.00000000
5258 22359.00000000 22360.00000000 22361.00000000
5259 22362.00000000 22363.00000000 22364.00000000
5260 22365.00000000 22366.00000000 22367.00000000
5261 22368.00000000 22369.00000000 22370.00000000
5262 22371.00000000 22372.00000000 22373.00000000
5263 22374.00000000 22375.00000000 22376.00000000
5264 22377.00000000 22378.00000000 22379.00000000
5265 22380.00000000 22381.00000000 22382.00000000
5266 22383.00000000 22384.00000000 22385.00000000
5267 22386.00000000 22387.00000000 22388.00000000
5268 22389.00000000 22390.00000000 22391.00000000
5269 22410.00000000 22411.00000000 22412.00000000
5270 22413.00000000 22414.00000000 22415.00000000
5271 22416.00000000 22417.00000000 22418.00000000
5272 22428.00000000 22429.00000000 22430.00000000
5273 22431.00000000 22432.00000000 22433.00000000
5274 22434.00000000 22435.00000000 22436.00000000
5275 22437.00000000 22438.00000000 22439.00000000
5276 22440.00000000 22441.00000000 22442.00000000
5277 22443.00000000 22444.00000000 22445.00000000
5278 22446.00000000 22447.00000000 22448.00000000
5279 22449.00000000 22450.00000000 22451.00000000
5280 22452.00000000 22453.00000000 22454.00000000
5281 22455.00000000 22456.00000000 22457.00000000
5282 22458.00000000 22459.00000000 22460.00000000
5283 22461.00000000 22462.00000000 22463.00000000
5284 22464.00000000 22465.00000000 22466.00000000
5285 22467.00000000 22468.00000000 22469.00000000
5286 22470.00000000 22471.00000000 22472.00000000
5287 22491.00000000 22492.00000000 22493.00000000
5288 22494.00000000 22495.00000000 22496.00000000
5289 22497.00000000 22498.00000000 22499.00000000
5290 22509.00000000 22510.00000000 22511.00000000
5291 22512.00000000 22513.00000000 22514.00000000
5292 22515.00000000 22516.00000000 22517.00000000
5293 22518.00000000 22519.00000000 22520.00000000
5294 22521.00000000 22522.00000000 22523.00000000
5295 22524.00000000 22525.00000000 22526.00000000
5296 22527.00000000 22528.00000000 22529.00000000
5297 22530.00000000 22531.00000000 22532.00000000
5298 22533.00000000 22534.00000000 22535.00000000
5299 22536.00000000 22537.00000000 22538.00000000
5300 22539.00000000 22540.00000000 22541.00000000
5301 22542.00000000 22543.00000000 22544.00000000
5302 22545.00000000 22546.00000000 22547.00000000
5303 22548.00000000 22549.00000000 22550.00000000
5304 22551.00000000 22552.00000000 22553.00000000
5305 22572.00000000 22573.00000000 22574.00000000
5306 22575.00000000 22576.00000000 22577.00000000
5307 22578.00000000 22579.00000000 22580.00000000
5308 22590.00000000 22591.00000000 22592.00000000
5309 22593.00000000 22594.00000000 22595.00000000
5310 22596.00000000 22597.00000000 22598.00000000
5311 22599.00000000 22600.00000000 22601.00000000
5312 22602.00000000 22603.00000000 22604.00000000
5313 22605.00000000 22606.00000000 22607.00000000
5314 22617.00000000 22618.00000000 22619.00000000
5315 22620.00000000 22621.00000000 22622.00000000
5316 22623.00000000 22624.00000000 22625.00000000
5317 22644.00000000 22645.00000000 22646.00000000
5318 22647.00000000 22648.00000000 22649.00000000
5319 22650.00000000 22651.00000000 22652.00000000
5320 22653.00000000 22654.00000000 22655.00000000
5321 22656.00000000 22657.00000000 22658.00000000
5322 22659.00000000 22660.00000000 22661.00000000
5323 22662.00000000 22663.00000000 22664.00000000
5324 22665.00000000 22666.00000000 22667.00000000
5325 22668.00000000 22669.00000000 22670.00000000
5326 22671.00000000 22672.00000000 22673.00000000
5327 22674.00000000 22675.00000000 22676.00000000
5328 22677.00000000 22678.00000000 22679.00000000
5329 22680.00000000 22681.00000000 22682.00000000
5330 22683.00000000 22684.00000000 22685.00000000
5331 22686.00000000 22687.00000000 22688.00000000
5332 22698.00000000 22699.00000000 22700.00000000
5333 22701.00000000 22702.00000000 22703.00000000
5334 22704.00000000 22705.00000000 22706.00000000
5335 22725.00000000 22726.00000000 22727.00000000
5336 22728.00000000 22729.00000000 22730.00000000
5337 22731.00000000 22732.00000000 22733.00000000
5338 22734.00000000 22735.00000000 22736.00000000
5339 22737.00000000 22738.00000000 22739.00000000
5340 22740.00000000 22741.00000000 22742.00000000
5341 22743.00000000 22744.00000000 22745.00000000
5342 22746.00000000 22747.00000000 22748.00000000
5343 22749.00000000 22750.00000000 22751.00000000
5344 22752.00000000 22753.00000000 22754.00000000
5345 22755.00000000 22756.00000000 22757.00000000
5346 22758.00000000 22759.00000000 22760.00000000
5347 22761.00000000 22762.00000000 22763.00000000
5348 22764.00000000 22765.00000000 22766.00000000
5349 22767.00000000 22768.00000000 22769.00000000
5350 22779.00000000 22780.00000000 22781.00000000
5351 22782.00000000 22783.00000000 22784.00000000
5352 22785.00000000 22786.00000000 22787.00000000
5353 22806.00000000 22807.00000000 22808.00000000
5354 22809.00000000 22810.00000000 22811.00000000
5355 22812.00000000 22813.00000000 22814.00000000
5356 22815.00000000 22816.00000000 22817.00000000
5357 22818.00000000 22819.00000000 22820.00000000
5358 22821.00000000 22822.00000000 22823.00000000
5359 22824.00000000 22825.00000000 22826.00000000
5360 22827.00000000 22828.00000000 22829.00000000
5361 22830.00000000 22831.00000000 22832.00000000
5362 22833.00000000 22834.00000000 22835.00000000
5363 22836.00000000 22837.00000000 22838.00000000
5364 22839.00000000 22840.00000000 22841.00000000
5365 22860.00000000 22861.00000000 22862.00000000
5366 22863.00000000 22864.00000000 22865.00000000
5367 22866.00000000 22867.00000000 22868.00000000
5368 22887.00000000 22888.00000000 22889.00000000
5369 22890.00000000 22891.00000000 22892.00000000
5370 22893.00000000 22894.00000000 22895.00000000
5371 22896.00000000 22897.00000000 22898.00000000
5372 22899.00000000 22900.00000000 22901.00000000
5373 22902.00000000 22903.00000000 22904.00000000
5374 22905.00000000 22906.00000000 22907.00000000
5375 22908.00000000 22909.00000000 22910.00000000
5376 22911.00000000 22912.00000000 22913.00000000
5377 22914.00000000 22915.00000000 22916.00000000
5378 22917.00000000 22918.00000000 22919.00000000
5379 22920.00000000 22921.00000000 22922.00000000
5380 22941.00000000 22942.00000000 22943.00000000
5381 22944.00000000 22945.00000000 22946.00000000
5382 22947.00000000 22948.00000000 22949.00000000
5383 22968.00000000 22969.00000000 22970.00000000
5384 22971.00000000 22972.00000000 22973.00000000
5385 22974.00000000 22975.00000000 22976.00000000
5386 22977.00000000 22978.00000000 22979.00000000
5387 22980.00000000 22981.00000000 22982.00000000
5388 22983.00000000 22984.00000000 22985.00000000
5389 22986.00000000 22987.00000000 22988.00000000
5390 22989.00000000 22990.00000000 22991.00000000
5391 22992.00000000 22993.00000000 22994.00000000
5392 22995.00000000 22996.00000000 22997.00000000
5393 22998.00000000 22999.00000000 23000.00000000
5394 23001.00000000 23002.00000000 23003.00000000
5395 23022.00000000 23023.00000000 23024.00000000
5396 23025.00000000 23026.00000000 23027.00000000
5397 23028.00000000 23029.00000000 23030.00000000
5398 23049.00000000 23050.00000000 23051.00000000
5399 23052.00000000 23053.00000000 23054.00000000
5400 23055.00000000 23056.00000000 23057.00000000
5401 23058.00000000 23059.00000000 23060.00000000
5402 23061.00000000 23062.00000000 23063.00000000
5403 23064.00000000 23065.00000000 23066.00000000
5404 23067.00000000 23068.00000000 23069.00000000
5405 23070.00000000 23071.00000000 23072.00000000
5406 23073.00000000 23074.00000000 23075.00000000
5407 23076.00000000 23077.00000000 23078.00000000
5408 23079.00000000 23080.00000000 23081.00000000
5409 23082.00000000 23083.00000000 23084.00000000
5410 23085.00000000 23086.00000000 23087.00000000
5411 23088.00000000 23089.00000000 23090.00000000
5412 23091.00000000 23092.00000000 23093.00000000
5413 23094.00000000 23095.00000000 23096.00000000
5414 23097.00000000 23098.00000000 23099.00000000
5415 23100.00000000 23101.00000000 23102.00000000
5416 23103.00000000 23104.00000000 23105.00000000
5417 23106.00000000 23107.00000000 23108.00000000
5418 23109.00000000 23110.00000000 23111.00000000
5419 23130.00000000 23131.00000000 23132.00000000
5420 23133.00000000 23134.00000000 23135.00000000
5421 23136.00000000 23137.00000000 23138.00000000
5422 23157.00000000 23158.00000000 23159.00000000
5423 23160.00000000 23161.00000000 23162.00000000
5424 23163.00000000 23164.00000000 23165.00000000
5425 23166.00000000 23167.00000000 23168.00000000
5426 23169.00000000 23170.00000000 23171.00000000
5427 23172.00000000 23173.00000000 23174.00000000
5428 23175.00000000 23176.00000000 23177.00000000
5429 23178.00000000 23179.00000000 23180.00000000
5430 23181.00000000 23182.00000000 23183.00000000
5431 23184.00000000 23185.00000000 23186.00000000
5432 23187.00000000 23188.00000000 23189.00000000
5433 23190.00000000 23191.00000000 23192.00000000
5434 23211.00000000 23212.00000000 23213.00000000
5435 23214.00000000 23215.00000000 23216.00000000
5436 23217.00000000 23218.00000000 23219.00000000
5437 23238.00000000 23239.00000000 23240.00000000
5438 23241.00000000 23242.00000000 23243.00000000
5439 23244.00000000 23245.00000000 23246.00000000
5440 23247.00000000 23248.00000000 23249.00000000
5441 23250.00000000 23251.00000000 23252.00000000
5442 23253.00000000 23254.00000000 23255.00000000
5443 23256.00000000 23257.00000000 23258.00000000
5444 23259.00000000 23260.00000000 23261.00000000
5445 23262.00000000 23263.00000000 23264.00000000
5446 23265.00000000 23266.00000000 23267.00000000
5447 23268.00000000 23269.00000000 23270.00000000
5448 23271.00000000 23272.00000000 23273.00000000
5449 23292.00000000 23293.00000000 23294.00000000
5450 23295.00000000 23296.00000000 23297.00000000
5451 23298.00000000 23299.00000000 23300.00000000
5452 23319.00000000 23320.00000000 23321.00000000
5453 23322.00000000 23323.00000000 23324.00000000
5454 23325.00000000 23326.00000000 23327.00000000
5455 23328.00000000 23329.00000000 23330.00000000
5456 23331.00000000 23332.00000000 23333.00000000
5457 23334.00000000 23335.00000000 23336.00000000
5458 23337.00000000 23338.00000000 23339.00000000
5459 23340.00000000 23341.00000000 23342.00000000
5460 23343.00000000 23344.00000000 23345.00000000
5461 23346.00000000 23347.00000000 23348.00000000
5462 23349.00000000 23350.00000000 23351.00000000
5463 23352.00000000 23353.00000000 23354.00000000
5464 23355.00000000 23356.00000000 23357.00000000
5465 23358.00000000 23359.00000000 23360.00000000
5466 23361.00000000 23362.00000000 23363.00000000
5467 23382.00000000 23383.00000000 23384.00000000
5468 23385.00000000 23386.00000000 23387.00000000
5469 23388.00000000 23389.00000000 23390.00000000
5470 23409.00000000 23410.00000000 23411.00000000
5471 23412.00000000 23413.00000000 23414.00000000
5472 23415.00000000 23416.00000000 23417.00000000
5473 23418.00000000 23419.00000000 23420.00000000
5474 23421.00000000 23422.00000000 23423.00000000
5475 23424.00000000 23425.00000000 23426.00000000
5476 23427.00000000 23428.00000000 23429.00000000
5477 23430.00000000 23431.00000000 23432.00000000
5478 23433.00000000 23434.00000000 23435.00000000
5479 23436.00000000 23437.00000000 23438.00000000
5480 23439.00000000 23440.00000000 23441.00000000
5481 23442.00000000 23443.00000000 23444.00000000
5482 23463.00000000 23464.00000000 23465.00000000
5483 23466.00000000 23467.00000000 23468.00000000
5484 23469.00000000 23470.00000000 23471.00000000
5485 23490.00000000 23491.00000000 23492.00000000
5486 23493.00000000 23494.00000000 23495.00000000
5487 23496.00000000 23497.00000000 23498.00000000
5488 23499.00000000 23500.00000000 23501.00000000
5489 23502.00000000 23503.00000000 23504.00000000
5490 23505.00000000 23506.00000000 23507.00000000
5491 23508.00000000 23509.00000000 23510.00000000
5492 23511.00000000 23512.00000000 23513.00000000
5493 23514.00000000 23515.00000000 23516.00000000
5494 23517.00000000 23518.00000000 23519.00000000
5495 23520.00000000 23521.00000000 23522.00000000
5496 23523.00000000 23524.00000000 23525.00000000
5497 23544.00000000 23545.00000000 23546.00000000
5498 23547.00000000 23548.00000000 23549.00000000
5499 23550.00000000 23551.00000000 23552.00000000
5500 23571.00000000 23572.00000000 23573.00000000
5501 23574.00000000 23575.00000000 23576.00000000
5502 23577.00000000 23578.00000000 23579.00000000
5503 23580.00000000 23581.00000000 23582.00000000
5504 23583.00000000 23584.00000000 23585.00000000
5505 23586.00000000 23587.00000000 23588.00000000
5506 23589.00000000 23590.00000000 23591.00000000
5507 23592.00000000 23593.00000000 23594.00000000
5508 23595.00000000 23596.00000000 23597.00000000
5509 23598.00000000 23599.00000000 23600.00000000
5510 23601.00000000 23602.00000000 23603.00000000
5511 23604.00000000 23605.00000000 23606.00000000
5512 23625.00000000 23626.00000000 23627.00000000
5513 23628.00000000 23629.00000000 23630.00000000
5514 23631.00000000 23632.00000000 23633.00000000
5515 23643.00000000 23644.00000000 23645.00000000
5516 23646.00000000 23647.00000000 23648.00000000
5517 23649.00000000 23650.00000000 23651.00000000
5518 23652.00000000 23653.00000000 23654.00000000
5519 23655.00000000 23656.00000000 23657.00000000
5520 23658.00000000 23659.00000000 23660.00000000
5521 23661.00000000 23662.00000000 23663.00000000
5522 23664.00000000 23665.00000000 23666.00000000
5523 23667.00000000 23668.00000000 23669.00000000
5524 23670.00000000 23671.00000000 23672.00000000
5525 23673.00000000 23674.00000000 23675.00000000
5526 23676.00000000 23677.00000000 23678.00000000
5527 23679.00000000 23680.00000000 23681.00000000
5528 23682.00000000 23683.00000000 23684.00000000
5529 23685.00000000 23686.00000000 23687.00000000
5530 23706.00000000 23707.00000000 23708.00000000
5531 23709.00000000 23710.00000000 23711.00000000
5532 23712.00000000 23713.00000000 23714.00000000
5533 23724.00000000 23725.00000000 23726.00000000
5534 23727.00000000 23728.00000000 23729.00000000
5535 23730.00000000 23731.00000000 23732.00000000
5536 23733.00000000 23734.00000000 23735.00000000
5537 23736.00000000 23737.00000000 23738.00000000
5538 23739.00000000 23740.00000000 23741.00000000
5539 23742.00000000 23743.00000000 23744.00000000
5540 23745.00000000 23746.00000000 23747.00000000
5541 23748.00000000 23749.00000000 23750.00000000
5542 23751.00000000 23752.00000000 23753.00000000
5543 23754.00000000 23755.00000000 23756.00000000
5544 23757.00000000 23758.00000000 23759.00000000
5545 23760.00000000 23761.00000000 23762.00000000
5546 23763.00000000 23764.00000000 23765.00000000
5547 23766.00000000 23767.00000000 23768.00000000
5548 23787.00000000 23788.00000000 23789.00000000
5549 23790.00000000 23791.00000000 23792.00000000
5550 23793.00000000 23794.00000000 23795.00000000
5551 23805.00000000 23806.00000000 23807.00000000
5552 23808.00000000 23809.00000000 23810.00000000
5553 23811.00000000 23812.00000000 23813.00000000
5554 23814.00000000 23815.00000000 23816.00000000
5555 23817.00000000 23818.00000000 23819.00000000
5556 23820.00000000 23821.00000000 23822.00000000
5557 23823.00000000 23824.00000000 23825.00000000
5558 23826.00000000 23827.00000000 23828.00000000
5559 23829.00000000 23830.00000000 23831.00000000
5560 23832.00000000 23833.00000000 23834.00000000
5561 23835.00000000 23836.00000000 23837.00000000
5562 23838.00000000 23839.00000000 23840.00000000
5563 23841.00000000 23842.00000000 23843.00000000
5564 23844.00000000 23845.00000000 23846.00000000
5565 23847.00000000 23848.00000000 23849.00000000
5566 23868.00000000 23869.00000000 23870.00000000
5567 23871.00000000 23872.00000000 23873.00000000
5568 23874.00000000 23875.00000000 23876.00000000
5569 23886.00000000 23887.00000000 23888.00000000
5570 23889.00000000 23890.00000000 23891.00000000
5571 23892.00000000 23893.00000000 23894.00000000
5572 23895.00000000 23896.00000000 23897.00000000
5573 23898.00000000 23899.00000000 23900.00000000
5574 23901.00000000 23902.00000000 23903.00000000
5575 23904.00000000 23905.00000000 23906.00000000
5576 23907.00000000 23908.00000000 23909.00000000
5577 23910.00000000 23911.00000000 23912.00000000
5578 23913.00000000 23914.00000000 23915.00000000
5579 23916.00000000 23917.00000000 23918.00000000
5580 23919.00000000 23920.00000000 23921.00000000
5581 23922.00000000 23923.00000000 23924.00000000
5582 23925.00000000 23926.00000000 23927.00000000
5583 23928.00000000 23929.00000000 23930.00000000
5584 23949.00000000 23950.00000000 23951.00000000
5585 23952.00000000 23953.00000000 23954.00000000
5586 23955.00000000 23956.00000000 23957.00000000
5587 23967.00000000 23968.00000000 23969.00000000
5588 23970.00000000 23971.00000000 23972.00000000
5589 23973.00000000 23974.00000000 23975.00000000
5590 23976.00000000 23977.00000000 23978.00000000
5591 23979.00000000 23980.00000000 23981.00000000
5592 23982.00000000 23983.00000000 23984.00000000
5593 23985.00000000 23986.00000000 23987.00000000
5594 23988.00000000 23989.00000000 23990.00000000
5595 23991.00000000 23992.00000000 23993.00000000
5596 23994.00000000 23995.00000000 23996.00000000
5597 23997.00000000 23998.00000000 23999.00000000
5598 24000.00000000 24001.00000000 24002.00000000
5599 24003.00000000 24004.00000000 24005.00000000
5600 24006.00000000 24007.00000000 24008.00000000
5601 24009.00000000 24010.00000000 24011.00000000
5602 24030.00000000 24031.00000000 24032.00000000
5603 24033.00000000 24034.00000000 24035.00000000
5604 24036.00000000 24037.00000000 24038.00000000
5605 24048.00000000 24049.00000000 24050.00000000
5606 24051.00000000 24052.00000000 24053.00000000
5607 24054.00000000 24055.00000000 24056.00000000
5608 24057.00000000 24058.00000000 24059.00000000
5609 24060.00000000 24061.00000000 24062.00000000
5610 24063.00000000 24064.00000000 24065.00000000
5611 24066.00000000 24067.00000000 24068.00000000
5612 24069.00000000 24070.00000000 24071.00000000
5613 24072.00000000 24073.00000000 24074.00000000
5614 24075.00000000 24076.00000000 24077.00000000
5615 24078.00000000 24079.00000000 24080.00000000
5616 24081.00000000 24082.00000000 24083.00000000
5617 24102.00000000 24103.00000000 24104.00000000
5618 24105.00000000 24106.00000000 24107.00000000
5619 24108.00000000 24109.00000000 24110.00000000
5620 24111.00000000 24112.00000000 24113.00000000
5621 24114.00000000 24115.00000000 24116.00000000
5622 24117.00000000 24118.00000000 24119.00000000
5623 24129.00000000 24130.00000000 24131.00000000
5624 24132.00000000 24133.00000000 24134.00000000
5625 24135.00000000 24136.00000000 24137.00000000
5626 24138.00000000 24139.00000000 24140.00000000
5627 24141.00000000 24142.00000000 24143.00000000
5628 24144.00000000 24145.00000000 24146.00000000
5629 24147.00000000 24148.00000000 24149.00000000
5630 24150.00000000 24151.00000000 24152.00000000
5631 24153.00000000 24154.00000000 24155.00000000
5632 24156.00000000 24157.00000000 24158.00000000
5633 24159.00000000 24160.00000000 24161.00000000
5634 24162.00000000 24163.00000000 24164.00000000
5635 24183.00000000 24184.00000000 24185.00000000
5636 24186.00000000 24187.00000000 24188.00000000
5637 24189.00000000 24190.00000000 24191.00000000
5638 24192.00000000 24193.00000000 24194.00000000
5639 24195.00000000 24196.00000000 24197.00000000
5640 24198.00000000 24199.00000000 24200.00000000
5641 24210.00000000 24211.00000000 24212.00000000
5642 24213.00000000 24214.00000000 24215.00000000
5643 24216.00000000 24217.00000000 24218.00000000
5644 24219.00000000 24220.00000000 24221.00000000
5645 24222.00000000 24223.00000000 24224.00000000
5646 24225.00000000 24226.00000000 24227.00000000
5647 24228.00000000 24229.00000000 24230.00000000
5648 24231.00000000 24232.00000000 24233.00000000
5649 24234.00000000 24235.00000000 24236.00000000
5650 24237.00000000 24238.00000000 24239.00000000
5651 24240.00000000 24241.00000000 24242.00000000
5652 24243.00000000 24244.00000000 24245.00000000
5653 24264.00000000 24265.00000000 24266.00000000
5654 24267.00000000 24268.00000000 24269.00000000
5655 24270.00000000 24271.00000000 24272.00000000
5656 24273.00000000 24274.00000000 24275.00000000
5657 24276.00000000 24277.00000000 24278.00000000
5658 24279.00000000 24280.00000000 24281.00000000
5659 24291.00000000 24292.00000000 24293.00000000
5660 24294.00000000 24295.00000000 24296.00000000
5661 24297.00000000 24298.00000000 24299.00000000
5662 24300.00000000 24301.00000000 24302.00000000
5663 24303.00000000 24304.00000000 24305.00000000
5664 24306.00000000 24307.00000000 24308.00000000
5665 24309.00000000 24310.00000000 24311.00000000
5666 24312.00000000 24313.00000000 24314.00000000
5667 24315.00000000 24316.00000000 24317.00000000
5668 24318.00000000 24319.00000000 24320.00000000
5669 24321.00000000 24322.00000000 24323.00000000
5670 24324.00000000 24325.00000000 24326.00000000
5671 24327.00000000 24328.00000000 24329.00000000
5672 24330.00000000 24331.00000000 24332.00000000
5673 24333.00000000 24334.00000000 24335.00000000
5674 24354.00000000 24355.00000000 24356.00000000
5675 24357.00000000 24358.00000000 24359.00000000
5676 24360.00000000 24361.00000000 24362.00000000
5677 24363.00000000 24364.00000000 24365.00000000
5678 24366.00000000 24367.00000000 24368.00000000
5679 24369.00000000 24370.00000000 24371.00000000
5680 24372.00000000 24373.00000000 24374.00000000
5681 24375.00000000 24376.00000000 24377.00000000
5682 24378.00000000 24379.00000000 24380.00000000
5683 24381.00000000 24382.00000000 24383.00000000
5684 24384.00000000 24385.00000000 24386.00000000
5685 24387.00000000 24388.00000000 24389.00000000
5686 24390.00000000 24391.00000000 24392.00000000
5687 24393.00000000 24394.00000000 24395.00000000
5688 24396.00000000 24397.00000000 24398.00000000
5689 24399.00000000 24400.00000000 24401.00000000
5690 24402.00000000 24403.00000000 24404.00000000
5691 24405.00000000 24406.00000000 24407.00000000
5692 24408.00000000 24409.00000000 24410.00000000
5693 24411.00000000 24412.00000000 24413.00000000
5694 24414.00000000 24415.00000000 24416.00000000
5695 24435.00000000 24436.00000000 24437.00000000
5696 24438.00000000 24439.00000000 24440.00000000
5697 24441.00000000 24442.00000000 24443.00000000
5698 24444.00000000 24445.00000000 24446.00000000
5699 24447.00000000 24448.00000000 24449.00000000
5700 24450.00000000 24451.00000000 24452.00000000
5701 24453.00000000 24454.00000000 24455.00000000
5702 24456.00000000 24457.00000000 24458.00000000
5703 24459.00000000 24460.00000000 24461.00000000
5704 24462.00000000 24463.00000000 24464.00000000
5705 24465.00000000 24466.00000000 24467.00000000
5706 24468.00000000 24469.00000000 24470.00000000
5707 24471.00000000 24472.00000000 24473.00000000
5708 24474.00000000 24475.00000000 24476.00000000
5709 24477.00000000 24478.00000000 24479.00000000
5710 24480.00000000 24481.00000000 24482.00000000
5711 24483.00000000 24484.00000000 24485.00000000
5712 24486.00000000 24487.00000000 24488.00000000
5713 24489.00000000 24490.00000000 24491.00000000
5714 24492.00000000 24493.00000000 24494.00000000
5715 24495.00000000 24496.00000000 24497.00000000
5716 24516.00000000 24517.00000000 24518.00000000
5717 24519.00000000 24520.00000000 24521.00000000
5718 24522.00000000 24523.00000000 24524.00000000
5719 24525.00000000 24526.00000000 24527.00000000
5720 24528.00000000 24529.00000000 24530.00000000
5721 24531.00000000 24532.00000000 24533.00000000
5722 24534.00000000 24535.00000000 24536.00000000
5723 24537.00000000 24538.00000000 24539.00000000
5724 24540.00000000 24541.00000000 24542.00000000
5725 24543.00000000 24544.00000000 24545.00000000
5726 24546.00000000 24547.00000000 24548.00000000
5727 24549.00000000 24550.00000000 24551.00000000
5728 24552.00000000 24553.00000000 24554.00000000
5729 24555.00000000 24556.00000000 24557.00000000
5730 24558.00000000 24559.00000000 24560.00000000
5731 24561.00000000 24562.00000000 24563.00000000
5732 24564.00000000 24565.00000000 24566.00000000
5733 24567.00000000 24568.00000000 24569.00000000
5734 24570.00000000 24571.00000000 24572.00000000
5735 24573.00000000 24574.00000000 24575.00000000
5736 24576.00000000 24577.00000000 24578.00000000
5737 24597.00000000 24598.00000000 24599.00000000
5738 24600.00000000 24601.00000000 24602.00000000
5739 24603.00000000 24604.00000000 24605.00000000
5740 24606.00000000 24607.00000000 24608.00000000
5741 24609.00000000 24610.00000000 24611.00000000
5742 24612.00000000 24613.00000000 24614.00000000
5743 24615.00000000 24616.00000000 24617.00000000
5744 24618.00000000 24619.00000000 24620.00000000
5745 24621.00000000 24622.00000000 24623.00000000
5746 24624.00000000 24625.00000000 24626.00000000
5747 24627.00000000 24628.00000000 24629.00000000
5748 24630.00000000 24631.00000000 24632.00000000
5749 24633.00000000 24634.00000000 24635.00000000
5750 24636.00000000 24637.00000000 24638.00000000
5751 24639.00000000 24640.00000000 24641.00000000
5752 24642.00000000 24643.00000000 24644.00000000
5753 24645.00000000 24646.00000000 24647.00000000
5754 24648.00000000 24649.00000000 24650.00000000
5755 24651.00000000 24652.00000000 24653.00000000
5756 24654.00000000 24655.00000000 24656.00000000
5757 24657.00000000 24658.00000000 24659.00000000
5758 24678.00000000 24679.00000000 24680.00000000
5759 24681.00000000 24682.00000000 24683.00000000
5760 24684.00000000 24685.00000000 24686.00000000
5761 24687.00000000 24688.00000000 24689.00000000
5762 24690.00000000 24691.00000000 24692.00000000
5763 24693.00000000 24694.00000000 24695.00000000
5764 24696.00000000 24697.00000000 24698.00000000
5765 24699.00000000 24700.00000000 24701.00000000
5766 24702.00000000 24703.00000000 24704.00000000
5767 24705.00000000 24706.00000000 24707.00000000
5768 24708.00000000 24709.00000000 24710.00000000
5769 24711.00000000 24712.00000000 24713.00000000
5770 24714.00000000 24715.00000000 24716.00000000
5771 24717.00000000 24718.00000000 24719.00000000
5772 24720.00000000 24721.00000000 24722.00000000
5773 24723.00000000 24724.00000000 24725.00000000
5774 24726.00000000 24727.00000000 24728.00000000
5775 24729.00000000 24730.00000000 24731.00000000
5776 24732.00000000 24733.00000000 24734.00000000
5777 24735.00000000 24736.00000000 24737.00000000
5778 24738.00000000 24739.00000000 24740.00000000
5779 24759.00000000 24760.00000000 24761.00000000
5780 24762.00000000 24763.00000000 24764.00000000
5781 24765.00000000 24766.00000000 24767.00000000
5782 24768.00000000 24769.00000000 24770.00000000
5783 24771.00000000 24772.00000000 24773.00000000
5784 24774.00000000 24775.00000000 24776.00000000
5785 24777.00000000 24778.00000000 24779.00000000
5786 24780.00000000 24781.00000000 24782.00000000
5787 24783.00000000 24784.00000000 24785.00000000
5788 24786.00000000 24787.00000000 24788.00000000
5789 24789.00000000 24790.00000000 24791.00000000
5790 24792.00000000 24793.00000000 24794.00000000
5791 24795.00000000 24796.00000000 24797.00000000
5792 24798.00000000 24799.00000000 24800.00000000
5793 24801.00000000 24802.00000000 24803.00000000
5794 24804.00000000 24805.00000000 24806.00000000
5795 24807.00000000 24808.00000000 24809.00000000
5796 24810.00000000 24811.00000000 24812.00000000
5797 24831.00000000 24832.00000000 24833.00000000
5798 24834.00000000 24835.00000000 24836.00000000
5799 24837.00000000 24838.00000000 24839.00000000
5800 24840.00000000 24841.00000000 24842.00000000
5801 24843.00000000 24844.00000000 24845.00000000
5802 24846.00000000 24847.00000000 24848.00000000
5803 24858.00000000 24859.00000000 24860.00000000
5804 24861.00000000 24862.00000000 24863.00000000
5805 24864.00000000 24865.00000000 24866.00000000
5806 24867.00000000 24868.00000000 24869.00000000
5807 24870.00000000 24871.00000000 24872.00000000
5808 24873.00000000 24874.00000000 24875.00000000
5809 24876.00000000 24877.00000000 24878.00000000
5810 24879.00000000 24880.00000000 24881.00000000
5811 24882.00000000 24883.00000000 24884.00000000
5812 24885.00000000 24886.00000000 24887.00000000
5813 24888.00000000 24889.00000000 24890.00000000
5814 24891.00000000 24892.00000000 24893.00000000
5815 24912.00000000 24913.00000000 24914.00000000
5816 24915.00000000 24916.00000000 24917.00000000
5817 24918.00000000 24919.00000000 24920.00000000
5818 24921.00000000 24922.00000000 24923.00000000
5819 24924.00000000 24925.00000000 24926.00000000
5820 24927.00000000 24928.00000000 24929.00000000
5821 24939.00000000 24940.00000000 24941.00000000
5822 24942.00000000 24943.00000000 24944.00000000
5823 24945.00000000 24946.00000000 24947.00000000
5824 24948.00000000 24949.00000000 24950.00000000
5825 24951.00000000 24952.00000000 24953.00000000
5826 24954.00000000 24955.00000000 24956.00000000
5827 24957.00000000 24958.00000000 24959.00000000
5828 24960.00000000 24961.00000000 24962.00000000
5829 24963.00000000 24964.00000000 24965.00000000
5830 24966.00000000 24967.00000000 24968.00000000
5831 24969.00000000 24970.00000000 24971.00000000
5832 24972.00000000 24973.00000000 24974.00000000
5833 24993.00000000 24994.00000000 24995.00000000
5834 24996.00000000 24997.00000000 24998.00000000
5835 24999.00000000 25000.00000000 25001.00000000
5836 25002.00000000 25003.00000000 25004.00000000
5837 25005.00000000 25006.00000000 25007.00000000
5838 25008.00000000 25009.00000000 25010.00000000
5839 25020.00000000 25021.00000000 25022.00000000
5840 25023.00000000 25024.00000000 25025.00000000
5841 25026.00000000 25027.00000000 25028.00000000
5842 25029.00000000 25030.00000000 25031.00000000
5843 25032.00000000 25033.00000000 25034.00000000
5844 25035.00000000 25036.00000000 25037.00000000
5845 25038.00000000 25039.00000000 25040.00000000
5846 25041.00000000 25042.00000000 25043.00000000
5847 25044.00000000 25045.00000000 25046.00000000
5848 25047.00000000 25048.00000000 25049.00000000
5849 25050.00000000 25051.00000000 25052.00000000
5850 25053.00000000 25054.00000000 25055.00000000
5851 25074.00000000 25075.00000000 25076.00000000
5852 25077.00000000 25078.00000000 25079.00000000
5853 25080.00000000 25081.00000000 25082.00000000
5854 25101.00000000 25102.00000000 25103.00000000
5855 25104.00000000 25105.00000000 25106.00000000
5856 25107.00000000 25108.00000000 25109.00000000
5857 25110.00000000 25111.00000000 25112.00000000
5858 25113.00000000 25114.00000000 25115.00000000
5859 25116.00000000 25117.00000000 25118.00000000
5860 25119.00000000 25120.00000000 25121.00000000
5861 25122.00000000 25123.00000000 25124.00000000
5862 25125.00000000 25126.00000000 25127.00000000
5863 25128.00000000 25129.00000000 25130.00000000
5864 25131.00000000 25132.00000000 25133.00000000
5865 25134.00000000 25135.00000000 25136.00000000
5866 25155.00000000 25156.00000000 25157.00000000
5867 25158.00000000 25159.00000000 25160.00000000
5868 25161.00000000 25162.00000000 25163.00000000
5869 25182.00000000 25183.00000000 25184.00000000
5870 25185.00000000 25186.00000000 25187.00000000
5871 25188.00000000 25189.00000000 25190.00000000
5872 25191.00000000 25192.00000000 25193.00000000
5873 25194.00000000 25195.00000000 25196.00000000
5874 25197.00000000 25198.00000000 25199.00000000
5875 25200.00000000 25201.00000000 25202.00000000
5876 25203.00000000 25204.00000000 25205.00000000
5877 25206.00000000 25207.00000000 25208.00000000
5878 25209.00000000 25210.00000000 25211.00000000
5879 25212.00000000 25213.00000000 25214.00000000
5880 25215.00000000 25216.00000000 25217.00000000
5881 25236.00000000 25237.00000000 25238.00000000
5882 25239.00000000 25240.00000000 25241.00000000
5883 25242.00000000 25243.00000000 25244.00000000
5884 25263.00000000 25264.00000000 25265.00000000
5885 25266.00000000 25267.00000000 25268.00000000
5886 25269.00000000 25270.00000000 25271.00000000
5887 25272.00000000 25273.00000000 25274.00000000
5888 25275.00000000 25276.00000000 25277.00000000
5889 25278.00000000 25279.00000000 25280.00000000
5890 25299.00000000 25300.00000000 25301.00000000
5891 25302.00000000 25303.00000000 25304.00000000
5892 25305.00000000 25306.00000000 25307.00000000
5893 25326.00000000 25327.00000000 25328.00000000
5894 25329.00000000 25330.00000000 25331.00000000
5895 25332.00000000 25333.00000000 25334.00000000
5896 25335.00000000 25336.00000000 25337.00000000
5897 25338.00000000 25339.00000000 25340.00000000
5898 25341.00000000 25342.00000000 25343.00000000
5899 25344.00000000 25345.00000000 25346.00000000
5900 25347.00000000 25348.00000000 25349.00000000
5901 25350.00000000 25351.00000000 25352.00000000
5902 25353.00000000 25354.00000000 25355.00000000
5903 25356.00000000 25357.00000000 25358.00000000
5904 25359.00000000 25360.00000000 25361.00000000
5905 25380.00000000 25381.00000000 25382.00000000
5906 25383.00000000 25384.00000000 25385.00000000
5907 25386.00000000 25387.00000000 25388.00000000
5908 25407.00000000 25408.00000000 25409.00000000
5909 25410.00000000 25411.00000000 25412.00000000
5910 25413.00000000 25414.00000000 25415.00000000
5911 25416.00000000 25417.00000000 25418.00000000
5912 25419.00000000 25420.00000000 25421.00000000
5913 25422.00000000 25423.00000000 25424.00000000
5914 25425.00000000 25426.00000000 25427.00000000
5915 25428.00000000 25429.00000000 25430.00000000
5916 25431.00000000 25432.00000000 25433.00000000
5917 25434.00000000 25435.00000000 25436.00000000
5918 25437.00000000 25438.00000000 25439.00000000
5919 25440.00000000 25441.00000000 25442.00000000
5920 25461.00000000 25462.00000000 25463.00000000
5921 25464.00000000 25465.00000000 25466.00000000
5922 25467.00000000 25468.00000000 25469.00000000
5923 25488.00000000 25489.00000000 25490.00000000
5924 25491.00000000 25492.00000000 25493.00000000
5925 25494.00000000 25495.00000000 25496.00000000
5926 25497.00000000 25498.00000000 25499.00000000
5927 25500.00000000 25501.00000000 25502.00000000
5928 25503.00000000 25504.00000000 25505.00000000
5929 25506.00000000 25507.00000000 25508.00000000
5930 25509.00000000 25510.00000000 25511.00000000
5931 25512.00000000 25513.00000000 25514.00000000
5932 25515.00000000 25516.00000000 25517.00000000
5933 25518.00000000 25519.00000000 25520.00000000
5934 25521.00000000 25522.00000000 25523.00000000
5935 25533.00000000 25534.00000000 25535.00000000
5936 25536.00000000 25537.00000000 25538.00000000
5937 25539.00000000 25540.00000000 25541.00000000
5938 25542.00000000 25543.00000000 25544.00000000
5939 25545.00000000 25546.00000000 25547.00000000
5940 25548.00000000 25549.00000000 25550.00000000
5941 25569.00000000 25570.00000000 25571.00000000
5942 25572.00000000 25573.00000000 25574.00000000
5943 25575.00000000 25576.00000000 25577.00000000
5944 25578.00000000 25579.00000000 25580.00000000
5945 25581.00000000 25582.00000000 25583.00000000
5946 25584.00000000 25585.00000000 25586.00000000
5947 25587.00000000 25588.00000000 25589.00000000
5948 25590.00000000 25591.00000000 25592.00000000
5949 25593.00000000 25594.00000000 25595.00000000
5950 25596.00000000 25597.00000000 25598.00000000
5951 25599.00000000 25600.00000000 25601.00000000
5952 25602.00000000 25603.00000000 25604.00000000
5953 25614.00000000 25615.00000000 25616.00000000
5954 25617.00000000 25618.00000000 25619.00000000
5955 25620.00000000 25621.00000000 25622.00000000
5956 25623.00000000 25624.00000000 25625.00000000
5957 25626.00000000 25627.00000000 25628.00000000
5958 25629.00000000 25630.00000000 25631.00000000
5959 25650.00000000 25651.00000000 25652.00000000
5960 25653.00000000 25654.00000000 25655.00000000
5961 25656.00000000 25657.00000000 25658.00000000
5962 25659.00000000 25660.00000000 25661.00000000
5963 25662.00000000 25663.00000000 25664.00000000
5964 25665.00000000 25666.00000000 25667.00000000
5965 25668.00000000 25669.00000000 25670.00000000
5966 25671.00000000 25672.00000000 25673.00000000
5967 25674.00000000 25675.00000000 25676.00000000
5968 25677.00000000 25678.00000000 25679.00000000
5969 25680.00000000 25681.00000000 25682.00000000
5970 25683.00000000 25684.00000000 25685.00000000
5971 25695.00000000 25696.00000000 25697.00000000
5972 25698.00000000 25699.00000000 25700.00000000
5973 25701.00000000 25702.00000000 25703.00000000
5974 25704.00000000 25705.00000000 25706.00000000
5975 25707.00000000 25708.00000000 25709.00000000
5976 25710.00000000 25711.00000000 25712.00000000
5977 25731.00000000 25732.00000000 25733.00000000
5978 25734.00000000 25735.00000000 25736.00000000
5979 25737.00000000 25738.00000000 25739.00000000
5980 25740.00000000 25741.00000000 25742.00000000
5981 25743.00000000 25744.00000000 25745.00000000
5982 25746.00000000 25747.00000000 25748.00000000
5983 25749.00000000 25750.00000000 25751.00000000
5984 25752.00000000 25753.00000000 25754.00000000
5985 25755.00000000 25756.00000000 25757.00000000
5986 25758.00000000 25759.00000000 25760.00000000
5987 25761.00000000 25762.00000000 25763.00000000
5988 25764.00000000 25765.00000000 25766.00000000
5989 25767.00000000 25768.00000000 25769.00000000
5990 25770.00000000 25771.00000000 25772.00000000
5991 25773.00000000 25774.00000000 25775.00000000
5992 25776.00000000 25777.00000000 25778.00000000
5993 25779.00000000 25780.00000000 25781.00000000
5994 25782.00000000 25783.00000000 25784.00000000
5995 25803.00000000 25804.00000000 25805.00000000
5996 25806.00000000 25807.00000000 25808.00000000
5997 25809.00000000 25810.00000000 25811.00000000
5998 25812.00000000 25813.00000000 25814.00000000
5999 25815.00000000 25816.00000000 25817.00000000
6000 25818.00000000 25819.00000000 25820.00000000
6001 25821.00000000 25822.00000000 25823.00000000
6002 25824.00000000 25825.00000000 25826.00000000
6003 25827.00000000 25828.00000000 25829.00000000
6004 25830.00000000 25831.00000000 25832.00000000
6005 25833.00000000 25834.00000000 25835.00000000
6006 25836.00000000 25837.00000000 25838.00000000
6007 25839.00000000 25840.00000000 25841.00000000
6008 25842.00000000 25843.00000000 25844.00000000
6009 25845.00000000 25846.00000000 25847.00000000
6010 25848.00000000 25849.00000000 25850.00000000
6011 25851.00000000 25852.00000000 25853.00000000
6012 25854.00000000 25855.00000000 25856.00000000
6013 25857.00000000 25858.00000000 25859.00000000
6014 25860.00000000 25861.00000000 25862.00000000
6015 25863.00000000 25864.00000000 25865.00000000
6016 25884.00000000 25885.00000000 25886.00000000
6017 25887.00000000 25888.00000000 25889.00000000
6018 25890.00000000 25891.00000000 25892.00000000
6019 25893.00000000 25894.00000000 25895.00000000
6020 25896.00000000 25897.00000000 25898.00000000
6021 25899.00000000 25900.00000000 25901.00000000
6022 25902.00000000 25903.00000000 25904.00000000
6023 25905.00000000 25906.00000000 25907.00000000
6024 25908.00000000 25909.00000000 25910.00000000
6025 25911.00000000 25912.00000000 25913.00000000
6026 25914.00000000 25915.00000000 25916.00000000
6027 25917.00000000 25918.00000000 25919.00000000
6028 25920.00000000 25921.00000000 25922.00000000
6029 25923.00000000 25924.00000000 25925.00000000
6030 25926.00000000 25927.00000000 25928.00000000
6031 25929.00000000 25930.00000000 25931.00000000
6032 25932.00000000 25933.00000000 25934.00000000
6033 25935.00000000 25936.00000000 25937.00000000
6034 25938.00000000 25939.00000000 25940.00000000
6035 25941.00000000 25942.00000000 25943.00000000
6036 25944.00000000 25945.00000000 25946.00000000
6037 25965.00000000 25966.00000000 25967.00000000
6038 25968.00000000 25969.00000000 25970.00000000
6039 25971.00000000 25972.00000000 25973.00000000
6040 25974.00000000 25975.00000000 25976.00000000
6041 25977.00000000 25978.00000000 25979.00000000
6042 25980.00000000 25981.00000000 25982.00000000
6043 25983.00000000 25984.00000000 25985.00000000
6044 25986.00000000 25987.00000000 25988.00000000
6045 25989.00000000 25990.00000000 25991.00000000
6046 25992.00000000 25993.00000000 25994.00000000
6047 25995.00000000 25996.00000000 25997.00000000
6048 25998.00000000 25999.00000000 26000.00000000
6049 26001.00000000 26002.00000000 26003.00000000
6050 26004.00000000 26005.00000000 26006.00000000
6051 26007.00000000 26008.00000000 26009.00000000
6052 26010.00000000 26011.00000000 26012.00000000
6053 26013.00000000 26014.00000000 26015.00000000
6054 26016.00000000 26017.00000000 26018.00000000
6055 26019.00000000 26020.00000000 26021.00000000
6056 26022.00000000 26023.00000000 26024.00000000
6057 26025.00000000 26026.00000000 26027.00000000
6058 26046.00000000 26047.00000000 26048.00000000
6059 26049.00000000 26050.00000000 26051.00000000
6060 26052.00000000 26053.00000000 26054.00000000
6061 26055.00000000 26056.00000000 26057.00000000
6062 26058.00000000 26059.00000000 26060.00000000
6063 26061.00000000 26062.00000000 26063.00000000
6064 26064.00000000 26065.00000000 26066.00000000
6065 26067.00000000 26068.00000000 26069.00000000
6066 26070.00000000 26071.00000000 26072.00000000
6067 26073.00000000 26074.00000000 26075.00000000
6068 26076.00000000 26077.00000000 26078.00000000
6069 26079.00000000 26080.00000000 26081.00000000
6070 26082.00000000 26083.00000000 26084.00000000
6071 26085.00000000 26086.00000000 26087.00000000
6072 26088.00000000 26089.00000000 26090.00000000
6073 26091.00000000 26092.00000000 26093.00000000
6074 26094.00000000 26095.00000000 26096.00000000
6075 26097.00000000 26098.00000000 26099.00000000
6076 26100.00000000 26101.00000000 26102.00000000
6077 26103.00000000 26104.00000000 26105.00000000
6078 26106.00000000 26107.00000000 26108.00000000
6079 26127.00000000 26128.00000000 26129.00000000
6080 26130.00000000 26131.00000000 26132.00000000
6081 26133.00000000 26134.00000000 26135.00000000
6082 26136.00000000 26137.00000000 26138.00000000
6083 26139.00000000 26140.00000000 26141.00000000
6084 26142.00000000 26143.00000000 26144.00000000
6085 26145.00000000 26146.00000000 26147.00000000
6086 26148.00000000 26149.00000000 26150.00000000
6087 26151.00000000 26152.00000000 26153.00000000
6088 26154.00000000 26155.00000000 26156.00000000
6089 26157.00000000 26158.00000000 26159.00000000
6090 26160.00000000 26161.00000000 26162.00000000
6091 26163.00000000 26164.00000000 26165.00000000
6092 26166.00000000 26167.00000000 26168.00000000
6093 26169.00000000 26170.00000000 26171.00000000
6094 26172.00000000 26173.00000000 26174.00000000
6095 26175.00000000 26176.00000000 26177.00000000
6096 26178.00000000 26179.00000000 26180.00000000
6097 26181.00000000 26182.00000000 26183.00000000
6098 26184.00000000 26185.00000000 26186.00000000
6099 26187.00000000 26188.00000000 26189.00000000
6100 26208.00000000 26209.00000000 26210.00000000
6101 26211.00000000 26212.00000000 26213.00000000
6102 26214.00000000 26215.00000000 26216.00000000
6103 26217.00000000 26218.00000000 26219.00000000
6104 26220.00000000 26221.00000000 26222.00000000
6105 26223.00000000 26224.00000000 26225.00000000
6106 26226.00000000 26227.00000000 26228.00000000
6107 26229.00000000 26230.00000000 26231.00000000
6108 26232.00000000 26233.00000000 26234.00000000
6109 26235.00000000 26236.00000000 26237.00000000
6110 26238.00000000 26239.00000000 26240.00000000
6111 26241.00000000 26242.00000000 26243.00000000
6112 26244.00000000 26245.00000000 26246.00000000
6113 26247.00000000 26248.00000000 26249.00000000
6114 26250.00000000 26251.00000000 26252.00000000
6115 26262.00000000 26263.00000000 26264.00000000
6116 26265.00000000 26266.00000000 26267.00000000
6117 26268.00000000 26269.00000000 26270.00000000
6118 26271.00000000 26272.00000000 26273.00000000
6119 26274.00000000 26275.00000000 26276.00000000
6120 26277.00000000 26278.00000000 26279.00000000
6121 26298.00000000 26299.00000000 26300.00000000
6122 26301.00000000 26302.00000000 26303.00000000
6123 26304.00000000 26305.00000000 26306.00000000
6124 26307.00000000 26308.00000000 26309.00000000
6125 26310.00000000 26311.00000000 26312.00000000
6126 26313.00000000 26314.00000000 26315.00000000
6127 26316.00000000 26317.00000000 26318.00000000
6128 26319.00000000 26320.00000000 26321.00000000
6129 26322.00000000 26323.00000000 26324.00000000
6130 26325.00000000 26326.00000000 26327.00000000
6131 26328.00000000 26329.00000000 26330.00000000
6132 26331.00000000 26332.00000000 26333.00000000
6133 26343.00000000 26344.00000000 26345.00000000
6134 26346.00000000 26347.00000000 26348.00000000
6135 26349.00000000 26350.00000000 26351.00000000
6136 26352.00000000 26353.00000000 26354.00000000
6137 26355.00000000 26356.00000000 26357.00000000
6138 26358.00000000 26359.00000000 26360.00000000
6139 26379.00000000 26380.00000000 26381.00000000
6140 26382.00000000 26383.00000000 26384.00000000
6141 26385.00000000 26386.00000000 26387.00000000
6142 26388.00000000 26389.00000000 26390.00000000
6143 26391.00000000 26392.00000000 26393.00000000
6144 26394.00000000 26395.00000000 26396.00000000
6145 26397.00000000 26398.00000000 26399.00000000
6146 26400.00000000 26401.00000000 26402.00000000
6147 26403.00000000 26404.00000000 26405.00000000
6148 26406.00000000 26407.00000000 26408.00000000
6149 26409.00000000 26410.00000000 26411.00000000
6150 26412.00000000 26413.00000000 26414.00000000
6151 26424.00000000 26425.00000000 26426.00000000
6152 26427.00000000 26428.00000000 26429.00000000
6153 26430.00000000 26431.00000000 26432.00000000
6154 26433.00000000 26434.00000000 26435.00000000
6155 26436.00000000 26437.00000000 26438.00000000
6156 26439.00000000 26440.00000000 26441.00000000
6157 26460.00000000 26461.00000000 26462.00000000
6158 26463.00000000 26464.00000000 26465.00000000
6159 26466.00000000 26467.00000000 26468.00000000
6160 26469.00000000 26470.00000000 26471.00000000
6161 26472.00000000 26473.00000000 26474.00000000
6162 26475.00000000 26476.00000000 26477.00000000
6163 26478.00000000 26479.00000000 26480.00000000
6164 26481.00000000 26482.00000000 26483.00000000
6165 26484.00000000 26485.00000000 26486.00000000
6166 26487.00000000 26488.00000000 26489.00000000
6167 26490.00000000 26491.00000000 26492.00000000
6168 26493.00000000 26494.00000000 26495.00000000
6169 26505.00000000 26506.00000000 26507.00000000
6170 26508.00000000 26509.00000000 26510.00000000
6171 26511.00000000 26512.00000000 26513.00000000
6172 26532.00000000 26533.00000000 26534.00000000
6173 26535.00000000 26536.00000000 26537.00000000
6174 26538.00000000 26539.00000000 26540.00000000
6175 26541.00000000 26542.00000000 26543.00000000
6176 26544.00000000 26545.00000000 26546.00000000
6177 26547.00000000 26548.00000000 26549.00000000
6178 26550.00000000 26551.00000000 26552.00000000
6179 26553.00000000 26554.00000000 26555.00000000
6180 26556.00000000 26557.00000000 26558.00000000
6181 26559.00000000 26560.00000000 26561.00000000
6182 26562.00000000 26563.00000000 26564.00000000
6183 26565.00000000 26566.00000000 26567.00000000
6184 26568.00000000 26569.00000000 26570.00000000
6185 26571.00000000 26572.00000000 26573.00000000
6186 26574.00000000 26575.00000000 26576.00000000
6187 26586.00000000 26587.00000000 26588.00000000
6188 26589.00000000 26590.00000000 26591.00000000
6189 26592.00000000 26593.00000000 26594.00000000
6190 26613.00000000 26614.00000000 26615.00000000
6191 26616.00000000 26617.00000000 26618.00000000
6192 26619.00000000 26620.00000000 26621.00000000
6193 26622.00000000 26623.00000000 26624.00000000
6194 26625.00000000 26626.00000000 26627.00000000
6195 26628.00000000 26629.00000000 26630.00000000
6196 26631.00000000 26632.00000000 26633.00000000
6197 26634.00000000 26635.00000000 26636.00000000
6198 26637.00000000 26638.00000000 26639.00000000
6199 26640.00000000 26641.00000000 26642.00000000
6200 26643.00000000 26644.00000000 26645.00000000
6201 26646.00000000 26647.00000000 26648.00000000
6202 26649.00000000 26650.00000000 26651.00000000
6203 26652.00000000 26653.00000000 26654.00000000
6204 26655.00000000 26656.00000000 26657.00000000
6205 26667.00000000 26668.00000000 26669.00000000
6206 26670.00000000 26671.00000000 26672.00000000
6207 26673.00000000 26674.00000000 26675.00000000
6208 26694.00000000 26695.00000000 26696.00000000
6209 26697.00000000 26698.00000000 26699.00000000
6210 26700.00000000 26701.00000000 26702.00000000
6211 26703.00000000 26704.00000000 26705.00000000
6212 26706.00000000 26707.00000000 26708.00000000
6213 26709.00000000 26710.00000000 26711.00000000
6214 26712.00000000 26713.00000000 26714.00000000
6215 26715.00000000 26716.00000000 26717.00000000
6216 26718.00000000 26719.00000000 26720.00000000
6217 26721.00000000 26722.00000000 26723.00000000
6218 26724.00000000 26725.00000000 26726.00000000
6219 26727.00000000 26728.00000000 26729.00000000
6220 26730.00000000 26731.00000000 26732.00000000
6221 26733.00000000 26734.00000000 26735.00000000
6222 26736.00000000 26737.00000000 26738.00000000
6223 26748.00000000 26749.00000000 26750.00000000
6224 26751.00000000 26752.00000000 26753.00000000
6225 26754.00000000 26755.00000000 26756.00000000
6226 26775.00000000 26776.00000000 26777.00000000
6227 26778.00000000 26779.00000000 26780.00000000
6228 26781.00000000 26782.00000000 26783.00000000
6229 26784.00000000 26785.00000000 26786.00000000
6230 26787.00000000 26788.00000000 26789.00000000
6231 26790.00000000 26791.00000000 26792.00000000
6232 26793.00000000 26794.00000000 26795.00000000
6233 26796.00000000 26797.00000000 26798.00000000
6234 26799.00000000 26800.00000000 26801.00000000
6235 26802.00000000 26803.00000000 26804.00000000
6236 26805.00000000 26806.00000000 26807.00000000
6237 26808.00000000 26809.00000000 26810.00000000
6238 26811.00000000 26812.00000000 26813.00000000
6239 26814.00000000 26815.00000000 26816.00000000
6240 26817.00000000 26818.00000000 26819.00000000
6241 26829.00000000 26830.00000000 26831.00000000
6242 26832.00000000 26833.00000000 26834.00000000
6243 26835.00000000 26836.00000000 26837.00000000
6244 26856.00000000 26857.00000000 26858.00000000
6245 26859.00000000 26860.00000000 26861.00000000
6246 26862.00000000 26863.00000000 26864.00000000
6247 26865.00000000 26866.00000000 26867.00000000
6248 26868.00000000 26869.00000000 26870.00000000
6249 26871.00000000 26872.00000000 26873.00000000
6250 26874.00000000 26875.00000000 26876.00000000
6251 26877.00000000 26878.00000000 26879.00000000
6252 26880.00000000 26881.00000000 26882.00000000
6253 26883.00000000 26884.00000000 26885.00000000
6254 26886.00000000 26887.00000000 26888.00000000
6255 26889.00000000 26890.00000000 26891.00000000
6256 26892.00000000 26893.00000000 26894.00000000
6257 26895.00000000 26896.00000000 26897.00000000
6258 26898.00000000 26899.00000000 26900.00000000
6259 26910.00000000 26911.00000000 26912.00000000
6260 26913.00000000 26914.00000000 26915.00000000
6261 26916.00000000 26917.00000000 26918.00000000
6262 26937.00000000 26938.00000000 26939.00000000
6263 26940.00000000 26941.00000000 26942.00000000
6264 26943.00000000 26944.00000000 26945.00000000
6265 26946.00000000 26947.00000000 26948.00000000
6266 26949.00000000 26950.00000000 26951.00000000
6267 26952.00000000 26953.00000000 26954.00000000
6268 26955.00000000 26956.00000000 26957.00000000
6269 26958.00000000 26959.00000000 26960.00000000
6270 26961.00000000 26962.00000000 26963.00000000
6271 26964.00000000 26965.00000000 26966.00000000
6272 26967.00000000 26968.00000000 26969.00000000
6273 26970.00000000 26971.00000000 26972.00000000
6274 26991.00000000 26992.00000000 26993.00000000
6275 26994.00000000 26995.00000000 26996.00000000
6276 26997.00000000 26998.00000000 26999.00000000
6277 27018.00000000 27019.00000000 27020.00000000
6278 27021.00000000 27022.00000000 27023.00000000
6279 27024.00000000 27025.00000000 27026.00000000
6280 27027.00000000 27028.00000000 27029.00000000
6281 27030.00000000 27031.00000000 27032.00000000
6282 27033.00000000 27034.00000000 27035.00000000
6283 27036.00000000 27037.00000000 27038.00000000
6284 27039.00000000 27040.00000000 27041.00000000
6285 27042.00000000 27043.00000000 27044.00000000
6286 27045.00000000 27046.00000000 27047.00000000
6287 27048.00000000 27049.00000000 27050.00000000
6288 27051.00000000 27052.00000000 27053.00000000
6289 27072.00000000 27073.00000000 27074.00000000
6290 27075.00000000 27076.00000000 27077.00000000
6291 27078.00000000 27079.00000000 27080.00000000
6292 27099.00000000 27100.00000000 27101.00000000
6293 27102.00000000 27103.00000000 27104.00000000
6294 27105.00000000 27106.00000000 27107.00000000
6295 27108.00000000 27109.00000000 27110.00000000
6296 27111.00000000 27112.00000000 27113.00000000
6297 27114.00000000 27115.00000000 27116.00000000
6298 27117.00000000 27118.00000000 27119.00000000
6299 27120.00000000 27121.00000000 27122.00000000
6300 27123.00000000 27124.00000000 27125.00000000
6301 27126.00000000 27127.00000000 27128.00000000
6302 27129.00000000 27130.00000000 27131.00000000
6303 27132.00000000 27133.00000000 27134.00000000
6304 27153.00000000 27154.00000000 27155.00000000
6305 27156.00000000 27157.00000000 27158.00000000
6306 27159.00000000 27160.00000000 27161.00000000
6307 27180.00000000 27181.00000000 27182.00000000
6308 27183.00000000 27184.00000000 27185.00000000
6309 27186.00000000 27187.00000000 27188.00000000
6310 27189.00000000 27190.00000000 27191.00000000
6311 27192.00000000 27193.00000000 27194.00000000
6312 27195.00000000 27196.00000000 27197.00000000
6313 27198.00000000 27199.00000000 27200.00000000
6314 27201.00000000 27202.00000000 27203.00000000
6315 27204.00000000 27205.00000000 27206.00000000
6316 27207.00000000 27208.00000000 27209.00000000
6317 27210.00000000 27211.00000000 27212.00000000
6318 27213.00000000 27214.00000000 27215.00000000
6319 27216.00000000 27217.00000000 27218.00000000
6320 27219.00000000 27220.00000000 27221.00000000
6321 27222.00000000 27223.00000000 27224.00000000
6322 27225.00000000 27226.00000000 27227.00000000
6323 27228.00000000 27229.00000000 27230.00000000
6324 27231.00000000 27232.00000000 27233.00000000
6325 27234.00000000 27235.00000000 27236.00000000
6326 27237.00000000 27238.00000000 27239.00000000
6327 27240.00000000 27241.00000000 27242.00000000
6328 27243.00000000 27244.00000000 27245.00000000
6329 27246.00000000 27247.00000000 27248.00000000
6330 27249.00000000 27250.00000000 27251.00000000
6331 27270.00000000 27271.00000000 27272.00000000
6332 27273.00000000 27274.00000000 27275.00000000
6333 27276.00000000 27277.00000000 27278.00000000
6334 27297.00000000 27298.00000000 27299.00000000
6335 27300.00000000 27301.00000000 27302.00000000
6336 27303.00000000 27304.00000000 27305.00000000
6337 27306.00000000 27307.00000000 27308.00000000
6338 27309.00000000 27310.00000000 27311.00000000
6339 27312.00000000 27313.00000000 27314.00000000
6340 27315.00000000 27316.00000000 27317.00000000
6341 27318.00000000 27319.00000000 27320.00000000
6342 27321.00000000 27322.00000000 27323.00000000
6343 27324.00000000 27325.00000000 27326.00000000
6344 27327.00000000 27328.00000000 27329.00000000
6345 27330.00000000 27331.00000000 27332.00000000
6346 27351.00000000 27352.00000000 27353.00000000
6347 27354.00000000 27355.00000000 27356.00000000
6348 27357.00000000 27358.00000000 27359.00000000
6349 27378.00000000 27379.00000000 27380.00000000
6350 27381.00000000 27382.00000000 27383.00000000
6351 27384.00000000 27385.00000000 27386.00000000
6352 27387.00000000 27388.00000000 27389.00000000
6353 27390.00000000 27391.00000000 27392.00000000
6354 27393.00000000 27394.00000000 27395.00000000
6355 27396.00000000 27397.00000000 27398.00000000
6356 27399.00000000 27400.00000000 27401.00000000
6357 27402.00000000 27403.00000000 27404.00000000
6358 27405.00000000 27406.00000000 27407.00000000
6359 27408.00000000 27409.00000000 27410.00000000
6360 27411.00000000 27412.00000000 27413.00000000
6361 27432.00000000 27433.00000000 27434.00000000
6362 27435.00000000 27436.00000000 27437.00000000
6363 27438.00000000 27439.00000000 27440.00000000
6364 27459.00000000 27460.00000000 27461.00000000
6365 27462.00000000 27463.00000000 27464.00000000
6366 27465.00000000 27466.00000000 27467.00000000
6367 27468.00000000 27469.00000000 27470.00000000
6368 27471.00000000 27472.00000000 27473.00000000
6369 27474.00000000 27475.00000000 27476.00000000
6370 27477.00000000 27478.00000000 27479.00000000
6371 27480.00000000 27481.00000000 27482.00000000
6372 27483.00000000 27484.00000000 27485.00000000
6373 27486.00000000 27487.00000000 27488.00000000
6374 27489.00000000 27490.00000000 27491.00000000
6375 27492.00000000 27493.00000000 27494.00000000
6376 27513.00000000 27514.00000000 27515.00000000
6377 27516.00000000 27517.00000000 27518.00000000
6378 27519.00000000 27520.00000000 27521.00000000
6379 27531.00000000 27532.00000000 27533.00000000
6380 27534.00000000 27535.00000000 27536.00000000
6381 27537.00000000 27538.00000000 27539.00000000
6382 27540.00000000 27541.00000000 27542.00000000
6383 27543.00000000 27544.00000000 27545.00000000
6384 27546.00000000 27547.00000000 27548.00000000
6385 27549.00000000 27550.00000000 27551.00000000
6386 27552.00000000 27553.00000000 27554.00000000
6387 27555.00000000 27556.00000000 27557.00000000
6388 27558.00000000 27559.00000000 27560.00000000
6389 27561.00000000 27562.00000000 27563.00000000
6390 27564.00000000 27565.00000000 27566.00000000
6391 27567.00000000 27568.00000000 27569.00000000
6392 27570.00000000 27571.00000000 27572.00000000
6393 27573.00000000 27574.00000000 27575.00000000
6394 27594.00000000 27595.00000000 27596.00000000
6395 27597.00000000 27598.00000000 27599.00000000
6396 27600.00000000 27601.00000000 27602.00000000
6397 27612.00000000 27613.00000000 27614.00000000
6398 27615.00000000 27616.00000000 27617.00000000
6399 27618.00000000 27619.00000000 27620.00000000
6400 27621.00000000 27622.00000000 27623.00000000
6401 27624.00000000 27625.00000000 27626.00000000
6402 27627.00000000 27628.00000000 27629.00000000
6403 27630.00000000 27631.00000000 27632.00000000
6404 27633.00000000 27634.00000000 27635.00000000
6405 27636.00000000 27637.00000000 27638.00000000
6406 27639.00000000 27640.00000000 27641.00000000
6407 27642.00000000 27643.00000000 27644.00000000
6408 27645.00000000 27646.00000000 27647.00000000
6409 27648.00000000 27649.00000000 27650.00000000
6410 27651.00000000 27652.00000000 27653.00000000
6411 27654.00000000 27655.00000000 27656.00000000
6412 27675.00000000 27676.00000000 27677.00000000
6413 27678.00000000 27679.00000000 27680.00000000
6414 27681.00000000 27682.00000000 27683.00000000
6415 27693.00000000 27694.00000000 27695.00000000
6416 27696.00000000 27697.00000000 27698.00000000
6417 27699.00000000 27700.00000000 27701.00000000
6418 27702.00000000 27703.00000000 27704.00000000
6419 27705.00000000 27706.00000000 27707.00000000
6420 27708.00000000 27709.00000000 27710.00000000
6421 27711.00000000 27712.00000000 27713.00000000
6422 27714.00000000 27715.00000000 27716.00000000
6423 27717.00000000 27718.00000000 27719.00000000
6424 27720.00000000 27721.00000000 27722.00000000
6425 27723.00000000 27724.00000000 27725.00000000
6426 27726.00000000 27727.00000000 27728.00000000
6427 27729.00000000 27730.00000000 27731.00000000
6428 27732.00000000 27733.00000000 27734.00000000
6429 27735.00000000 27736.00000000 27737.00000000
6430 27747.00000000 27748.00000000 27749.00000000
6431 27750.00000000 27751.00000000 27752.00000000
6432 27753.00000000 27754.00000000 27755.00000000
6433 27756.00000000 27757.00000000 27758.00000000
6434 27759.00000000 27760.00000000 27761.00000000
6435 27762.00000000 27763.00000000 27764.00000000
6436 27774.00000000 27775.00000000 27776.00000000
6437 27777.00000000 27778.00000000 27779.00000000
6438 27780.00000000 27781.00000000 27782.00000000
6439 27783.00000000 27784.00000000 27785.00000000
6440 27786.00000000 27787.00000000 27788.00000000
6441 27789.00000000 27790.00000000 27791.00000000
6442 27792.00000000 27793.00000000 27794.00000000
6443 27795.00000000 27796.00000000 27797.00000000
6444 27798.00000000 27799.00000000 27800.00000000
6445 27801.00000000 27802.00000000 27803.00000000
6446 27804.00000000 27805.00000000 27806.00000000
6447 27807.00000000 27808.00000000 27809.00000000
6448 27810.00000000 27811.00000000 27812.00000000
6449 27813.00000000 27814.00000000 27815.00000000
6450 27816.00000000 27817.00000000 27818.00000000
6451 27828.00000000 27829.00000000 27830.00000000
6452 27831.00000000 27832.00000000 27833.00000000
6453 27834.00000000 27835.00000000 27836.00000000
6454 27837.00000000 27838.00000000 27839.00000000
6455 27840.00000000 27841.00000000 27842.00000000
6456 27843.00000000 27844.00000000 27845.00000000
6457 27855.00000000 27856.00000000 27857.00000000
6458 27858.00000000 27859.00000000 27860.00000000
6459 27861.00000000 27862.00000000 27863.00000000
6460 27864.00000000 27865.00000000 27866.00000000
6461 27867.00000000 27868.00000000 27869.00000000
6462 27870.00000000 27871.00000000 27872.00000000
6463 27873.00000000 27874.00000000 27875.00000000
6464 27876.00000000 27877.00000000 27878.00000000
6465 27879.00000000 27880.00000000 27881.00000000
6466 27882.00000000 27883.00000000 27884.00000000
6467 27885.00000000 27886.00000000 27887.00000000
6468 27888.00000000 27889.00000000 27890.00000000
6469 27891.00000000 27892.00000000 27893.00000000
6470 27894.00000000 27895.00000000 27896.00000000
6471 27897.00000000 27898.00000000 27899.00000000
6472 27909.00000000 27910.00000000 27911.00000000
6473 27912.00000000 27913.00000000 27914.00000000
6474 27915.00000000 27916.00000000 27917.00000000
6475 27918.00000000 27919.00000000 27920.00000000
6476 27921.00000000 27922.00000000 27923.00000000
6477 27924.00000000 27925.00000000 27926.00000000
6478 27936.00000000 27937.00000000 27938.00000000
6479 27939.00000000 27940.00000000 27941.00000000
6480 27942.00000000 27943.00000000 27944.00000000
6481 27945.00000000 27946.00000000 27947.00000000
6482 27948.00000000 27949.00000000 27950.00000000
6483 27951.00000000 27952.00000000 27953.00000000
6484 27954.00000000 27955.00000000 27956.00000000
6485 27957.00000000 27958.00000000 27959.00000000
6486 27960.00000000 27961.00000000 27962.00000000
6487 27963.00000000 27964.00000000 27965.00000000
6488 27966.00000000 27967.00000000 27968.00000000
6489 27969.00000000 27970.00000000 27971.00000000
6490 27990.00000000 27991.00000000 27992.00000000
6491 27993.00000000 27994.00000000 27995.00000000
6492 27996.00000000 27997.00000000 27998.00000000
6493 28017.00000000 28018.00000000 28019.00000000
6494 28020.00000000 28021.00000000 28022.00000000
6495 28023.00000000 28024.00000000 28025.00000000
6496 28026.00000000 28027.00000000 28028.00000000
6497 28029.00000000 28030.00000000 28031.00000000
6498 28032.00000000 28033.00000000 28034.00000000
6499 28035.00000000 28036.00000000 28037.00000000
6500 28038.00000000 28039.00000000 28040.00000000
6501 28041.00000000 28042.00000000 28043.00000000
6502 28044.00000000 28045.00000000 28046.00000000
6503 28047.00000000 28048.00000000 28049.00000000
6504 28050.00000000 28051.00000000 28052.00000000
6505 28071.00000000 28072.00000000 28073.00000000
6506 28074.00000000 28075.00000000 28076.00000000
6507 28077.00000000 28078.00000000 28079.00000000
6508 28098.00000000 28099.00000000 28100.00000000
6509 28101.00000000 28102.00000000 28103.00000000
6510 28104.00000000 28105.00000000 28106.00000000
6511 28107.00000000 28108.00000000 28109.00000000
6512 28110.00000000 28111.00000000 28112.00000000
6513 28113.00000000 28114.00000000 28115.00000000
6514 28116.00000000 28117.00000000 28118.00000000
6515 28119.00000000 28120.00000000 28121.00000000
6516 28122.00000000 28123.00000000 28124.00000000
6517 28125.00000000 28126.00000000 28127.00000000
6518 28128.00000000 28129.00000000 28130.00000000
6519 28131.00000000 28132.00000000 28133.00000000
6520 28152.00000000 28153.00000000 28154.00000000
6521 28155.00000000 28156.00000000 28157.00000000
6522 28158.00000000 28159.00000000 28160.00000000
6523 28179.00000000 28180.00000000 28181.00000000
6524 28182.00000000 28183.00000000 28184.00000000
6525 28185.00000000 28186.00000000 28187.00000000
6526 28188.00000000 28189.00000000 28190.00000000
6527 28191.00000000 28192.00000000 28193.00000000
6528 28194.00000000 28195.00000000 28196.00000000
6529 28197.00000000 28198.00000000 28199.00000000
6530 28200.00000000 28201.00000000 28202.00000000
6531 28203.00000000 28204.00000000 28205.00000000
6532 28206.00000000 28207.00000000 28208.00000000
6533 28209.00000000 28210.00000000 28211.00000000
6534 28212.00000000 28213.00000000 28214.00000000
6535 28215.00000000 28216.00000000 28217.00000000
6536 28218.00000000 28219.00000000 28220.00000000
6537 28221.00000000 28222.00000000 28223.00000000
6538 28242.00000000 28243.00000000 28244.00000000
6539 28245.00000000 28246.00000000 28247.00000000
6540 28248.00000000 28249.00000000 28250.00000000
6541 28251.00000000 28252.00000000 28253.00000000
6542 28254.00000000 28255.00000000 28256.00000000
6543 28257.00000000 28258.00000000 28259.00000000
6544 28260.00000000 28261.00000000 28262.00000000
6545 28263.00000000 28264.00000000 28265.00000000
6546 28266.00000000 28267.00000000 28268.00000000
6547 28269.00000000 28270.00000000 28271.00000000
6548 28272.00000000 28273.00000000 28274.00000000
6549 28275.00000000 28276.00000000 28277.00000000
6550 28278.00000000 28279.00000000 28280.00000000
6551 28281.00000000 28282.00000000 28283.00000000
6552 28284.00000000 28285.00000000 28286.00000000
6553 28287.00000000 28288.00000000 28289.00000000
6554 28290.00000000 28291.00000000 28292.00000000
6555 28293.00000000 28294.00000000 28295.00000000
6556 28296.00000000 28297.00000000 28298.00000000
6557 28299.00000000 28300.00000000 28301.00000000
6558 28302.00000000 28303.00000000 28304.00000000
6559 28323.00000000 28324.00000000 28325.00000000
6560 28326.00000000 28327.00000000 28328.00000000
6561 28329.00000000 28330.00000000 28331.00000000
6562 28332.00000000 28333.00000000 28334.00000000
6563 28335.00000000 28336.00000000 28337.00000000
6564 28338.00000000 28339.00000000 28340.00000000
6565 28341.00000000 28342.00000000 28343.00000000
6566 28344.00000000 28345.00000000 28346.00000000
6567 28347.00000000 28348.00000000 28349.00000000
6568 28350.00000000 28351.00000000 28352.00000000
6569 28353.00000000 28354.00000000 28355.00000000
6570 28356.00000000 28357.00000000 28358.00000000
6571 28359.00000000 28360.00000000 28361.00000000
6572 28362.00000000 28363.00000000 28364.00000000
6573 28365.00000000 28366.00000000 28367.00000000
6574 28368.00000000 28369.00000000 28370.00000000
6575 28371.00000000 28372.00000000 28373.00000000
6576 28374.00000000 28375.00000000 28376.00000000
6577 28377.00000000 28378.00000000 28379.00000000
6578 28380.00000000 28381.00000000 28382.00000000
6579 28383.00000000 28384.00000000 28385.00000000
6580 28404.00000000 28405.00000000 28406.00000000
6581 28407.00000000 28408.00000000 28409.00000000
6582 28410.00000000 28411.00000000 28412.00000000
6583 28413.00000000 28414.00000000 28415.00000000
6584 28416.00000000 28417.00000000 28418.00000000
6585 28419.00000000 28420.00000000 28421.00000000
6586 28422.00000000 28423.00000000 28424.00000000
6587 28425.00000000 28426.00000000 28427.00000000
6588 28428.00000000 28429.00000000 28430.00000000
6589 28431.00000000 28432.00000000 28433.00000000
6590 28434.00000000 28435.00000000 28436.00000000
6591 28437.00000000 28438.00000000 28439.00000000
6592 28440.00000000 28441.00000000 28442.00000000
6593 28443.00000000 28444.00000000 28445.00000000
6594 28446.00000000 28447.00000000 28448.00000000
6595 28449.00000000 28450.00000000 28451.00000000
6596 28452.00000000 28453.00000000 28454.00000000
6597 28455.00000000 28456.00000000 28457.00000000
6598 28485.00000000 28486.00000000 28487.00000000
6599 28488.00000000 28489.00000000 28490.00000000
6600 28491.00000000 28492.00000000 28493.00000000
6601 28503.00000000 28504.00000000 28505.00000000
6602 28506.00000000 28507.00000000 28508.00000000
6603 28509.00000000 28510.00000000 28511.00000000
6604 28512.00000000 28513.00000000 28514.00000000
6605 28515.00000000 28516.00000000 28517.00000000
6606 28518.00000000 28519.00000000 28520.00000000
6607 28521.00000000 28522.00000000 28523.00000000
6608 28524.00000000 28525.00000000 28526.00000000
6609 28527.00000000 28528.00000000 28529.00000000
6610 28530.00000000 28531.00000000 28532.00000000
6611 28533.00000000 28534.00000000 28535.00000000
6612 28536.00000000 28537.00000000 28538.00000000
6613 28566.00000000 28567.00000000 28568.00000000
6614 28569.00000000 28570.00000000 28571.00000000
6615 28572.00000000 28573.00000000 28574.00000000
6616 28584.00000000 28585.00000000 28586.00000000
6617 28587.00000000 28588.00000000 28589.00000000
6618 28590.00000000 28591.00000000 28592.00000000
6619 28593.00000000 28594.00000000 28595.00000000
6620 28596.00000000 28597.00000000 28598.00000000
6621 28599.00000000 28600.00000000 28601.00000000
6622 28602.00000000 28603.00000000 28604.00000000
6623 28605.00000000 28606.00000000 28607.00000000
6624 28608.00000000 28609.00000000 28610.00000000
6625 28611.00000000 28612.00000000 28613.00000000
6626 28614.00000000 28615.00000000 28616.00000000
6627 28617.00000000 28618.00000000 28619.00000000
6628 28647.00000000 28648.00000000 28649.00000000
6629 28650.00000000 28651.00000000 28652.00000000
6630 28653.00000000 28654.00000000 28655.00000000
6631 28665.00000000 28666.00000000 28667.00000000
6632 28668.00000000 28669.00000000 28670.00000000
6633 28671.00000000 28672.00000000 28673.00000000
6634 28674.00000000 28675.00000000 28676.00000000
6635 28677.00000000 28678.00000000 28679.00000000
6636 28680.00000000 28681.00000000 28682.00000000
6637 28683.00000000 28684.00000000 28685.00000000
6638 28686.00000000 28687.00000000 28688.00000000
6639 28689.00000000 28690.00000000 28691.00000000
6640 28692.00000000 28693.00000000 28694.00000000
6641 28695.00000000 28696.00000000 28697.00000000
6642 28698.00000000 28699.00000000 28700.00000000
6643 28719.00000000 28720.00000000 28721.00000000
6644 28722.00000000 28723.00000000 28724.00000000
6645 28725.00000000 28726.00000000 28727.00000000
6646 28728.00000000 28729.00000000 28730.00000000
6647 28731.00000000 28732.00000000 28733.00000000
6648 28734.00000000 28735.00000000 28736.00000000
6649 28746.00000000 28747.00000000 28748.00000000
6650 28749.00000000 28750.00000000 28751.00000000
6651 28752.00000000 28753.00000000 28754.00000000
6652 28755.00000000 28756.00000000 28757.00000000
6653 28758.00000000 28759.00000000 28760.00000000
6654 28761.00000000 28762.00000000 28763.00000000
6655 28764.00000000 28765.00000000 28766.00000000
6656 28767.00000000 28768.00000000 28769.00000000
6657 28770.00000000 28771.00000000 28772.00000000
6658 28773.00000000 28774.00000000 28775.00000000
6659 28776.00000000 28777.00000000 28778.00000000
6660 28779.00000000 28780.00000000 28781.00000000
6661 28800.00000000 28801.00000000 28802.00000000
6662 28803.00000000 28804.00000000 28805.00000000
6663 28806.00000000 28807.00000000 28808.00000000
6664 28809.00000000 28810.00000000 28811.00000000
6665 28812.00000000 28813.00000000 28814.00000000
6666 28815.00000000 28816.00000000 28817.00000000
6667 28827.00000000 28828.00000000 28829.00000000
6668 28830.00000000 28831.00000000 28832.00000000
6669 28833.00000000 28834.00000000 28835.00000000
6670 28836.00000000 28837.00000000 28838.00000000
6671 28839.00000000 28840.00000000 28841.00000000
6672 28842.00000000 28843.00000000 28844.00000000
6673 28845.00000000 28846.00000000 28847.00000000
6674 28848.00000000 28849.00000000 28850.00000000
6675 28851.00000000 28852.00000000 28853.00000000
6676 28854.00000000 28855.00000000 28856.00000000
6677 28857.00000000 28858.00000000 28859.00000000
6678 28860.00000000 28861.00000000 28862.00000000
6679 28881.00000000 28882.00000000 28883.00000000
6680 28884.00000000 28885.00000000 28886.00000000
6681 28887.00000000 28888.00000000 28889.00000000
6682 28890.00000000 28891.00000000 28892.00000000
6683 28893.00000000 28894.00000000 28895.00000000
6684 28896.00000000 28897.00000000 28898.00000000
6685 28908.00000000 28909.00000000 28910.00000000
6686 28911.00000000 28912.00000000 28913.00000000
6687 28914.00000000 28915.00000000 28916.00000000
6688 28917.00000000 28918.00000000 28919.00000000
6689 28920.00000000 28921.00000000 28922.00000000
6690 28923.00000000 28924.00000000 28925.00000000
6691 28926.00000000 28927.00000000 28928.00000000
6692 28929.00000000 28930.00000000 28931.00000000
6693 28932.00000000 28933.00000000 28934.00000000
6694 28935.00000000 28936.00000000 28937.00000000
6695 28938.00000000 28939.00000000 28940.00000000
6696 28941.00000000 28942.00000000 28943.00000000
6697 28962.00000000 28963.00000000 28964.00000000
6698 28965.00000000 28966.00000000 28967.00000000
6699 28968.00000000 28969.00000000 28970.00000000
6700 28989.00000000 28990.00000000 28991.00000000
6701 28992.00000000 28993.00000000 28994.00000000
6702 28995.00000000 28996.00000000 28997.00000000
6703 28998.00000000 28999.00000000 29000.00000000
6704 29001.00000000 29002.00000000 29003.00000000
6705 29004.00000000 29005.00000000 29006.00000000
6706 29007.00000000 29008.00000000 29009.00000000
6707 29010.00000000 29011.00000000 29012.00000000
6708 29013.00000000 29014.00000000 29015.00000000
6709 29016.00000000 29017.00000000 29018.00000000
6710 29019.00000000 29020.00000000 29021.00000000
6711 29022.00000000 29023.00000000 29024.00000000
6712 29043.00000000 29044.00000000 29045.00000000
6713 29046.00000000 29047.00000000 29048.00000000
6714 29049.00000000 29050.00000000 29051.00000000
6715 29070.00000000 29071.00000000 29072.00000000
6716 29073.00000000 29074.00000000 29075.00000000
6717 29076.00000000 29077.00000000 29078.00000000
6718 29079.00000000 29080.00000000 29081.00000000
6719 29082.00000000 29083.00000000 29084.00000000
6720 29085.00000000 29086.00000000 29087.00000000
6721 29088.00000000 29089.00000000 29090.00000000
6722 29091.00000000 29092.00000000 29093.00000000
6723 29094.00000000 29095.00000000 29096.00000000
6724 29097.00000000 29098.00000000 29099.00000000
6725 29100.00000000 29101.00000000 29102.00000000
6726 29103.00000000 29104.00000000 29105.00000000
6727 29124.00000000 29125.00000000 29126.00000000
6728 29127.00000000 29128.00000000 29129.00000000
6729 29130.00000000 29131.00000000 29132.00000000
6730 29151.00000000 29152.00000000 29153.00000000
6731 29154.00000000 29155.00000000 29156.00000000
6732 29157.00000000 29158.00000000 29159.00000000
6733 29160.00000000 29161.00000000 29162.00000000
6734 29163.00000000 29164.00000000 29165.00000000
6735 29166.00000000 29167.00000000 29168.00000000
6736 29178.00000000 29179.00000000 29180.00000000
6737 29181.00000000 29182.00000000 29183.00000000
6738 29184.00000000 29185.00000000 29186.00000000
6739 29187.00000000 29188.00000000 29189.00000000
6740 29190.00000000 29191.00000000 29192.00000000
6741 29193.00000000 29194.00000000 29195.00000000
6742 29214.00000000 29215.00000000 29216.00000000
6743 29217.00000000 29218.00000000 29219.00000000
6744 29220.00000000 29221.00000000 29222.00000000
6745 29223.00000000 29224.00000000 29225.00000000
6746 29226.00000000 29227.00000000 29228.00000000
6747 29229.00000000 29230.00000000 29231.00000000
6748 29232.00000000 29233.00000000 29234.00000000
6749 29235.00000000 29236.00000000 29237.00000000
6750 29238.00000000 29239.00000000 29240.00000000
6751 29241.00000000 29242.00000000 29243.00000000
6752 29244.00000000 29245.00000000 29246.00000000
6753 29247.00000000 29248.00000000 29249.00000000
6754 29259.00000000 29260.00000000 29261.00000000
6755 29262.00000000 29263.00000000 29264.00000000
6756 29265.00000000 29266.00000000 29267.00000000
6757 29268.00000000 29269.00000000 29270.00000000
6758 29271.00000000 29272.00000000 29273.00000000
6759 29274.00000000 29275.00000000 29276.00000000
6760 29295.00000000 29296.00000000 29297.00000000
6761 29298.00000000 29299.00000000 29300.00000000
6762 29301.00000000 29302.00000000 29303.00000000
6763 29304.00000000 29305.00000000 29306.00000000
6764 29307.00000000 29308.00000000 29309.00000000
6765 29310.00000000 29311.00000000 29312.00000000
6766 29313.00000000 29314.00000000 29315.00000000
6767 29316.00000000 29317.00000000 29318.00000000
6768 29319.00000000 29320.00000000 29321.00000000
6769 29322.00000000 29323.00000000 29324.00000000
6770 29325.00000000 29326.00000000 29327.00000000
6771 29328.00000000 29329.00000000 29330.00000000
6772 29340.00000000 29341.00000000 29342.00000000
6773 29343.00000000 29344.00000000 29345.00000000
6774 29346.00000000 29347.00000000 29348.00000000
6775 29349.00000000 29350.00000000 29351.00000000
6776 29352.00000000 29353.00000000 29354.00000000
6777 29355.00000000 29356.00000000 29357.00000000
6778 29376.00000000 29377.00000000 29378.00000000
6779 29379.00000000 29380.00000000 29381.00000000
6780 29382.00000000 29383.00000000 29384.00000000
6781 29385.00000000 29386.00000000 29387.00000000
6782 29388.00000000 29389.00000000 29390.00000000
6783 29391.00000000 29392.00000000 29393.00000000
6784 29394.00000000 29395.00000000 29396.00000000
6785 29397.00000000 29398.00000000 29399.00000000
6786 29400.00000000 29401.00000000 29402.00000000
6787 29403.00000000 29404.00000000 29405.00000000
6788 29406.00000000 29407.00000000 29408.00000000
6789 29409.00000000 29410.00000000 29411.00000000
6790 29421.00000000 29422.00000000 29423.00000000
6791 29424.00000000 29425.00000000 29426.00000000
6792 29427.00000000 29428.00000000 29429.00000000
6793 29457.00000000 29458.00000000 29459.00000000
6794 29460.00000000 29461.00000000 29462.00000000
6795 29463.00000000 29464.00000000 29465.00000000
6796 29466.00000000 29467.00000000 29468.00000000
6797 29469.00000000 29470.00000000 29471.00000000
6798 29472.00000000 29473.00000000 29474.00000000
6799 29475.00000000 29476.00000000 29477.00000000
6800 29478.00000000 29479.00000000 29480.00000000
6801 29481.00000000 29482.00000000 29483.00000000
6802 29484.00000000 29485.00000000 29486.00000000
6803 29487.00000000 29488.00000000 29489.00000000
6804 29490.00000000 29491.00000000 29492.00000000
6805 29502.00000000 29503.00000000 29504.00000000
6806 29505.00000000 29506.00000000 29507.00000000
6807 29508.00000000 29509.00000000 29510.00000000
6808 29538.00000000 29539.00000000 29540.00000000
6809 29541.00000000 29542.00000000 29543.00000000
6810 29544.00000000 29545.00000000 29546.00000000
6811 29547.00000000 29548.00000000 29549.00000000
6812 29550.00000000 29551.00000000 29552.00000000
6813 29553.00000000 29554.00000000 29555.00000000
6814 29556.00000000 29557.00000000 29558.00000000
6815 29559.00000000 29560.00000000 29561.00000000
6816 29562.00000000 29563.00000000 29564.00000000
6817 29565.00000000 29566.00000000 29567.00000000
6818 29568.00000000 29569.00000000 29570.00000000
6819 29571.00000000 29572.00000000 29573.00000000
6820 29583.00000000 29584.00000000 29585.00000000
6821 29586.00000000 29587.00000000 29588.00000000
6822 29589.00000000 29590.00000000 29591.00000000
6823 29619.00000000 29620.00000000 29621.00000000
6824 29622.00000000 29623.00000000 29624.00000000
6825 29625.00000000 29626.00000000 29627.00000000
6826 29628.00000000 29629.00000000 29630.00000000
6827 29631.00000000 29632.00000000 29633.00000000
6828 29634.00000000 29635.00000000 29636.00000000
6829 29637.00000000 29638.00000000 29639.00000000
6830 29640.00000000 29641.00000000 29642.00000000
6831 29643.00000000 29644.00000000 29645.00000000
6832 29646.00000000 29647.00000000 29648.00000000
6833 29649.00000000 29650.00000000 29651.00000000
6834 29652.00000000 29653.00000000 29654.00000000
6835 29655.00000000 29656.00000000 29657.00000000
6836 29658.00000000 29659.00000000 29660.00000000
6837 29661.00000000 29662.00000000 29663.00000000
6838 29664.00000000 29665.00000000 29666.00000000
6839 29667.00000000 29668.00000000 29669.00000000
6840 29670.00000000 29671.00000000 29672.00000000
6841 29691.00000000 29692.00000000 29693.00000000
6842 29694.00000000 29695.00000000 29696.00000000
6843 29697.00000000 29698.00000000 29699.00000000
6844 29700.00000000 29701.00000000 29702.00000000
6845 29703.00000000 29704.00000000 29705.00000000
6846 29706.00000000 29707.00000000 29708.00000000
6847 29709.00000000 29710.00000000 29711.00000000
6848 29712.00000000 29713.00000000 29714.00000000
6849 29715.00000000 29716.00000000 29717.00000000
6850 29718.00000000 29719.00000000 29720.00000000
6851 29721.00000000 29722.00000000 29723.00000000
6852 29724.00000000 29725.00000000 29726.00000000
6853 29727.00000000 29728.00000000 29729.00000000
6854 29730.00000000 29731.00000000 29732.00000000
6855 29733.00000000 29734.00000000 29735.00000000
6856 29736.00000000 29737.00000000 29738.00000000
6857 29739.00000000 29740.00000000 29741.00000000
6858 29742.00000000 29743.00000000 29744.00000000
6859 29745.00000000 29746.00000000 29747.00000000
6860 29748.00000000 29749.00000000 29750.00000000
6861 29751.00000000 29752.00000000 29753.00000000
6862 29772.00000000 29773.00000000 29774.00000000
6863 29775.00000000 29776.00000000 29777.00000000
6864 29778.00000000 29779.00000000 29780.00000000
6865 29781.00000000 29782.00000000 29783.00000000
6866 29784.00000000 29785.00000000 29786.00000000
6867 29787.00000000 29788.00000000 29789.00000000
6868 29790.00000000 29791.00000000 29792.00000000
6869 29793.00000000 29794.00000000 29795.00000000
6870 29796.00000000 29797.00000000 29798.00000000
6871 29799.00000000 29800.00000000 29801.00000000
6872 29802.00000000 29803.00000000 29804.00000000
6873 29805.00000000 29806.00000000 29807.00000000
6874 29808.00000000 29809.00000000 29810.00000000
6875 29811.00000000 29812.00000000 29813.00000000
6876 29814.00000000 29815.00000000 29816.00000000
6877 29817.00000000 29818.00000000 29819.00000000
6878 29820.00000000 29821.00000000 29822.00000000
6879 29823.00000000 29824.00000000 29825.00000000
6880 29826.00000000 29827.00000000 29828.00000000
6881 29829.00000000 29830.00000000 29831.00000000
6882 29832.00000000 29833.00000000 29834.00000000
6883 29853.00000000 29854.00000000 29855.00000000
6884 29856.00000000 29857.00000000 29858.00000000
6885 29859.00000000 29860.00000000 29861.00000000
6886 29862.00000000 29863.00000000 29864.00000000
6887 29865.00000000 29866.00000000 29867.00000000
6888 29868.00000000 29869.00000000 29870.00000000
6889 29871.00000000 29872.00000000 29873.00000000
6890 29874.00000000 29875.00000000 29876.00000000
6891 29877.00000000 29878.00000000 29879.00000000
6892 29880.00000000 29881.00000000 29882.00000000
6893 29883.00000000 29884.00000000 29885.00000000
6894 29886.00000000 29887.00000000 29888.00000000
6895 29889.00000000 29890.00000000 29891.00000000
6896 29892.00000000 29893.00000000 29894.00000000
6897 29895.00000000 29896.00000000 29897.00000000
6898 29898.00000000 29899.00000000 29900.00000000
6899 29901.00000000 29902.00000000 29903.00000000
6900 29904.00000000 29905.00000000 29906.00000000
6901 29907.00000000 29908.00000000 29909.00000000
6902 29910.00000000 29911.00000000 29912.00000000
6903 29913.00000000 29914.00000000 29915.00000000
6904 29934.00000000 29935.00000000 29936.00000000
6905 29937.00000000 29938.00000000 29939.00000000
6906 29940.00000000 29941.00000000 29942.00000000
6907 29943.00000000 29944.00000000 29945.00000000
6908 29946.00000000 29947.00000000 29948.00000000
6909 29949.00000000 29950.00000000 29951.00000000
6910 29952.00000000 29953.00000000 29954.00000000
6911 29955.00000000 29956.00000000 29957.00000000
6912 29958.00000000 29959.00000000 29960.00000000
6913 29961.00000000 29962.00000000 29963.00000000
6914 29964.00000000 29965.00000000 29966.00000000
6915 29967.00000000 29968.00000000 29969.00000000
6916 29970.00000000 29971.00000000 29972.00000000
6917 29973.00000000 29974.00000000 29975.00000000
6918 29976.00000000 29977.00000000 29978.00000000
6919 29979.00000000 29980.00000000 29981.00000000
6920 29982.00000000 29983.00000000 29984.00000000
6921 29985.00000000 29986.00000000 29987.00000000
6922 29988.00000000 29989.00000000 29990.00000000
6923 29991.00000000 29992.00000000 29993.00000000
6924 29994.00000000 29995.00000000 29996.00000000
6925 30015.00000000 30016.00000000 30017.00000000
6926 30018.00000000 30019.00000000 30020.00000000
6927 30021.00000000 30022.00000000 30023.00000000
6928 30024.00000000 30025.00000000 30026.00000000
6929 30027.00000000 30028.00000000 30029.00000000
6930 30030.00000000 30031.00000000 30032.00000000
6931 30033.00000000 30034.00000000 30035.00000000
6932 30036.00000000 30037.00000000 30038.00000000
6933 30039.00000000 30040.00000000 30041.00000000
6934 30042.00000000 30043.00000000 30044.00000000
6935 30045.00000000 30046.00000000 30047.00000000
6936 30048.00000000 30049.00000000 30050.00000000
6937 30051.00000000 30052.00000000 30053.00000000
6938 30054.00000000 30055.00000000 30056.00000000
6939 30057.00000000 30058.00000000 30059.00000000
6940 30060.00000000 30061.00000000 30062.00000000
6941 30063.00000000 30064.00000000 30065.00000000
6942 30066.00000000 30067.00000000 30068.00000000
6943 30069.00000000 30070.00000000 30071.00000000
6944 30072.00000000 30073.00000000 30074.00000000
6945 30075.00000000 30076.00000000 30077.00000000
6946 30096.00000000 30097.00000000 30098.00000000
6947 30099.00000000 30100.00000000 30101.00000000
6948 30102.00000000 30103.00000000 30104.00000000
6949 30105.00000000 30106.00000000 30107.00000000
6950 30108.00000000 30109.00000000 30110.00000000
6951 30111.00000000 30112.00000000 30113.00000000
6952 30114.00000000 30115.00000000 30116.00000000
6953 30117.00000000 30118.00000000 30119.00000000
6954 30120.00000000 30121.00000000 30122.00000000
6955 30123.00000000 30124.00000000 30125.00000000
6956 30126.00000000 30127.00000000 30128.00000000
6957 30129.00000000 30130.00000000 30131.00000000
6958 30132.00000000 30133.00000000 30134.00000000
6959 30135.00000000 30136.00000000 30137.00000000
6960 30138.00000000 30139.00000000 30140.00000000
6961 30150.00000000 30151.00000000 30152.00000000
6962 30153.00000000 30154.00000000 30155.00000000
6963 30156.00000000 30157.00000000 30158.00000000
6964 30159.00000000 30160.00000000 30161.00000000
6965 30162.00000000 30163.00000000 30164.00000000
6966 30165.00000000 30166.00000000 30167.00000000
6967 30177.00000000 30178.00000000 30179.00000000
6968 30180.00000000 30181.00000000 30182.00000000
6969 30183.00000000 30184.00000000 30185.00000000
6970 30186.00000000 30187.00000000 30188.00000000
6971 30189.00000000 30190.00000000 30191.00000000
6972 30192.00000000 30193.00000000 30194.00000000
6973 30195.00000000 30196.00000000 30197.00000000
6974 30198.00000000 30199.00000000 30200.00000000
6975 30201.00000000 30202.00000000 30203.00000000
6976 30204.00000000 30205.00000000 30206.00000000
6977 30207.00000000 30208.00000000 30209.00000000
6978 30210.00000000 30211.00000000 30212.00000000
6979 30213.00000000 30214.00000000 30215.00000000
6980 30216.00000000 30217.00000000 30218.00000000
6981 30219.00000000 30220.00000000 30221.00000000
6982 30231.00000000 30232.00000000 30233.00000000
6983 30234.00000000 30235.00000000 30236.00000000
6984 30237.00000000 30238.00000000 30239.00000000
6985 30240.00000000 30241.00000000 30242.00000000
6986 30243.00000000 30244.00000000 30245.00000000
6987 30246.00000000 30247.00000000 30248.00000000
6988 30258.00000000 30259.00000000 30260.00000000
6989 30261.00000000 30262.00000000 30263.00000000
6990 30264.00000000 30265.00000000 30266.00000000
6991 30267.00000000 30268.00000000 30269.00000000
6992 30270.00000000 30271.00000000 30272.00000000
6993 30273.00000000 30274.00000000 30275.00000000
6994 30276.00000000 30277.00000000 30278.00000000
6995 30279.00000000 30280.00000000 30281.00000000
6996 30282.00000000 30283.00000000 30284.00000000
6997 30285.00000000 30286.00000000 30287.00000000
6998 30288.00000000 30289.00000000 30290.00000000
6999 30291.00000000 30292.00000000 30293.00000000
7000 30294.00000000 30295.00000000 30296.00000000
7001 30297.00000000 30298.00000000 30299.00000000
7002 30300.00000000 30301.00000000 30302.00000000
7003 30312.00000000 30313.00000000 30314.00000000
7004 30315.00000000 30316.00000000 30317.00000000
7005 30318.00000000 30319.00000000 30320.00000000
7006 30321.00000000 30322.00000000 30323.00000000
7007 30324.00000000 30325.00000000 30326.00000000
7008 30327.00000000 30328.00000000 30329.00000000
7009 30339.00000000 30340.00000000 30341.00000000
7010 30342.00000000 30343.00000000 30344.00000000
7011 30345.00000000 30346.00000000 30347.00000000
7012 30348.00000000 30349.00000000 30350.00000000
7013 30351.00000000 30352.00000000 30353.00000000
7014 30354.00000000 30355.00000000 30356.00000000
7015 30357.00000000 30358.00000000 30359.00000000
7016 30360.00000000 30361.00000000 30362.00000000
7017 30363.00000000 30364.00000000 30365.00000000
7018 30366.00000000 30367.00000000 30368.00000000
7019 30369.00000000 30370.00000000 30371.00000000
7020 30372.00000000 30373.00000000 30374.00000000
7021 30375.00000000 30376.00000000 30377.00000000
7022 30378.00000000 30379.00000000 30380.00000000
7023 30381.00000000 30382.00000000 30383.00000000
7024 30393.00000000 30394.00000000 30395.00000000
7025 30396.00000000 30397.00000000 30398.00000000
7026 30399.00000000 30400.00000000 30401.00000000
7027 30420.00000000 30421.00000000 30422.00000000
7028 30423.00000000 30424.00000000 30425.00000000
7029 30426.00000000 30427.00000000 30428.00000000
7030 30429.00000000 30430.00000000 30431.00000000
7031 30432.00000000 30433.00000000 30434.00000000
7032 30435.00000000 30436.00000000 30437.00000000
7033 30438.00000000 30439.00000000 30440.00000000
7034 30441.00000000 30442.00000000 30443.00000000
7035 30444.00000000 30445.00000000 30446.00000000
7036 30447.00000000 30448.00000000 30449.00000000
7037 30450.00000000 30451.00000000 30452.00000000
7038 30453.00000000 30454.00000000 30455.00000000
7039 30456.00000000 30457.00000000 30458.00000000
7040 30459.00000000 30460.00000000 30461.00000000
7041 30462.00000000 30463.00000000 30464.00000000
7042 30474.00000000 30475.00000000 30476.00000000
7043 30477.00000000 30478.00000000 30479.00000000
7044 30480.00000000 30481.00000000 30482.00000000
7045 30501.00000000 30502.00000000 30503.00000000
7046 30504.00000000 30505.00000000 30506.00000000
7047 30507.00000000 30508.00000000 30509.00000000
7048 30510.00000000 30511.00000000 30512.00000000
7049 30513.00000000 30514.00000000 30515.00000000
7050 30516.00000000 30517.00000000 30518.00000000
7051 30519.00000000 30520.00000000 30521.00000000
7052 30522.00000000 30523.00000000 30524.00000000
7053 30525.00000000 30526.00000000 30527.00000000
7054 30528.00000000 30529.00000000 30530.00000000
7055 30531.00000000 30532.00000000 30533.00000000
7056 30534.00000000 30535.00000000 30536.00000000
7057 30537.00000000 30538.00000000 30539.00000000
7058 30540.00000000 30541.00000000 30542.00000000
7059 30543.00000000 30544.00000000 30545.00000000
7060 30555.00000000 30556.00000000 30557.00000000
7061 30558.00000000 30559.00000000 30560.00000000
7062 30561.00000000 30562.00000000 30563.00000000
7063 30582.00000000 30583.00000000 30584.00000000
7064 30585.00000000 30586.00000000 30587.00000000
7065 30588.00000000 30589.00000000 30590.00000000
7066 30591.00000000 30592.00000000 30593.00000000
7067 30594.00000000 30595.00000000 30596.00000000
7068 30597.00000000 30598.00000000 30599.00000000
7069 30600.00000000 30601.00000000 30602.00000000
7070 30603.00000000 30604.00000000 30605.00000000
7071 30606.00000000 30607.00000000 30608.00000000
7072 30609.00000000 30610.00000000 30611.00000000
7073 30612.00000000 30613.00000000 30614.00000000
7074 30615.00000000 30616.00000000 30617.00000000
7075 30618.00000000 30619.00000000 30620.00000000
7076 30621.00000000 30622.00000000 30623.00000000
7077 30624.00000000 30625.00000000 30626.00000000
7078 30627.00000000 30628.00000000 30629.00000000
7079 30630.00000000 30631.00000000 30632.00000000
7080 30633.00000000 30634.00000000 30635.00000000
7081 30636.00000000 30637.00000000 30638.00000000
7082 30639.00000000 30640.00000000 30641.00000000
7083 30642.00000000 30643.00000000 30644.00000000
7084 30663.00000000 30664.00000000 30665.00000000
7085 30666.00000000 30667.00000000 30668.00000000
7086 30669.00000000 30670.00000000 30671.00000000
7087 30672.00000000 30673.00000000 30674.00000000
7088 30675.00000000 30676.00000000 30677.00000000
7089 30678.00000000 30679.00000000 30680.00000000
7090 30681.00000000 30682.00000000 30683.00000000
7091 30684.00000000 30685.00000000 30686.00000000
7092 30687.00000000 30688.00000000 30689.00000000
7093 30690.00000000 30691.00000000 30692.00000000
7094 30693.00000000 30694.00000000 30695.00000000
7095 30696.00000000 30697.00000000 30698.00000000
7096 30699.00000000 30700.00000000 30701.00000000
7097 30702.00000000 30703.00000000 30704.00000000
7098 30705.00000000 30706.00000000 30707.00000000
7099 30708.00000000 30709.00000000 30710.00000000
7100 30711.00000000 30712.00000000 30713.00000000
7101 30714.00000000 30715.00000000 30716.00000000
7102 30717.00000000 30718.00000000 30719.00000000
7103 30720.00000000 30721.00000000 30722.00000000
7104 30723.00000000 30724.00000000 30725.00000000
7105 30744.00000000 30745.00000000 30746.00000000
7106 30747.00000000 30748.00000000 30749.00000000
7107 30750.00000000 30751.00000000 30752.00000000
7108 30753.00000000 30754.00000000 30755.00000000
7109 30756.00000000 30757.00000000 30758.00000000
7110 30759.00000000 30760.00000000 30761.00000000
7111 30762.00000000 30763.00000000 30764.00000000
7112 30765.00000000 30766.00000000 30767.00000000
7113 30768.00000000 30769.00000000 30770.00000000
7114 30771.00000000 30772.00000000 30773.00000000
7115 30774.00000000 30775.00000000 30776.00000000
7116 30777.00000000 30778.00000000 30779.00000000
7117 30780.00000000 30781.00000000 30782.00000000
7118 30783.00000000 30784.00000000 30785.00000000
7119 30786.00000000 30787.00000000 30788.00000000
7120 30789.00000000 30790.00000000 30791.00000000
7121 30792.00000000 30793.00000000 30794.00000000
7122 30795.00000000 30796.00000000 30797.00000000
7123 30798.00000000 30799.00000000 30800.00000000
7124 30801.00000000 30802.00000000 30803.00000000
7125 30804.00000000 30805.00000000 30806.00000000
7126 30825.00000000 30826.00000000 30827.00000000
7127 30828.00000000 30829.00000000 30830.00000000
7128 30831.00000000 30832.00000000 30833.00000000
7129 30834.00000000 30835.00000000 30836.00000000
7130 30837.00000000 30838.00000000 30839.00000000
7131 30840.00000000 30841.00000000 30842.00000000
7132 30843.00000000 30844.00000000 30845.00000000
7133 30846.00000000 30847.00000000 30848.00000000
7134 30849.00000000 30850.00000000 30851.00000000
7135 30852.00000000 30853.00000000 30854.00000000
7136 30855.00000000 30856.00000000 30857.00000000
7137 30858.00000000 30859.00000000 30860.00000000
7138 30879.00000000 30880.00000000 30881.00000000
7139 30882.00000000 30883.00000000 30884.00000000
7140 30885.00000000 30886.00000000 30887.00000000
7141 30906.00000000 30907.00000000 30908.00000000
7142 30909.00000000 30910.00000000 30911.00000000
7143 30912.00000000 30913.00000000 30914.00000000
7144 30915.00000000 30916.00000000 30917.00000000
7145 30918.00000000 30919.00000000 30920.00000000
7146 30921.00000000 30922.00000000 30923.00000000
7147 30924.00000000 30925.00000000 30926.00000000
7148 30927.00000000 30928.00000000 30929.00000000
7149 30930.00000000 30931.00000000 30932.00000000
7150 30933.00000000 30934.00000000 30935.00000000
7151 30936.00000000 30937.00000000 30938.00000000
7152 30939.00000000 30940.00000000 30941.00000000
7153 30960.00000000 30961.00000000 30962.00000000
7154 30963.00000000 30964.00000000 30965.00000000
7155 30966.00000000 30967.00000000 30968.00000000
7156 30987.00000000 30988.00000000 30989.00000000
7157 30990.00000000 30991.00000000 30992.00000000
7158 30993.00000000 30994.00000000 30995.00000000
7159 30996.00000000 30997.00000000 30998.00000000
7160 30999.00000000 31000.00000000 31001.00000000
7161 31002.00000000 31003.00000000 31004.00000000
7162 31005.00000000 31006.00000000 31007.00000000
7163 31008.00000000 31009.00000000 31010.00000000
7164 31011.00000000 31012.00000000 31013.00000000
7165 31014.00000000 31015.00000000 31016.00000000
7166 31017.00000000 31018.00000000 31019.00000000
7167 31020.00000000 31021.00000000 31022.00000000
7168 31041.00000000 31042.00000000 31043.00000000
7169 31044.00000000 31045.00000000 31046.00000000
7170 31047.00000000 31048.00000000 31049.00000000
7171 31068.00000000 31069.00000000 31070.00000000
7172 31071.00000000 31072.00000000 31073.00000000
7173 31074.00000000 31075.00000000 31076.00000000
7174 31077.00000000 31078.00000000 31079.00000000
7175 31080.00000000 31081.00000000 31082.00000000
7176 31083.00000000 31084.00000000 31085.00000000
7177 31086.00000000 31087.00000000 31088.00000000
7178 31089.00000000 31090.00000000 31091.00000000
7179 31092.00000000 31093.00000000 31094.00000000
7180 31095.00000000 31096.00000000 31097.00000000
7181 31098.00000000 31099.00000000 31100.00000000
7182 31101.00000000 31102.00000000 31103.00000000
7183 31104.00000000 31105.00000000 31106.00000000
7184 31107.00000000 31108.00000000 31109.00000000
7185 31110.00000000 31111.00000000 31112.00000000
7186 31131.00000000 31132.00000000 31133.00000000
7187 31134.00000000 31135.00000000 31136.00000000
7188 31137.00000000 31138.00000000 31139.00000000
7189 31158.00000000 31159.00000000 31160.00000000
7190 31161.00000000 31162.00000000 31163.00000000
7191 31164.00000000 31165.00000000 31166.00000000
7192 31167.00000000 31168.00000000 31169.00000000
7193 31170.00000000 31171.00000000 31172.00000000
7194 31173.00000000 31174.00000000 31175.00000000
7195 31176.00000000 31177.00000000 31178.00000000
7196 31179.00000000 31180.00000000 31181.00000000
7197 31182.00000000 31183.00000000 31184.00000000
7198 31185.00000000 31186.00000000 31187.00000000
7199 31188.00000000 31189.00000000 31190.00000000
7200 31191.00000000 31192.00000000 31193.00000000
7201 31212.00000000 31213.00000000 31214.00000000
7202 31215.00000000 31216.00000000 31217.00000000
7203 31218.00000000 31219.00000000 31220.00000000
7204 31239.00000000 31240.00000000 31241.00000000
7205 31242.00000000 31243.00000000 31244.00000000
7206 31245.00000000 31246.00000000 31247.00000000
7207 31248.00000000 31249.00000000 31250.00000000
7208 31251.00000000 31252.00000000 31253.00000000
7209 31254.00000000 31255.00000000 31256.00000000
7210 31257.00000000 31258.00000000 31259.00000000
7211 31260.00000000 31261.00000000 31262.00000000
7212 31263.00000000 31264.00000000 31265.00000000
7213 31266.00000000 31267.00000000 31268.00000000
7214 31269.00000000 31270.00000000 31271.00000000
7215 31272.00000000 31273.00000000 31274.00000000
7216 31293.00000000 31294.00000000 31295.00000000
7217 31296.00000000 31297.00000000 31298.00000000
7218 31299.00000000 31300.00000000 31301.00000000
7219 31320.00000000 31321.00000000 31322.00000000
7220 31323.00000000 31324.00000000 31325.00000000
7221 31326.00000000 31327.00000000 31328.00000000
7222 31329.00000000 31330.00000000 31331.00000000
7223 31332.00000000 31333.00000000 31334.00000000
7224 31335.00000000 31336.00000000 31337.00000000
7225 31338.00000000 31339.00000000 31340.00000000
7226 31341.00000000 31342.00000000 31343.00000000
7227 31344.00000000 31345.00000000 31346.00000000
7228 31347.00000000 31348.00000000 31349.00000000
7229 31350.00000000 31351.00000000 31352.00000000
7230 31353.00000000 31354.00000000 31355.00000000
7231 31356.00000000 31357.00000000 31358.00000000
7232 31359.00000000 31360.00000000 31361.00000000
7233 31362.00000000 31363.00000000 31364.00000000
7234 31365.00000000 31366.00000000 31367.00000000
7235 31368.00000000 31369.00000000 31370.00000000
7236 31371.00000000 31372.00000000 31373.00000000
7237 31374.00000000 31375.00000000 31376.00000000
7238 31377.00000000 31378.00000000 31379.00000000
7239 31380.00000000 31381.00000000 31382.00000000
7240 31401.00000000 31402.00000000 31403.00000000
7241 31404.00000000 31405.00000000 31406.00000000
7242 31407.00000000 31408.00000000 31409.00000000
7243 31428.00000000 31429.00000000 31430.00000000
7244 31431.00000000 31432.00000000 31433.00000000
7245 31434.00000000 31435.00000000 31436.00000000
7246 31437.00000000 31438.00000000 31439.00000000
7247 31440.00000000 31441.00000000 31442.00000000
7248 31443.00000000 31444.00000000 31445.00000000
7249 31446.00000000 31447.00000000 31448.00000000
7250 31449.00000000 31450.00000000 31451.00000000
7251 31452.00000000 31453.00000000 31454.00000000
7252 31455.00000000 31456.00000000 31457.00000000
7253 31458.00000000 31459.00000000 31460.00000000
7254 31461.00000000 31462.00000000 31463.00000000
7255 31482.00000000 31483.00000000 31484.00000000
7256 31485.00000000 31486.00000000 31487.00000000
7257 31488.00000000 31489.00000000 31490.00000000
7258 31509.00000000 31510.00000000 31511.00000000
7259 31512.00000000 31513.00000000 31514.00000000
7260 31515.00000000 31516.00000000 31517.00000000
7261 31518.00000000 31519.00000000 31520.00000000
7262 31521.00000000 31522.00000000 31523.00000000
7263 31524.00000000 31525.00000000 31526.00000000
7264 31527.00000000 31528.00000000 31529.00000000
7265 31530.00000000 31531.00000000 31532.00000000
7266 31533.00000000 31534.00000000 31535.00000000
7267 31536.00000000 31537.00000000 31538.00000000
7268 31539.00000000 31540.00000000 31541.00000000
7269 31542.00000000 31543.00000000 31544.00000000
7270 31563.00000000 31564.00000000 31565.00000000
7271 31566.00000000 31567.00000000 31568.00000000
7272 31569.00000000 31570.00000000 31571.00000000
7273 31590.00000000 31591.00000000 31592.00000000
7274 31593.00000000 31594.00000000 31595.00000000
7275 31596.00000000 31597.00000000 31598.00000000
7276 31599.00000000 31600.00000000 31601.00000000
7277 31602.00000000 31603.00000000 31604.00000000
7278 31605.00000000 31606.00000000 31607.00000000
7279 31608.00000000 31609.00000000 31610.00000000
7280 31611.00000000 31612.00000000 31613.00000000
7281 31614.00000000 31615.00000000 31616.00000000
7282 31617.00000000 31618.00000000 31619.00000000
7283 31620.00000000 31621.00000000 31622.00000000
7284 31623.00000000 31624.00000000 31625.00000000
7285 31644.00000000 31645.00000000 31646.00000000
7286 31647.00000000 31648.00000000 31649.00000000
7287 31650.00000000 31651.00000000 31652.00000000
7288 31662.00000000 31663.00000000 31664.00000000
7289 31665.00000000 31666.00000000 31667.00000000
7290 31668.00000000 31669.00000000 31670.00000000
7291 31671.00000000 31672.00000000 31673.00000000
7292 31674.00000000 31675.00000000 31676.00000000
7293 31677.00000000 31678.00000000 31679.00000000
7294 31680.00000000 31681.00000000 31682.00000000
7295 31683.00000000 31684.00000000 31685.00000000
7296 31686.00000000 31687.00000000 31688.00000000
7297 31689.00000000 31690.00000000 31691.00000000
7298 31692.00000000 31693.00000000 31694.00000000
7299 31695.00000000 31696.00000000 31697.00000000
7300 31698.00000000 31699.00000000 31700.00000000
7301 31701.00000000 31702.00000000 31703.00000000
7302 31704.00000000 31705.00000000 31706.00000000
7303 31725.00000000 31726.00000000 31727.00000000
7304 31728.00000000 31729.00000000 31730.00000000
7305 31731.00000000 31732.00000000 31733.00000000
7306 31743.00000000 31744.00000000 31745.00000000
7307 31746.00000000 31747.00000000 31748.00000000
7308 31749.00000000 31750.00000000 31751.00000000
7309 31752.00000000 31753.00000000 31754.00000000
7310 31755.00000000 31756.00000000 31757.00000000
7311 31758.00000000 31759.00000000 31760.00000000
7312 31761.00000000 31762.00000000 31763.00000000
7313 31764.00000000 31765.00000000 31766.00000000
7314 31767.00000000 31768.00000000 31769.00000000
7315 31770.00000000 31771.00000000 31772.00000000
7316 31773.00000000 31774.00000000 31775.00000000
7317 31776.00000000 31777.00000000 31778.00000000
7318 31779.00000000 31780.00000000 31781.00000000
7319 31782.00000000 31783.00000000 31784.00000000
7320 31785.00000000 31786.00000000 31787.00000000
7321 31806.00000000 31807.00000000 31808.00000000
7322 31809.00000000 31810.00000000 31811.00000000
7323 31812.00000000 31813.00000000 31814.00000000
7324 31824.00000000 31825.00000000 31826.00000000
7325 31827.00000000 31828.00000000 31829.00000000
7326 31830.00000000 31831.00000000 31832.00000000
7327 31833.00000000 31834.00000000 31835.00000000
7328 31836.00000000 31837.00000000 31838.00000000
7329 31839.00000000 31840.00000000 31841.00000000
7330 31851.00000000 31852.00000000 31853.00000000
7331 31854.00000000 31855.00000000 31856.00000000
7332 31857.00000000 31858.00000000 31859.00000000
7333 31878.00000000 31879.00000000 31880.00000000
7334 31881.00000000 31882.00000000 31883.00000000
7335 31884.00000000 31885.00000000 31886.00000000
7336 31887.00000000 31888.00000000 31889.00000000
7337 31890.00000000 31891.00000000 31892.00000000
7338 31893.00000000 31894.00000000 31895.00000000
7339 31896.00000000 31897.00000000 31898.00000000
7340 31899.00000000 31900.00000000 31901.00000000
7341 31902.00000000 31903.00000000 31904.00000000
7342 31905.00000000 31906.00000000 31907.00000000
7343 31908.00000000 31909.00000000 31910.00000000
7344 31911.00000000 31912.00000000 31913.00000000
7345 31914.00000000 31915.00000000 31916.00000000
7346 31917.00000000 31918.00000000 31919.00000000
7347 31920.00000000 31921.00000000 31922.00000000
7348 31932.00000000 31933.00000000 31934.00000000
7349 31935.00000000 31936.00000000 31937.00000000
7350 31938.00000000 31939.00000000 31940.00000000
7351 31959.00000000 31960.00000000 31961.00000000
7352 31962.00000000 31963.00000000 31964.00000000
7353 31965.00000000 31966.00000000 31967.00000000
7354 31968.00000000 31969.00000000 31970.00000000
7355 31971.00000000 31972.00000000 31973.00000000
7356 31974.00000000 31975.00000000 31976.00000000
7357 31977.00000000 31978.00000000 31979.00000000
7358 31980.00000000 31981.00000000 31982.00000000
7359 31983.00000000 31984.00000000 31985.00000000
7360 31986.00000000 31987.00000000 31988.00000000
7361 31989.00000000 31990.00000000 31991.00000000
7362 31992.00000000 31993.00000000 31994.00000000
7363 31995.00000000 31996.00000000 31997.00000000
7364 31998.00000000 31999.00000000 32000.00000000
7365 32001.00000000 32002.00000000 32003.00000000
7366 32013.00000000 32014.00000000 32015.00000000
7367 32016.00000000 32017.00000000 32018.00000000
7368 32019.00000000 32020.00000000 32021.00000000
7369 32040.00000000 32041.00000000 32042.00000000
7370 32043.00000000 32044.00000000 32045.00000000
7371 32046.00000000 32047.00000000 32048.00000000
7372 32049.00000000 32050.00000000 32051.00000000
7373 32052.00000000 32053.00000000 32054.00000000
7374 32055.00000000 32056.00000000 32057.00000000
7375 32058.00000000 32059.00000000 32060.00000000
7376 32061.00000000 32062.00000000 32063.00000000
7377 32064.00000000 32065.00000000 32066.00000000
7378 32067.00000000 32068.00000000 32069.00000000
7379 32070.00000000 32071.00000000 32072.00000000
7380 32073.00000000 32074.00000000 32075.00000000
7381 32076.00000000 32077.00000000 32078.00000000
7382 32079.00000000 32080.00000000 32081.00000000
7383 32082.00000000 32083.00000000 32084.00000000
7384 32085.00000000 32086.00000000 32087.00000000
7385 32088.00000000 32089.00000000 32090.00000000
7386 32091.00000000 32092.00000000 32093.00000000
7387 32094.00000000 32095.00000000 32096.00000000
7388 32097.00000000 32098.00000000 32099.00000000
7389 32100.00000000 32101.00000000 32102.00000000
7390 32103.00000000 32104.00000000 32105.00000000
7391 32106.00000000 32107.00000000 32108.00000000
7392 32109.00000000 32110.00000000 32111.00000000
7393 32130.00000000 32131.00000000 32132.00000000
7394 32133.00000000 32134.00000000 32135.00000000
7395 32136.00000000 32137.00000000 32138.00000000
7396 32139.00000000 32140.00000000 32141.00000000
7397 32142.00000000 32143.00000000 32144.00000000
7398 32145.00000000 32146.00000000 32147.00000000
7399 32148.00000000 32149.00000000 32150.00000000
7400 32151.00000000 32152.00000000 32153.00000000
7401 32154.00000000 32155.00000000 32156.00000000
7402 32157.00000000 32158.00000000 32159.00000000
7403 32160.00000000 32161.00000000 32162.00000000
7404 32163.00000000 32164.00000000 32165.00000000
7405 32166.00000000 32167.00000000 32168.00000000
7406 32169.00000000 32170.00000000 32171.00000000
7407 32172.00000000 32173.00000000 32174.00000000
7408 32175.00000000 32176.00000000 32177.00000000
7409 32178.00000000 32179.00000000 32180.00000000
7410 32181.00000000 32182.00000000 32183.00000000
7411 32184.00000000 32185.00000000 32186.00000000
7412 32187.00000000 32188.00000000 32189.00000000
7413 32190.00000000 32191.00000000 32192.00000000
7414 32211.00000000 32212.00000000 32213.00000000
7415 32214.00000000 32215.00000000 32216.00000000
7416 32217.00000000 32218.00000000 32219.00000000
7417 32220.00000000 32221.00000000 32222.00000000
7418 32223.00000000 32224.00000000 32225.00000000
7419 32226.00000000 32227.00000000 32228.00000000
7420 32229.00000000 32230.00000000 32231.00000000
7421 32232.00000000 32233.00000000 32234.00000000
7422 32235.00000000 32236.00000000 32237.00000000
7423 32238.00000000 32239.00000000 32240.00000000
7424 32241.00000000 32242.00000000 32243.00000000
7425 32244.00000000 32245.00000000 32246.00000000
7426 32247.00000000 32248.00000000 32249.00000000
7427 32250.00000000 32251.00000000 32252.00000000
7428 32253.00000000 32254.00000000 32255.00000000
7429 32256.00000000 32257.00000000 32258.00000000
7430 32259.00000000 32260.00000000 32261.00000000
7431 32262.00000000 32263.00000000 32264.00000000
7432 32265.00000000 32266.00000000 32267.00000000
7433 32268.00000000 32269.00000000 32270.00000000
7434 32271.00000000 32272.00000000 32273.00000000
7435 32292.00000000 32293.00000000 32294.00000000
7436 32295.00000000 32296.00000000 32297.00000000
7437 32298.00000000 32299.00000000 32300.00000000
7438 32301.00000000 32302.00000000 32303.00000000
7439 32304.00000000 32305.00000000 32306.00000000
7440 32307.00000000 32308.00000000 32309.00000000
7441 32310.00000000 32311.00000000 32312.00000000
7442 32313.00000000 32314.00000000 32315.00000000
7443 32316.00000000 32317.00000000 32318.00000000
7444 32319.00000000 32320.00000000 32321.00000000
7445 32322.00000000 32323.00000000 32324.00000000
7446 32325.00000000 32326.00000000 32327.00000000
7447 32328.00000000 32329.00000000 32330.00000000
7448 32331.00000000 32332.00000000 32333.00000000
7449 32334.00000000 32335.00000000 32336.00000000
7450 32337.00000000 32338.00000000 32339.00000000
7451 32340.00000000 32341.00000000 32342.00000000
7452 32343.00000000 32344.00000000 32345.00000000
7453 32346.00000000 32347.00000000 32348.00000000
7454 32349.00000000 32350.00000000 32351.00000000
7455 32352.00000000 32353.00000000 32354.00000000
7456 32373.00000000 32374.00000000 32375.00000000
7457 32376.00000000 32377.00000000 32378.00000000
7458 32379.00000000 32380.00000000 32381.00000000
7459 32391.00000000 32392.00000000 32393.00000000
7460 32394.00000000 32395.00000000 32396.00000000
7461 32397.00000000 32398.00000000 32399.00000000
7462 32400.00000000 32401.00000000 32402.00000000
7463 32403.00000000 32404.00000000 32405.00000000
7464 32406.00000000 32407.00000000 32408.00000000
7465 32409.00000000 32410.00000000 32411.00000000
7466 32412.00000000 32413.00000000 32414.00000000
7467 32415.00000000 32416.00000000 32417.00000000
7468 32418.00000000 32419.00000000 32420.00000000
7469 32421.00000000 32422.00000000 32423.00000000
7470 32424.00000000 32425.00000000 32426.00000000
7471 32427.00000000 32428.00000000 32429.00000000
7472 32430.00000000 32431.00000000 32432.00000000
7473 32433.00000000 32434.00000000 32435.00000000
7474 32454.00000000 32455.00000000 32456.00000000
7475 32457.00000000 32458.00000000 32459.00000000
7476 32460.00000000 32461.00000000 32462.00000000
7477 32472.00000000 32473.00000000 32474.00000000
7478 32475.00000000 32476.00000000 32477.00000000
7479 32478.00000000 32479.00000000 32480.00000000
7480 32481.00000000 32482.00000000 32483.00000000
7481 32484.00000000 32485.00000000 32486.00000000
7482 32487.00000000 32488.00000000 32489.00000000
7483 32490.00000000 32491.00000000 32492.00000000
7484 32493.00000000 32494.00000000 32495.00000000
7485 32496.00000000 32497.00000000 32498.00000000
7486 32499.00000000 32500.00000000 32501.00000000
7487 32502.00000000 32503.00000000 32504.00000000
7488 32505.00000000 32506.00000000 32507.00000000
7489 32508.00000000 32509.00000000 32510.00000000
7490 32511.00000000 32512.00000000 32513.00000000
7491 32514.00000000 32515.00000000 32516.00000000
7492 32535.00000000 32536.00000000 32537.00000000
7493 32538.00000000 32539.00000000 32540.00000000
7494 32541.00000000 32542.00000000 32543.00000000
7495 32553.00000000 32554.00000000 32555.00000000
7496 32556.00000000 32557.00000000 32558.00000000
7497 32559.00000000 32560.00000000 32561.00000000
7498 32562.00000000 32563.00000000 32564.00000000
7499 32565.00000000 32566.00000000 32567.00000000
7500 32568.00000000 32569.00000000 32570.00000000
7501 32571.00000000 32572.00000000 32573.00000000
7502 32574.00000000 32575.00000000 32576.00000000
7503 32577.00000000 32578.00000000 32579.00000000
7504 32580.00000000 32581.00000000 32582.00000000
7505 32583.00000000 32584.00000000 32585.00000000
7506 32586.00000000 32587.00000000 32588.00000000
7507 32607.00000000 32608.00000000 32609.00000000
7508 32610.00000000 32611.00000000 32612.00000000
7509 32613.00000000 32614.00000000 32615.00000000
7510 32616.00000000 32617.00000000 32618.00000000
7511 32619.00000000 32620.00000000 32621.00000000
7512 32622.00000000 32623.00000000 32624.00000000
7513 32634.00000000 32635.00000000 32636.00000000
7514 32637.00000000 32638.00000000 32639.00000000
7515 32640.00000000 32641.00000000 32642.00000000
7516 32643.00000000 32644.00000000 32645.00000000
7517 32646.00000000 32647.00000000 32648.00000000
7518 32649.00000000 32650.00000000 32651.00000000
7519 32652.00000000 32653.00000000 32654.00000000
7520 32655.00000000 32656.00000000 32657.00000000
7521 32658.00000000 32659.00000000 32660.00000000
7522 32661.00000000 32662.00000000 32663.00000000
7523 32664.00000000 32665.00000000 32666.00000000
7524 32667.00000000 32668.00000000 32669.00000000
7525 32688.00000000 32689.00000000 32690.00000000
7526 32691.00000000 32692.00000000 32693.00000000
7527 32694.00000000 32695.00000000 32696.00000000
7528 32697.00000000 32698.00000000 32699.00000000
7529 32700.00000000 32701.00000000 32702.00000000
7530 32703.00000000 32704.00000000 32705.00000000
7531 32715.00000000 32716.00000000 32717.00000000
7532 32718.00000000 32719.00000000 32720.00000000
7533 32721.00000000 32722.00000000 32723.00000000
7534 32724.00000000 32725.00000000 32726.00000000
7535 32727.00000000 32728.00000000 32729.00000000
7536 32730.00000000 32731.00000000 32732.00000000
7537 32733.00000000 32734.00000000 32735.00000000
7538 32736.00000000 32737.00000000 32738.00000000
7539 32739.00000000 32740.00000000 32741.00000000
7540 32742.00000000 32743.00000000 32744.00000000
7541 32745.00000000 32746.00000000 32747.00000000
7542 32748.00000000 32749.00000000 32750.00000000
7543 32769.00000000 32770.00000000 32771.00000000
7544 32772.00000000 32773.00000000 32774.00000000
7545 32775.00000000 32776.00000000 32777.00000000
7546 32778.00000000 32779.00000000 32780.00000000
7547 32781.00000000 32782.00000000 32783.00000000
7548 32784.00000000 32785.00000000 32786.00000000
7549 32796.00000000 32797.00000000 32798.00000000
7550 32799.00000000 32800.00000000 32801.00000000
7551 32802.00000000 32803.00000000 32804.00000000
7552 32805.00000000 32806.00000000 32807.00000000
7553 32808.00000000 32809.00000000 32810.00000000
7554 32811.00000000 32812.00000000 32813.00000000
7555 32814.00000000 32815.00000000 32816.00000000
7556 32817.00000000 32818.00000000 32819.00000000
7557 32820.00000000 32821.00000000 32822.00000000
7558 32823.00000000 32824.00000000 32825.00000000
7559 32826.00000000 32827.00000000 32828.00000000
7560 32829.00000000 32830.00000000 32831.00000000
7561 32850.00000000 32851.00000000 32852.00000000
7562 32853.00000000 32854.00000000 32855.00000000
7563 32856.00000000 32857.00000000 32858.00000000
7564 32877.00000000 32878.00000000 32879.00000000
7565 32880.00000000 32881.00000000 32882.00000000
7566 32883.00000000 32884.00000000 32885.00000000
7567 32886.00000000 32887.00000000 32888.00000000
7568 32889.00000000 32890.00000000 32891.00000000
7569 32892.00000000 32893.00000000 32894.00000000
7570 32895.00000000 32896.00000000 32897.00000000
7571 32898.00000000 32899.00000000 32900.00000000
7572 32901.00000000 32902.00000000 32903.00000000
7573 32904.00000000 32905.00000000 32906.00000000
7574 32907.00000000 32908.00000000 32909.00000000
7575 32910.00000000 32911.00000000 32912.00000000
7576 32931.00000000 32932.00000000 32933.00000000
7577 32934.00000000 32935.00000000 32936.00000000
7578 32937.00000000 32938.00000000 32939.00000000
7579 32958.00000000 32959.00000000 32960.00000000
7580 32961.00000000 32962.00000000 32963.00000000
7581 32964.00000000 32965.00000000 32966.00000000
7582 32967.00000000 32968.00000000 32969.00000000
7583 32970.00000000 32971.00000000 32972.00000000
7584 32973.00000000 32974.00000000 32975.00000000
7585 32976.00000000 32977.00000000 32978.00000000
7586 32979.00000000 32980.00000000 32981.00000000
7587 32982.00000000 32983.00000000 32984.00000000
7588 32985.00000000 32986.00000000 32987.00000000
7589 32988.00000000 32989.00000000 32990.00000000
7590 32991.00000000 32992.00000000 32993.00000000
7591 33012.00000000 33013.00000000 33014.00000000
7592 33015.00000000 33016.00000000 33017.00000000
7593 33018.00000000 33019.00000000 33020.00000000
7594 33039.00000000 33040.00000000 33041.00000000
7595 33042.00000000 33043.00000000 33044.00000000
7596 33045.00000000 33046.00000000 33047.00000000
7597 33048.00000000 33049.00000000 33050.00000000
7598 33051.00000000 33052.00000000 33053.00000000
7599 33054.00000000 33055.00000000 33056.00000000
7600 33066.00000000 33067.00000000 33068.00000000
7601 33069.00000000 33070.00000000 33071.00000000
7602 33072.00000000 33073.00000000 33074.00000000
7603 33075.00000000 33076.00000000 33077.00000000
7604 33078.00000000 33079.00000000 33080.00000000
7605 33081.00000000 33082.00000000 33083.00000000
7606 33102.00000000 33103.00000000 33104.00000000
7607 33105.00000000 33106.00000000 33107.00000000
7608 33108.00000000 33109.00000000 33110.00000000
7609 33111.00000000 33112.00000000 33113.00000000
7610 33114.00000000 33115.00000000 33116.00000000
7611 33117.00000000 33118.00000000 33119.00000000
7612 33120.00000000 33121.00000000 33122.00000000
7613 33123.00000000 33124.00000000 33125.00000000
7614 33126.00000000 33127.00000000 33128.00000000
7615 33129.00000000 33130.00000000 33131.00000000
7616 33132.00000000 33133.00000000 33134.00000000
7617 33135.00000000 33136.00000000 33137.00000000
7618 33147.00000000 33148.00000000 33149.00000000
7619 33150.00000000 33151.00000000 33152.00000000
7620 33153.00000000 33154.00000000 33155.00000000
7621 33156.00000000 33157.00000000 33158.00000000
7622 33159.00000000 33160.00000000 33161.00000000
7623 33162.00000000 33163.00000000 33164.00000000
7624 33183.00000000 33184.00000000 33185.00000000
7625 33186.00000000 33187.00000000 33188.00000000
7626 33189.00000000 33190.00000000 33191.00000000
7627 33192.00000000 33193.00000000 33194.00000000
7628 33195.00000000 33196.00000000 33197.00000000
7629 33198.00000000 33199.00000000 33200.00000000
7630 33201.00000000 33202.00000000 33203.00000000
7631 33204.00000000 33205.00000000 33206.00000000
7632 33207.00000000 33208.00000000 33209.00000000
7633 33210.00000000 33211.00000000 33212.00000000
7634 33213.00000000 33214.00000000 33215.00000000
7635 33216.00000000 33217.00000000 33218.00000000
7636 33228.00000000 33229.00000000 33230.00000000
7637 33231.00000000 33232.00000000 33233.00000000
7638 33234.00000000 33235.00000000 33236.00000000
7639 33237.00000000 33238.00000000 33239.00000000
7640 33240.00000000 33241.00000000 33242.00000000
7641 33243.00000000 33244.00000000 33245.00000000
7642 33264.00000000 33265.00000000 33266.00000000
7643 33267.00000000 33268.00000000 33269.00000000
7644 33270.00000000 33271.00000000 33272.00000000
7645 33273.00000000 33274.00000000 33275.00000000
7646 33276.00000000 33277.00000000 33278.00000000
7647 33279.00000000 33280.00000000 33281.00000000
7648 33282.00000000 33283.00000000 33284.00000000
7649 33285.00000000 33286.00000000 33287.00000000
7650 33288.00000000 33289.00000000 33290.00000000
7651 33291.00000000 33292.00000000 33293.00000000
7652 33294.00000000 33295.00000000 33296.00000000
7653 33297.00000000 33298.00000000 33299.00000000
7654 33300.00000000 33301.00000000 33302.00000000
7655 33303.00000000 33304.00000000 33305.00000000
7656 33306.00000000 33307.00000000 33308.00000000
7657 33309.00000000 33310.00000000 33311.00000000
7658 33312.00000000 33313.00000000 33314.00000000
7659 33315.00000000 33316.00000000 33317.00000000
7660 33318.00000000 33319.00000000 33320.00000000
7661 33321.00000000 33322.00000000 33323.00000000
7662 33324.00000000 33325.00000000 33326.00000000
7663 33345.00000000 33346.00000000 33347.00000000
7664 33348.00000000 33349.00000000 33350.00000000
7665 33351.00000000 33352.00000000 33353.00000000
7666 33354.00000000 33355.00000000 33356.00000000
7667 33357.00000000 33358.00000000 33359.00000000
7668 33360.00000000 33361.00000000 33362.00000000
7669 33363.00000000 33364.00000000 33365.00000000
7670 33366.00000000 33367.00000000 33368.00000000
7671 33369.00000000 33370.00000000 33371.00000000
7672 33372.00000000 33373.00000000 33374.00000000
7673 33375.00000000 33376.00000000 33377.00000000
7674 33378.00000000 33379.00000000 33380.00000000
7675 33381.00000000 33382.00000000 33383.00000000
7676 33384.00000000 33385.00000000 33386.00000000
7677 33387.00000000 33388.00000000 33389.00000000
7678 33390.00000000 33391.00000000 33392.00000000
7679 33393.00000000 33394.00000000 33395.00000000
7680 33396.00000000 33397.00000000 33398.00000000
7681 33399.00000000 33400.00000000 33401.00000000
7682 33402.00000000 33403.00000000 33404.00000000
7683 33405.00000000 33406.00000000 33407.00000000
7684 33426.00000000 33427.00000000 33428.00000000
7685 33429.00000000 33430.00000000 33431.00000000
7686 33432.00000000 33433.00000000 33434.00000000
7687 33435.00000000 33436.00000000 33437.00000000
7688 33438.00000000 33439.00000000 33440.00000000
7689 33441.00000000 33442.00000000 33443.00000000
7690 33444.00000000 33445.00000000 33446.00000000
7691 33447.00000000 33448.00000000 33449.00000000
7692 33450.00000000 33451.00000000 33452.00000000
7693 33453.00000000 33454.00000000 33455.00000000
7694 33456.00000000 33457.00000000 33458.00000000
7695 33459.00000000 33460.00000000 33461.00000000
7696 33462.00000000 33463.00000000 33464.00000000
7697 33465.00000000 33466.00000000 33467.00000000
7698 33468.00000000 33469.00000000 33470.00000000
7699 33471.00000000 33472.00000000 33473.00000000
7700 33474.00000000 33475.00000000 33476.00000000
7701 33477.00000000 33478.00000000 33479.00000000
7702 33480.00000000 33481.00000000 33482.00000000
7703 33483.00000000 33484.00000000 33485.00000000
7704 33486.00000000 33487.00000000 33488.00000000
7705 33507.00000000 33508.00000000 33509.00000000
7706 33510.00000000 33511.00000000 33512.00000000
7707 33513.00000000 33514.00000000 33515.00000000
7708 33516.00000000 33517.00000000 33518.00000000
7709 33519.00000000 33520.00000000 33521.00000000
7710 33522.00000000 33523.00000000 33524.00000000
7711 33525.00000000 33526.00000000 33527.00000000
7712 33528.00000000 33529.00000000 33530.00000000
7713 33531.00000000 33532.00000000 33533.00000000
7714 33534.00000000 33535.00000000 33536.00000000
7715 33537.00000000 33538.00000000 33539.00000000
7716 33540.00000000 33541.00000000 33542.00000000
7717 33543.00000000 33544.00000000 33545.00000000
7718 33546.00000000 33547.00000000 33548.00000000
7719 33549.00000000 33550.00000000 33551.00000000
7720 33552.00000000 33553.00000000 33554.00000000
7721 33555.00000000 33556.00000000 33557.00000000
7722 33558.00000000 33559.00000000 33560.00000000
7723 33579.00000000 33580.00000000 33581.00000000
7724 33582.00000000 33583.00000000 33584.00000000
7725 33585.00000000 33586.00000000 33587.00000000
7726 33588.00000000 33589.00000000 33590.00000000
7727 33591.00000000 33592.00000000 33593.00000000
7728 33594.00000000 33595.00000000 33596.00000000
7729 33597.00000000 33598.00000000 33599.00000000
7730 33600.00000000 33601.00000000 33602.00000000
7731 33603.00000000 33604.00000000 33605.00000000
7732 33606.00000000 33607.00000000 33608.00000000
7733 33609.00000000 33610.00000000 33611.00000000
7734 33612.00000000 33613.00000000 33614.00000000
7735 33615.00000000 33616.00000000 33617.00000000
7736 33618.00000000 33619.00000000 33620.00000000
7737 33621.00000000 33622.00000000 33623.00000000
7738 33624.00000000 33625.00000000 33626.00000000
7739 33627.00000000 33628.00000000 33629.00000000
7740 33630.00000000 33631.00000000 33632.00000000
7741 33633.00000000 33634.00000000 33635.00000000
7742 33636.00000000 33637.00000000 33638.00000000
7743 33639.00000000 33640.00000000 33641.00000000
7744 33660.00000000 33661.00000000 33662.00000000
7745 33663.00000000 33664.00000000 33665.00000000
7746 33666.00000000 33667.00000000 33668.00000000
7747 33669.00000000 33670.00000000 33671.00000000
7748 33672.00000000 33673.00000000 33674.00000000
7749 33675.00000000 33676.00000000 33677.00000000
7750 33678.00000000 33679.00000000 33680.00000000
7751 33681.00000000 33682.00000000 33683.00000000
7752 33684.00000000 33685.00000000 33686.00000000
7753 33687.00000000 33688.00000000 33689.00000000
7754 33690.00000000 33691.00000000 33692.00000000
7755 33693.00000000 33694.00000000 33695.00000000
7756 33696.00000000 33697.00000000 33698.00000000
7757 33699.00000000 33700.00000000 33701.00000000
7758 33702.00000000 33703.00000000 33704.00000000
7759 33705.00000000 33706.00000000 33707.00000000
7760 33708.00000000 33709.00000000 33710.00000000
7761 33711.00000000 33712.00000000 33713.00000000
7762 33714.00000000 33715.00000000 33716.00000000
7763 33717.00000000 33718.00000000 33719.00000000
7764 33720.00000000 33721.00000000 33722.00000000
7765 33741.00000000 33742.00000000 33743.00000000
7766 33744.00000000 33745.00000000 33746.00000000
7767 33747.00000000 33748.00000000 33749.00000000
7768 33750.00000000 33751.00000000 33752.00000000
7769 33753.00000000 33754.00000000 33755.00000000
7770 33756.00000000 33757.00000000 33758.00000000
7771 33759.00000000 33760.00000000 33761.00000000
7772 33762.00000000 33763.00000000 33764.00000000
7773 33765.00000000 33766.00000000 33767.00000000
7774 33768.00000000 33769.00000000 33770.00000000
7775 33771.00000000 33772.00000000 33773.00000000
7776 33774.00000000 33775.00000000 33776.00000000
7777 33777.00000000 33778.00000000 33779.00000000
7778 33780.00000000 33781.00000000 33782.00000000
7779 33783.00000000 33784.00000000 33785.00000000
7780 33786.00000000 33787.00000000 33788.00000000
7781 33789.00000000 33790.00000000 33791.00000000
7782 33792.00000000 33793.00000000 33794.00000000
7783 33795.00000000 33796.00000000 33797.00000000
7784 33798.00000000 33799.00000000 33800.00000000
7785 33801.00000000 33802.00000000 33803.00000000
7786 33822.00000000 33823.00000000 33824.00000000
7787 33825.00000000 33826.00000000 33827.00000000
7788 33828.00000000 33829.00000000 33830.00000000
7789 33831.00000000 33832.00000000 33833.00000000
7790 33834.00000000 33835.00000000 33836.00000000
7791 33837.00000000 33838.00000000 33839.00000000
7792 33849.00000000 33850.00000000 33851.00000000
7793 33852.00000000 33853.00000000 33854.00000000
7794 33855.00000000 33856.00000000 33857.00000000
7795 33858.00000000 33859.00000000 33860.00000000
7796 33861.00000000 33862.00000000 33863.00000000
7797 33864.00000000 33865.00000000 33866.00000000
7798 33867.00000000 33868.00000000 33869.00000000
7799 33870.00000000 33871.00000000 33872.00000000
7800 33873.00000000 33874.00000000 33875.00000000
7801 33876.00000000 33877.00000000 33878.00000000
7802 33879.00000000 33880.00000000 33881.00000000
7803 33882.00000000 33883.00000000 33884.00000000
7804 33903.00000000 33904.00000000 33905.00000000
7805 33906.00000000 33907.00000000 33908.00000000
7806 33909.00000000 33910.00000000 33911.00000000
7807 33912.00000000 33913.00000000 33914.00000000
7808 33915.00000000 33916.00000000 33917.00000000
7809 33918.00000000 33919.00000000 33920.00000000
7810 33930.00000000 33931.00000000 33932.00000000
7811 33933.00000000 33934.00000000 33935.00000000
7812 33936.00000000 33937.00000000 33938.00000000
7813 33939.00000000 33940.00000000 33941.00000000
7814 33942.00000000 33943.00000000 33944.00000000
7815 33945.00000000 33946.00000000 33947.00000000
7816 33948.00000000 33949.00000000 33950.00000000
7817 33951.00000000 33952.00000000 33953.00000000
7818 33954.00000000 33955.00000000 33956.00000000
7819 33957.00000000 33958.00000000 33959.00000000
7820 33960.00000000 33961.00000000 33962.00000000
7821 33963.00000000 33964.00000000 33965.00000000
7822 33984.00000000 33985.00000000 33986.00000000
7823 33987.00000000 33988.00000000 33989.00000000
7824 33990.00000000 33991.00000000 33992.00000000
7825 33993.00000000 33994.00000000 33995.00000000
7826 33996.00000000 33997.00000000 33998.00000000
7827 33999.00000000 34000.00000000 34001.00000000
7828 34011.00000000 34012.00000000 34013.00000000
7829 34014.00000000 34015.00000000 34016.00000000
7830 34017.00000000 34018.00000000 34019.00000000
7831 34020.00000000 34021.00000000 34022.00000000
7832 34023.00000000 34024.00000000 34025.00000000
7833 34026.00000000 34027.00000000 34028.00000000
7834 34038.00000000 34039.00000000 34040.00000000
7835 34041.00000000 34042.00000000 34043.00000000
7836 34044.00000000 34045.00000000 34046.00000000
7837 34047.00000000 34048.00000000 34049.00000000
7838 34050.00000000 34051.00000000 34052.00000000
7839 34053.00000000 34054.00000000 34055.00000000
7840 34074.00000000 34075.00000000 34076.00000000
7841 34077.00000000 34078.00000000 34079.00000000
7842 34080.00000000 34081.00000000 34082.00000000
7843 34083.00000000 34084.00000000 34085.00000000
7844 34086.00000000 34087.00000000 34088.00000000
7845 34089.00000000 34090.00000000 34091.00000000
7846 34092.00000000 34093.00000000 34094.00000000
7847 34095.00000000 34096.00000000 34097.00000000
7848 34098.00000000 34099.00000000 34100.00000000
7849 34101.00000000 34102.00000000 34103.00000000
7850 34104.00000000 34105.00000000 34106.00000000
7851 34107.00000000 34108.00000000 34109.00000000
7852 34119.00000000 34120.00000000 34121.00000000
7853 34122.00000000 34123.00000000 34124.00000000
7854 34125.00000000 34126.00000000 34127.00000000
7855 34128.00000000 34129.00000000 34130.00000000
7856 34131.00000000 34132.00000000 34133.00000000
7857 34134.00000000 34135.00000000 34136.00000000
7858 34155.00000000 34156.00000000 34157.00000000
7859 34158.00000000 34159.00000000 34160.00000000
7860 34161.00000000 34162.00000000 34163.00000000
7861 34164.00000000 34165.00000000 34166.00000000
7862 34167.00000000 34168.00000000 34169.00000000
7863 34170.00000000 34171.00000000 34172.00000000
7864 34173.00000000 34174.00000000 34175.00000000
7865 34176.00000000 34177.00000000 34178.00000000
7866 34179.00000000 34180.00000000 34181.00000000
7867 34182.00000000 34183.00000000 34184.00000000
7868 34185.00000000 34186.00000000 34187.00000000
7869 34188.00000000 34189.00000000 34190.00000000
7870 34200.00000000 34201.00000000 34202.00000000
7871 34203.00000000 34204.00000000 34205.00000000
7872 34206.00000000 34207.00000000 34208.00000000
7873 34209.00000000 34210.00000000 34211.00000000
7874 34212.00000000 34213.00000000 34214.00000000
7875 34215.00000000 34216.00000000 34217.00000000
7876 34236.00000000 34237.00000000 34238.00000000
7877 34239.00000000 34240.00000000 34241.00000000
7878 34242.00000000 34243.00000000 34244.00000000
7879 34245.00000000 34246.00000000 34247.00000000
7880 34248.00000000 34249.00000000 34250.00000000
7881 34251.00000000 34252.00000000 34253.00000000
7882 34254.00000000 34255.00000000 34256.00000000
7883 34257.00000000 34258.00000000 34259.00000000
7884 34260.00000000 34261.00000000 34262.00000000
7885 34263.00000000 34264.00000000 34265.00000000
7886 34266.00000000 34267.00000000 34268.00000000
7887 34269.00000000 34270.00000000 34271.00000000
7888 34281.00000000 34282.00000000 34283.00000000
7889 34284.00000000 34285.00000000 34286.00000000
7890 34287.00000000 34288.00000000 34289.00000000
7891 34308.00000000 34309.00000000 34310.00000000
7892 34311.00000000 34312.00000000 34313.00000000
7893 34314.00000000 34315.00000000 34316.00000000
7894 34317.00000000 34318.00000000 34319.00000000
7895 34320.00000000 34321.00000000 34322.00000000
7896 34323.00000000 34324.00000000 34325.00000000
7897 34326.00000000 34327.00000000 34328.00000000
7898 34329.00000000 34330.00000000 34331.00000000
7899 34332.00000000 34333.00000000 34334.00000000
7900 34335.00000000 34336.00000000 34337.00000000
7901 34338.00000000 34339.00000000 34340.00000000
7902 34341.00000000 34342.00000000 34343.00000000
7903 34344.00000000 34345.00000000 34346.00000000
7904 34347.00000000 34348.00000000 34349.00000000
7905 34350.00000000 34351.00000000 34352.00000000
7906 34362.00000000 34363.00000000 34364.00000000
7907 34365.00000000 34366.00000000 34367.00000000
7908 34368.00000000 34369.00000000 34370.00000000
7909 34389.00000000 34390.00000000 34391.00000000
7910 34392.00000000 34393.00000000 34394.00000000
7911 34395.00000000 34396.00000000 34397.00000000
7912 34398.00000000 34399.00000000 34400.00000000
7913 34401.00000000 34402.00000000 34403.00000000
7914 34404.00000000 34405.00000000 34406.00000000
7915 34407.00000000 34408.00000000 34409.00000000
7916 34410.00000000 34411.00000000 34412.00000000
7917 34413.00000000 34414.00000000 34415.00000000
7918 34416.00000000 34417.00000000 34418.00000000
7919 34419.00000000 34420.00000000 34421.00000000
7920 34422.00000000 34423.00000000 34424.00000000
7921 34425.00000000 34426.00000000 34427.00000000
7922 34428.00000000 34429.00000000 34430.00000000
7923 34431.00000000 34432.00000000 34433.00000000
7924 34443.00000000 34444.00000000 34445.00000000
7925 34446.00000000 34447.00000000 34448.00000000
7926 34449.00000000 34450.00000000 34451.00000000
7927 34470.00000000 34471.00000000 34472.00000000
7928 34473.00000000 34474.00000000 34475.00000000
7929 34476.00000000 34477.00000000 34478.00000000
7930 34479.00000000 34480.00000000 34481.00000000
7931 34482.00000000 34483.00000000 34484.00000000
7932 34485.00000000 34486.00000000 34487.00000000
7933 34488.00000000 34489.00000000 34490.00000000
7934 34491.00000000 34492.00000000 34493.00000000
7935 34494.00000000 34495.00000000 34496.00000000
7936 34497.00000000 34498.00000000 34499.00000000
7937 34500.00000000 34501.00000000 34502.00000000
7938 34503.00000000 34504.00000000 34505.00000000
7939 34506.00000000 34507.00000000 34508.00000000
7940 34509.00000000 34510.00000000 34511.00000000
7941 34512.00000000 34513.00000000 34514.00000000
7942 34515.00000000 34516.00000000 34517.00000000
7943 34518.00000000 34519.00000000 34520.00000000
7944 34521.00000000 34522.00000000 34523.00000000
7945 34524.00000000 34525.00000000 34526.00000000
7946 34527.00000000 34528.00000000 34529.00000000
7947 34530.00000000 34531.00000000 34532.00000000
7948 34551.00000000 34552.00000000 34553.00000000
7949 34554.00000000 34555.00000000 34556.00000000
7950 34557.00000000 34558.00000000 34559.00000000
7951 34560.00000000 34561.00000000 34562.00000000
7952 34563.00000000 34564.00000000 34565.00000000
7953 34566.00000000 34567.00000000 34568.00000000
7954 34569.00000000 34570.00000000 34571.00000000
7955 34572.00000000 34573.00000000 34574.00000000
7956 34575.00000000 34576.00000000 34577.00000000
7957 34578.00000000 34579.00000000 34580.00000000
7958 34581.00000000 34582.00000000 34583.00000000
7959 34584.00000000 34585.00000000 34586.00000000
7960 34587.00000000 34588.00000000 34589.00000000
7961 34590.00000000 34591.00000000 34592.00000000
7962 34593.00000000 34594.00000000 34595.00000000
7963 34596.00000000 34597.00000000 34598.00000000
7964 34599.00000000 34600.00000000 34601.00000000
7965 34602.00000000 34603.00000000 34604.00000000
7966 34605.00000000 34606.00000000 34607.00000000
7967 34608.00000000 34609.00000000 34610.00000000
7968 34611.00000000 34612.00000000 34613.00000000
7969 34632.00000000 34633.00000000 34634.00000000
7970 34635.00000000 34636.00000000 34637.00000000
7971 34638.00000000 34639.00000000 34640.00000000
7972 34641.00000000 34642.00000000 34643.00000000
7973 34644.00000000 34645.00000000 34646.00000000
7974 34647.00000000 34648.00000000 34649.00000000
7975 34650.00000000 34651.00000000 34652.00000000
7976 34653.00000000 34654.00000000 34655.00000000
7977 34656.00000000 34657.00000000 34658.00000000
7978 34659.00000000 34660.00000000 34661.00000000
7979 34662.00000000 34663.00000000 34664.00000000
7980 34665.00000000 34666.00000000 34667.00000000
7981 34668.00000000 34669.00000000 34670.00000000
7982 34671.00000000 34672.00000000 34673.00000000
7983 34674.00000000 34675.00000000 34676.00000000
7984 34677.00000000 34678.00000000 34679.00000000
7985 34680.00000000 34681.00000000 34682.00000000
7986 34683.00000000 34684.00000000 34685.00000000
7987 34686.00000000 34687.00000000 34688.00000000
7988 34689.00000000 34690.00000000 34691.00000000
7989 34692.00000000 34693.00000000 34694.00000000
7990 34713.00000000 34714.00000000 34715.00000000
7991 34716.00000000 34717.00000000 34718.00000000
7992 34719.00000000 34720.00000000 34721.00000000
7993 34722.00000000 34723.00000000 34724.00000000
7994 34725.00000000 34726.00000000 34727.00000000
7995 34728.00000000 34729.00000000 34730.00000000
7996 34731.00000000 34732.00000000 34733.00000000
7997 34734.00000000 34735.00000000 34736.00000000
7998 34737.00000000 34738.00000000 34739.00000000
7999 34740.00000000 34741.00000000 34742.00000000
8000 34743.00000000 34744.00000000 34745.00000000
8001 34746.00000000 34747.00000000 34748.00000000
8002 34767.00000000 34768.00000000 34769.00000000
8003 34770.00000000 34771.00000000 34772.00000000
8004 34773.00000000 34774.00000000 34775.00000000
8005 34794.00000000 34795.00000000 34796.00000000
8006 34797.00000000 34798.00000000 34799.00000000
8007 34800.00000000 34801.00000000 34802.00000000
8008 34803.00000000 34804.00000000 34805.00000000
8009 34806.00000000 34807.00000000 34808.00000000
8010 34809.00000000 34810.00000000 34811.00000000
8011 34812.00000000 34813.00000000 34814.00000000
8012 34815.00000000 34816.00000000 34817.00000000
8013 34818.00000000 34819.00000000 34820.00000000
8014 34821.00000000 34822.00000000 34823.00000000
8015 34824.00000000 34825.00000000 34826.00000000
8016 34827.00000000 34828.00000000 34829.00000000
8017 34848.00000000 34849.00000000 34850.00000000
8018 34851.00000000 34852.00000000 34853.00000000
8019 34854.00000000 34855.00000000 34856.00000000
8020 34875.00000000 34876.00000000 34877.00000000
8021 34878.00000000 34879.00000000 34880.00000000
8022 34881.00000000 34882.00000000 34883.00000000
8023 34884.00000000 34885.00000000 34886.00000000
8024 34887.00000000 34888.00000000 34889.00000000
8025 34890.00000000 34891.00000000 34892.00000000
8026 34893.00000000 34894.00000000 34895.00000000
8027 34896.00000000 34897.00000000 34898.00000000
8028 34899.00000000 34900.00000000 34901.00000000
8029 34902.00000000 34903.00000000 34904.00000000
8030 34905.00000000 34906.00000000 34907.00000000
8031 34908.00000000 34909.00000000 34910.00000000
8032 34929.00000000 34930.00000000 34931.00000000
8033 34932.00000000 34933.00000000 34934.00000000
8034 34935.00000000 34936.00000000 34937.00000000
8035 34956.00000000 34957.00000000 34958.00000000
8036 34959.00000000 34960.00000000 34961.00000000
8037 34962.00000000 34963.00000000 34964.00000000
8038 34965.00000000 34966.00000000 34967.00000000
8039 34968.00000000 34969.00000000 34970.00000000
8040 34971.00000000 34972.00000000 34973.00000000
8041 34974.00000000 34975.00000000 34976.00000000
8042 34977.00000000 34978.00000000 34979.00000000
8043 34980.00000000 34981.00000000 34982.00000000
8044 34983.00000000 34984.00000000 34985.00000000
8045 34986.00000000 34987.00000000 34988.00000000
8046 34989.00000000 34990.00000000 34991.00000000

