Generated by pymatgen.io.lammps.data.LammpsData

8436  atoms

   3  atom types

0.000000 59.647289  xlo xhi
0.000000 51.656067  ylo yhi
0.000000 49.270250  zlo zhi

Masses

1  28.08550
2   1.00794
3  15.99940

Atoms

1     1  1 0.0000  3.545781  5.652029  4.186662
2     1  1 0.0000  2.460007  3.077104  3.461032
3     1  1 0.0000  0.564988  4.334154  1.382771
4     1  1 0.0000  6.049954  1.113734  0.890332
5     1  1 0.0000 10.779344  8.719225 24.560161
6     1  1 0.0000  0.115982 24.171857 13.527787
7     1  1 0.0000  7.288269  5.206818  1.734552
8     1  1 0.0000 10.250768  3.138512  3.837134
9     1  1 0.0000  7.555771  4.222239  4.565741
10    1  1 0.0000  6.474231  1.245929  4.060473
11    1  1 0.0000 10.990991  0.800185  5.554399
12    1  1 0.0000  9.088772  0.462799  0.461878
13    1  1 0.0000 10.072764  5.295877  0.350643
14    1  1 0.0000  9.133579  0.304800  3.298445
15    1  1 0.0000  0.113053 22.340935 10.992844
16    1  1 0.0000 12.600222  4.867216  3.326757
17    1  1 0.0000 14.311750  2.682435  2.324088
18    1  1 0.0000 17.115520  3.918359  1.922259
19    1  1 0.0000 17.559433  6.079058  3.970842
20    1  1 0.0000 19.984663  2.897948  2.999423
21    1  1 0.0000 21.853044  4.313610  4.739972
22    1  1 0.0000 22.820952  3.241430  2.148798
23    1  1 0.0000 18.491733  0.533599  3.968810
24    1  1 0.0000 23.692086  0.375314  1.353487
25    1  1 0.0000 17.966683  2.656603  6.040184
26    1  1 0.0000 25.434809  0.213211  3.616275
27    1  1 0.0000 27.077070  2.844570  2.798742
28    1  1 0.0000 26.321983  5.347258  1.150657
29    1  1 0.0000 27.945218  3.745589  5.587630
30    1  1 0.0000 29.345253  1.697730  1.125996
31    1  1 0.0000 28.421351  0.824747  5.597721
32    1  1 0.0000  5.353976  7.754882  5.259139
33    1  1 0.0000  2.396406  7.755583  2.517669
34    1  1 0.0000  2.010266 12.015778  4.112286
35    1  1 0.0000  2.705101  9.320466  5.093512
36    1  1 0.0000  0.309219  8.515023  0.399384
37    1  1 0.0000  3.829277 11.984500  6.126408
38    1  1 0.0000  5.868666 11.455911  1.701485
39    1  1 0.0000  9.780572 10.437574  4.695151
40    1  1 0.0000  7.160124  9.474370  3.331339
41    1  1 0.0000 11.044599 11.989170  2.618516
42    1  1 0.0000  8.598993 12.551923  0.877953
43    1  1 0.0000  6.928020  7.946243  0.419802
44    1  1 0.0000 13.316559  6.948975  5.475515
45    1  1 0.0000 12.445102  6.919814  1.009858
46    1  1 0.0000 12.570665 10.035797  0.727094
47    1  1 0.0000 15.450862  8.274853  3.439738
48    1  1 0.0000 15.693975 11.123907  4.456383
49    1  1 0.0000 16.987716  8.058905  0.773050
50    1  1 0.0000 14.880208 11.900357  0.250603
51    1  1 0.0000 19.649013  7.036017  2.158759
52    1  1 0.0000  1.501638 14.248698  0.619597
53    1  1 0.0000  3.898772 13.613541  2.204916
54    1  1 0.0000  4.331925 16.546894  2.636717
55    1  1 0.0000  3.634974 18.293591  4.878519
56    1  1 0.0000  2.555002 17.863882  0.637198
57    1  1 0.0000  0.619607 14.257243  5.600477
58    1  1 0.0000  6.002808 14.163441  5.613743
59    1  1 0.0000  6.518800 17.345941  0.441907
60    1  1 0.0000  7.997423 16.083239  3.953244
61    1  1 0.0000  9.305237 17.928427  5.734642
62    1  1 0.0000  8.762533 15.447962  1.199121
63    1  1 0.0000  7.749452 19.102025  3.536927
64    1  1 0.0000 12.461313 14.845279  3.098359
65    1  1 0.0000  1.778286 20.633800  3.872202
66    1  1 0.0000  3.396774 22.321343  1.873303
67    1  1 0.0000  3.296151 25.512405  1.924178
68    1  1 0.0000  2.280211 24.984300  4.662338
69    1  1 0.0000  7.544736 22.664418  0.255034
70    1  1 0.0000  7.359919 23.693371  4.851083
71    1  1 0.0000  6.317517 21.688516  2.867317
72    1  1 0.0000  9.903480 23.973998  3.396365
73    1  1 0.0000 10.348216 20.137697  2.218912
74    1  1 0.0000  2.525001  0.083904  3.555170
75    1  1 0.0000  2.535711  4.041571  6.292546
76    1  1 0.0000  4.428938  3.846261  8.672736
77    1  1 0.0000  2.603923  3.295888 11.191749
78    1  1 0.0000  0.881877  5.784487  7.988941
79    1  1 0.0000  1.490938  0.496527 10.449450
80    1  1 0.0000  0.238488  5.050272 12.343358
81    1  1 0.0000  6.548485  5.787767  7.270875
82    1  1 0.0000  6.880849  2.016662  9.287593
83    1  1 0.0000  9.406000  2.329038  7.649992
84    1  1 0.0000  9.535256  5.433715  7.744864
85    1  1 0.0000 11.682924  1.641190  9.396492
86    1  1 0.0000 11.036668  6.300141 10.302544
87    1  1 0.0000  7.646365  2.530528 12.090790
88    1  1 0.0000 16.734609  1.716168  8.497442
89    1  1 0.0000 14.123808  2.790405  7.953745
90    1  1 0.0000 14.971225  5.674159  7.861895
91    1  1 0.0000 12.694648  2.063031 12.276086
92    1  1 0.0000 17.906332  3.154899 10.850324
93    1  1 0.0000 17.811483  5.941954  6.909413
94    1  1 0.0000 21.073267  0.654766 11.111229
95    1  1 0.0000 20.929994  2.670844  6.974194
96    1  1 0.0000 19.114480  5.655569  9.485147
97    1  1 0.0000 21.950654  3.081340  9.660166
98    1  1 0.0000 23.212280  5.998138  6.730323
99    1  1 0.0000 23.877128  0.288414 11.458486
100   1  1 0.0000 23.784306  5.677811 11.864694
101   1  1 0.0000 25.424999  0.962250  6.458188
102   1  1 0.0000 28.012915  2.688456 10.690995
103   1  1 0.0000 27.222511  4.642779  8.538058
104   1  1 0.0000 24.557012  3.570241  8.132377
105   1  1 0.0000 25.172082  2.904214 12.052282
106   1  1 0.0000 23.739566  1.253235 24.434621
107   1  1 0.0000  2.517689  8.086870  9.231631
108   1  1 0.0000  4.551396  9.878670  8.031552
109   1  1 0.0000  3.924561 11.645772 11.184597
110   1  1 0.0000  3.792049  8.559156 11.757614
111   1  1 0.0000  0.978346  8.098508 11.870769
112   1  1 0.0000 10.784583  8.135583  6.700840
113   1  1 0.0000  8.355025 12.243033  6.660646
114   1  1 0.0000  7.439363 10.300924  8.734856
115   1  1 0.0000 10.099708  8.975362  9.586585
116   1  1 0.0000  6.970663 11.692007 11.221279
117   1  1 0.0000 11.772993 10.999501 11.444550
118   1  1 0.0000 13.980455  7.344673 10.287365
119   1  1 0.0000 16.464410 10.778286  7.281938
120   1  1 0.0000 15.698902  9.736512  9.960503
121   1  1 0.0000 14.421978 12.395058 10.738445
122   1  1 0.0000 21.945452  6.691440  9.581156
123   1  1 0.0000 18.753143  8.880310  7.105721
124   1  1 0.0000 18.362491  8.360812 10.104970
125   1  1 0.0000  2.906146 13.061396  8.834406
126   1  1 0.0000  0.522118 17.758242 10.872164
127   1  1 0.0000  2.057265 16.745929  6.820169
128   1  1 0.0000  1.053775 14.795976 10.791159
129   1  1 0.0000  4.533406 15.516393  8.002557
130   1  1 0.0000  5.867836 15.600233 10.630404
131   1  1 0.0000  0.444258 19.061561  8.246427
132   1  1 0.0000  3.438238 14.203341 12.364435
133   1  1 0.0000  6.119627 18.406596 11.780692
134   1  1 0.0000 10.296552 14.086623  8.230734
135   1  1 0.0000  9.642076 17.208966  8.571653
136   1  1 0.0000 10.974066 13.828559 11.346534
137   1  1 0.0000  8.812537 18.977692 10.641795
138   1  1 0.0000  8.084555 14.332754 11.937040
139   1  1 0.0000 12.805309 15.189758  7.202908
140   1  1 0.0000  4.430156 24.333330  6.683532
141   1  1 0.0000  1.517228 21.484813  6.721727
142   1  1 0.0000  4.157162 20.094629  7.219706
143   1  1 0.0000  4.080234 20.070368 10.145944
144   1  1 0.0000  5.496850 22.166903  8.669734
145   1  1 0.0000  1.114905 23.894541  8.638182
146   1  1 0.0000  1.717795 19.938679 12.266214
147   1  1 0.0000  9.361573 20.387379  8.098307
148   1  1 0.0000  8.073509 22.933705  7.670533
149   1  1 0.0000  9.799694 24.459009  9.611994
150   1  1 0.0000  7.265384 25.340588 11.244770
151   1  1 0.0000  5.746585  0.005195 20.313214
152   1  1 0.0000  4.837722  2.589039 13.323859
153   1  1 0.0000  3.593659  0.689950 15.575322
154   1  1 0.0000  1.640953  1.685699 17.596772
155   1  1 0.0000  6.229184  3.058364 17.947098
156   1  1 0.0000  6.861130  4.726378 13.854907
157   1  1 0.0000  7.840634  5.101121 16.818423
158   1  1 0.0000 10.697256  1.599993 16.979553
159   1  1 0.0000 11.408669  3.369162 14.744936
160   1  1 0.0000 11.484062  5.889815 13.232807
161   1  1 0.0000 15.561253  2.865467 12.590261
162   1  1 0.0000 16.290806  4.888822 14.668155
163   1  1 0.0000 14.007127  4.019782 16.420798
164   1  1 0.0000 17.517394  0.990739 17.238672
165   1  1 0.0000 12.740146  6.418336 17.698366
166   1  1 0.0000 14.946074  1.997425 18.453518
167   1  1 0.0000 18.214401  0.103333 14.661715
168   1  1 0.0000 18.534842  5.823817 16.305670
169   1  1 0.0000 19.544488  3.219156 17.585637
170   1  1 0.0000 19.869738  2.373298 13.254314
171   1  1 0.0000 21.668295  3.227915 15.342841
172   1  1 0.0000 23.302474  5.691543 14.802998
173   1  1 0.0000 23.999476  1.412364 16.048634
174   1  1 0.0000 25.658289  3.629415 15.068786
175   1  1 0.0000 27.914735  4.911369 16.637077
176   1  1 0.0000 29.631404  1.248884 17.719355
177   1  1 0.0000  0.908702 12.233900 17.616865
178   1  1 0.0000  3.657593  7.828206 15.773975
179   1  1 0.0000  2.477083 10.785645 15.658035
180   1  1 0.0000  0.750281  7.495416 16.485655
181   1  1 0.0000  5.842413  7.459651 13.694125
182   1  1 0.0000  5.899357  7.548539 17.691639
183   1  1 0.0000  0.223664  3.504272 22.123562
184   1  1 0.0000  7.610802  9.759336 13.353757
185   1  1 0.0000  7.138153 12.018454 15.198261
186   1  1 0.0000 10.056002  8.410676 13.905271
187   1  1 0.0000 10.037067  7.083811 16.569076
188   1  1 0.0000  7.039108 10.277788 17.559112
189   1  1 0.0000 10.024713  9.798939 17.901540
190   1  1 0.0000 11.593861 10.697807 15.461672
191   1  1 0.0000 14.330943  6.691026 13.246120
192   1  1 0.0000 13.674497  9.780754 13.676238
193   1  1 0.0000 15.282725 11.466465 17.531147
194   1  1 0.0000 14.421243  8.871323 18.417929
195   1  1 0.0000  4.467533 13.100351 14.875985
196   1  1 0.0000  2.697696 16.055326 17.797869
197   1  1 0.0000  2.188610 17.320210 15.144150
198   1  1 0.0000  4.745096 13.772394 17.925012
199   1  1 0.0000  4.864759 17.558286 14.286772
200   1  1 0.0000  4.925487 18.183479 17.377330
201   1  1 0.0000 10.641442 18.558266 13.074357
202   1  1 0.0000  7.215246 16.026025 14.451876
203   1  1 0.0000  9.428817 18.467437 17.761906
204   1  1 0.0000  8.867063 14.401241 16.312218
205   1  1 0.0000  8.219002 18.882200 14.880201
206   1  1 0.0000 11.705615 13.782551 15.806898
207   1  1 0.0000 13.637834 13.852655 18.048774
208   1  1 0.0000  2.967557 25.155318 13.785090
209   1  1 0.0000  0.417524 22.640372 16.265022
210   1  1 0.0000  2.215374 20.337746 15.471523
211   1  1 0.0000  1.846375 25.070830 16.582305
212   1  1 0.0000  4.509203 21.199925 17.179280
213   1  1 0.0000  5.592053 23.840684 13.345224
214   1  1 0.0000  6.976120 25.612374 15.571993
215   1  1 0.0000  6.767479 21.677674 15.167473
216   1  1 0.0000  9.390796 22.248659 16.579816
217   1  1 0.0000  3.723814  0.600381 22.587106
218   1  1 0.0000  2.069904  3.461968 19.981733
219   1  1 0.0000  1.791591  5.882645 21.721711
220   1  1 0.0000  5.008440  3.754417 20.544519
221   1  1 0.0000 11.239242  3.491440 24.258551
222   1  1 0.0000  9.029818  5.409370 23.538569
223   1  1 0.0000  8.282984  1.324526 21.303642
224   1  1 0.0000 10.819334  2.836581 19.875050
225   1  1 0.0000 11.139708  5.892164 20.236231
226   1  1 0.0000  6.749708  3.516294 23.021283
227   1  1 0.0000 17.477322  5.578483 24.247063
228   1  1 0.0000 16.066625  4.373930 20.126155
229   1  1 0.0000 12.899226  1.967542 22.002798
230   1  1 0.0000 15.600222  1.428029 23.022297
231   1  1 0.0000 15.326652  6.315465 22.424198
232   1  1 0.0000 18.761398  2.639173 20.309074
233   1  1 0.0000 19.402989  3.476175 23.190972
234   1  1 0.0000 20.991952  5.556178 21.780100
235   1  1 0.0000 23.454025  4.135224 20.907395
236   1  1 0.0000 23.630532  4.101061 23.856367
237   1  1 0.0000 27.281784  0.300973 22.247320
238   1  1 0.0000 27.502359  3.053140 18.809945
239   1  1 0.0000 28.604132  2.441597 24.049580
240   1  1 0.0000 28.545895  3.975805 21.492080
241   1  1 0.0000 25.267538  1.742212 20.517833
242   1  1 0.0000 24.531164  6.339199 19.242697
243   1  1 0.0000  0.781192 10.833777 22.832892
244   1  1 0.0000  5.449033 11.447277 19.852367
245   1  1 0.0000  4.185271  7.166741 22.847181
246   1  1 0.0000  3.810380 11.071241 22.266461
247   1  1 0.0000  5.991851  6.702243 20.413958
248   1  1 0.0000  6.283524 10.479566 24.006842
249   1  1 0.0000  8.705043  7.268897 21.156894
250   1  1 0.0000 10.592177 11.315105 20.408804
251   1  1 0.0000  8.800339  9.993456 22.372647
252   1  1 0.0000 16.866866  7.018386 18.545940
253   1  1 0.0000 12.492587  6.972291 22.837813
254   1  1 0.0000 14.188244  8.921652 21.461274
255   1  1 0.0000 14.740748 11.606867 23.070616
256   1  1 0.0000 12.964121 12.796171 20.993284
257   1  1 0.0000 19.186349  7.582211 20.517767
258   1  1 0.0000 18.466161  9.237921 23.048717
259   1  1 0.0000  4.524131 13.845149 23.374699
260   1  1 0.0000  0.791981 14.730345 19.556297
261   1  1 0.0000  2.200631 15.640441 22.186413
262   1  1 0.0000  3.380595 18.340292 21.171015
263   1  1 0.0000  4.000354 19.007128 24.070938
264   1  1 0.0000  5.961773 16.681160 21.358079
265   1  1 0.0000  9.313729 14.993892 24.336418
266   1  1 0.0000  6.447793 15.777130 24.116455
267   1  1 0.0000  6.612205 14.023687 20.080129
268   1  1 0.0000  9.469918 14.137064 19.417091
269   1  1 0.0000  6.995008 18.450475 19.383591
270   1  1 0.0000 10.855582 15.004554 21.817352
271   1  1 0.0000 10.938206 16.695999 19.295204
272   1  1 0.0000 11.166019 17.933466 21.858376
273   1  1 0.0000  8.817949 19.210490 23.185434
274   1  1 0.0000  1.926307 25.327345 21.367495
275   1  1 0.0000  4.679536 25.377299 22.462493
276   1  1 0.0000  2.756987 21.108566 19.777796
277   1  1 0.0000  4.405177 22.536996 21.981470
278   1  1 0.0000  3.517142 25.374839 18.980896
279   1  1 0.0000  6.375827 24.563545 18.513913
280   1  1 0.0000  6.903065 20.616416 21.271840
281   1  1 0.0000  8.411072 22.465307 19.317747
282   1  1 0.0000  8.780229 24.285483 22.963572
283   1  1 0.0000 17.537954  0.023233 21.124192
284   1  1 0.0000 29.667560  0.070188 10.898023
285   1  1 0.0000  5.815260  0.106310 17.342280
286   1  1 0.0000  4.332485  4.355753 26.655541
287   1  1 0.0000  3.756703  2.977752 29.399991
288   1  1 0.0000  0.500951  2.755749 26.293597
289   1  1 0.0000  3.259392  2.206189 24.994982
290   1  1 0.0000  2.477542  0.209840 29.568540
291   1  1 0.0000  4.068626  5.707075 30.614020
292   1  1 0.0000  8.900017  4.729774 27.846093
293   1  1 0.0000  6.998140  3.230563 25.974165
294   1  1 0.0000 10.677042  2.582282 29.165653
295   1  1 0.0000 11.337151  1.277844 26.395527
296   1  1 0.0000  7.203317  6.135653 29.904965
297   1  1 0.0000  7.363551  0.390087 26.319692
298   1  1 0.0000 12.366566  5.603271 26.246174
299   1  1 0.0000 12.906646  4.520051 29.094069
300   1  1 0.0000 14.384888  1.610504 26.948151
301   1  1 0.0000 16.012341  3.532200 25.516531
302   1  1 0.0000 17.469051  6.182243 30.012426
303   1  1 0.0000 15.465296  3.794541 30.485890
304   1  1 0.0000 22.270946  4.301207 28.025910
305   1  1 0.0000 22.806059  1.473911 27.345093
306   1  1 0.0000 20.104255  4.541051 30.135505
307   1  1 0.0000 18.478594  1.865792 25.497588
308   1  1 0.0000 22.516128  6.218666 25.677731
309   1  1 0.0000 27.064614  0.013125 28.643819
310   1  1 0.0000 26.853589  2.960902 28.221851
311   1  1 0.0000 24.808851  4.955765 29.472795
312   1  1 0.0000 25.870997  2.876494 25.220689
313   1  1 0.0000 29.438777  3.808263 26.536595
314   1  1 0.0000 24.238548  0.232570 29.519290
315   1  1 0.0000  2.740369 10.499080 30.341221
316   1  1 0.0000  3.978647  7.282556 25.895782
317   1  1 0.0000  3.417500 11.692922 27.700481
318   1  1 0.0000  1.952788  7.513406 29.585290
319   1  1 0.0000  1.145727  7.951144 26.538602
320   1  1 0.0000  1.138791 10.836580 26.014122
321   1  1 0.0000  5.469769 12.701501 25.831453
322   1  1 0.0000  6.106100 25.711713 42.727757
323   1  1 0.0000  6.067334 11.510788 29.894698
324   1  1 0.0000  9.184991  7.011227 26.227929
325   1  1 0.0000  8.234958 10.703805 27.920031
326   1  1 0.0000  6.579174  8.528104 26.282473
327   1  1 0.0000  8.869095  8.564665 29.973751
328   1  1 0.0000 11.644678  7.310305 29.941732
329   1  1 0.0000  9.713674 13.086783 26.485973
330   1  1 0.0000 13.409009 10.144617 25.238425
331   1  1 0.0000 16.265984  9.380869 25.322264
332   1  1 0.0000 16.173284  7.838024 27.971762
333   1  1 0.0000 13.151299  8.215032 27.449522
334   1  1 0.0000 16.041947 10.504932 29.500500
335   1  1 0.0000 13.431436 11.651290 29.922233
336   1  1 0.0000 19.730132  7.599764 25.221161
337   1  1 0.0000  1.902415 16.747931 29.957862
338   1  1 0.0000  4.232765 18.747160 29.911338
339   1  1 0.0000  2.988073 14.841378 27.793263
340   1  1 0.0000  3.875964 16.687452 25.731258
341   1  1 0.0000  5.781704 17.926350 27.534466
342   1  1 0.0000  6.089689 14.965107 27.821863
343   1  1 0.0000  8.719849 14.528685 28.948457
344   1  1 0.0000 11.188623 17.107985 25.898042
345   1  1 0.0000  9.920391 17.161810 30.234137
346   1  1 0.0000  0.041501 21.027270 29.041211
347   1  1 0.0000 12.510095 13.382335 27.596394
348   1  1 0.0000  3.992850 23.721684 24.743974
349   1  1 0.0000  2.293990 20.581326 26.066247
350   1  1 0.0000  3.095564 21.201066 28.850690
351   1  1 0.0000  4.364221 23.948626 29.343363
352   1  1 0.0000  1.246654 23.453838 25.744991
353   1  1 0.0000  5.872846 23.018218 27.006643
354   1  1 0.0000  6.871324 19.495704 25.166551
355   1  1 0.0000 10.205239 19.607920 27.064456
356   1  1 0.0000  7.699011 21.032126 28.243204
357   1  1 0.0000  9.068177 23.945108 28.872547
358   1  1 0.0000  7.730886 22.550365 24.881288
359   1  1 0.0000  0.049776 24.671941 47.732044
360   1  1 0.0000  4.076435  5.185822 33.669526
361   1  1 0.0000  5.040822  2.193167 33.697993
362   1  1 0.0000  6.443895  1.938294 30.783493
363   1  1 0.0000 10.205958  0.594808 31.569924
364   1  1 0.0000  6.497809  3.272035 36.269586
365   1  1 0.0000  7.008218  5.453328 34.411881
366   1  1 0.0000  8.112533  4.306094 31.946035
367   1  1 0.0000 10.798217  3.990721 33.282703
368   1  1 0.0000 10.280814  1.286875 34.504592
369   1  1 0.0000 11.049222  5.912687 35.741921
370   1  1 0.0000 13.561871  4.531885 32.823049
371   1  1 0.0000 14.518286  3.164883 35.337504
372   1  1 0.0000 13.198175  0.587125 34.924320
373   1  1 0.0000 17.293283  3.365905 34.271109
374   1  1 0.0000 17.983877  2.433815 31.264803
375   1  1 0.0000 20.931732  0.208511 35.087506
376   1  1 0.0000 22.125334  4.264875 36.381252
377   1  1 0.0000 18.443700  1.439717 36.453676
378   1  1 0.0000 23.891577  3.013007 34.373044
379   1  1 0.0000 28.927589  2.324088 35.024870
380   1  1 0.0000 28.420023  4.683557 31.682613
381   1  1 0.0000 25.550135  4.457457 32.292989
382   1  1 0.0000 25.119224  1.468547 32.195060
383   1  1 0.0000 26.288153  3.315365 35.905396
384   1  1 0.0000  2.923657  6.640336 36.066066
385   1  1 0.0000  3.957530 11.075812 33.095006
386   1  1 0.0000  3.833923  9.498765 35.628450
387   1  1 0.0000  2.840984 12.360680 35.395530
388   1  1 0.0000  7.897705 11.165040 34.809548
389   1  1 0.0000  7.811917 10.443848 31.890461
390   1  1 0.0000 10.872466 10.752623 34.921612
391   1  1 0.0000  6.687568  9.464323 36.898303
392   1  1 0.0000  9.530595 13.065537 31.294412
393   1  1 0.0000 16.618842  6.350003 34.655642
394   1  1 0.0000 11.896991 11.506430 32.273131
395   1  1 0.0000 13.377910  7.700965 32.283402
396   1  1 0.0000 16.231537  7.789851 32.096121
397   1  1 0.0000 12.842807  8.467999 35.251436
398   1  1 0.0000 15.113982 10.010343 36.647629
399   1  1 0.0000 17.792633  8.463854 36.209656
400   1  1 0.0000 21.598682  6.736103 31.885189
401   1  1 0.0000 22.043296  6.964426 35.025236
402   1  1 0.0000  5.143406 13.399420 31.889857
403   1  1 0.0000  2.616380 15.073823 32.596051
404   1  1 0.0000  0.556238 14.133106 34.551666
405   1  1 0.0000  0.820807 17.091240 35.333757
406   1  1 0.0000  5.041792 14.536905 36.186373
407   1  1 0.0000  3.545712 17.263960 36.756814
408   1  1 0.0000  5.827947 18.213505 32.390213
409   1  1 0.0000  1.326284 19.248497 33.284018
410   1  1 0.0000  8.125396 19.452750 30.840101
411   1  1 0.0000 11.679189 13.152638 36.689987
412   1  1 0.0000  9.460488 15.648765 32.839916
413   1  1 0.0000  6.566981 15.525556 33.613607
414   1  1 0.0000  7.441749 18.917163 35.837630
415   1  1 0.0000 11.435723 15.776879 35.069164
416   1  1 0.0000 10.828508 18.079233 36.855275
417   1  1 0.0000 14.402515 12.994421 32.374752
418   1  1 0.0000  3.497865 19.881137 35.109960
419   1  1 0.0000  1.678774 23.596336 33.517547
420   1  1 0.0000  4.460900 23.188453 32.311228
421   1  1 0.0000  1.654006 23.801044 36.515245
422   1  1 0.0000  5.773332 20.992190 33.746622
423   1  1 0.0000  8.589601 20.508948 33.644323
424   1  1 0.0000  8.452442 24.113955 36.373905
425   1  1 0.0000  0.558707  1.693250 42.340579
426   1  1 0.0000  0.749410  5.065124 37.627721
427   1  1 0.0000  2.101968  1.403728 38.337885
428   1  1 0.0000  2.801029  3.979877 42.417389
429   1  1 0.0000  1.842805  5.960219 40.145092
430   1  1 0.0000  4.995638  2.001702 41.116691
431   1  1 0.0000  4.438504  3.263796 38.471853
432   1  1 0.0000  4.445664  6.317804 38.741436
433   1  1 0.0000  8.939211  1.865954 37.088213
434   1  1 0.0000  7.797242  1.212430 42.108777
435   1  1 0.0000 11.186326  3.969553 38.009230
436   1  1 0.0000 11.293983  5.140853 40.817919
437   1  1 0.0000 10.713127  2.310299 41.700898
438   1  1 0.0000  7.213510  5.517210 42.643537
439   1  1 0.0000 15.449422  5.291698 37.220001
440   1  1 0.0000 17.149562  1.374141 41.945916
441   1  1 0.0000 17.134035  5.357011 39.621397
442   1  1 0.0000 14.882051  3.412190 42.010538
443   1  1 0.0000 13.055215  2.126792 39.666912
444   1  1 0.0000 14.207722  6.170441 39.727727
445   1  1 0.0000 22.235439  0.478796 41.367834
446   1  1 0.0000 20.269521  2.603674 38.336470
447   1  1 0.0000 19.075016  3.319204 40.931130
448   1  1 0.0000 23.060675  3.519002 41.353649
449   1  1 0.0000 23.618618  5.179585 38.756860
450   1  1 0.0000 25.356094  0.184489 38.860270
451   1  1 0.0000 27.865173  1.538880 37.650055
452   1  1 0.0000 27.716455  4.437173 40.838983
453   1  1 0.0000 25.668663  2.285548 40.980636
454   1  1 0.0000  0.710583 10.587546 37.858425
455   1  1 0.0000  2.690275 10.332076 39.933950
456   1  1 0.0000  0.706585 10.183691 42.245527
457   1  1 0.0000  5.673805 10.685767 39.524867
458   1  1 0.0000  7.252549  6.913013 39.940777
459   1  1 0.0000  9.073931  7.341646 37.434015
460   1  1 0.0000  7.322559  9.512483 41.728505
461   1  1 0.0000 10.783538  9.419312 38.744874
462   1  1 0.0000  9.964290 10.799298 41.156541
463   1  1 0.0000  9.399961 12.083730 38.494530
464   1  1 0.0000 11.048340  6.912486 43.155743
465   1  1 0.0000 13.518562 10.760929 39.153582
466   1  1 0.0000 15.090591  8.773431 40.804566
467   1  1 0.0000 12.186206 12.704932 40.967185
468   1  1 0.0000 22.077599  6.373870 42.294107
469   1  1 0.0000 18.950626  7.578600 38.705269
470   1  1 0.0000 21.706629  7.452189 39.538812
471   1  1 0.0000  2.180677 13.546378 40.258936
472   1  1 0.0000  1.266182 18.237592 41.285697
473   1  1 0.0000  4.096853 18.513398 39.774416
474   1  1 0.0000  3.879064 13.610553 42.765011
475   1  1 0.0000  0.219974 15.918912 42.812591
476   1  1 0.0000  6.618645 13.347376 38.583726
477   1  1 0.0000  6.718980 14.545792 41.487167
478   1  1 0.0000  6.751020 17.488170 40.879155
479   1  1 0.0000  9.172921 17.369445 39.288327
480   1  1 0.0000 10.853043 15.430767 40.626069
481   1  1 0.0000  3.549907 25.580755 38.083301
482   1  1 0.0000  4.575128 21.519361 39.171437
483   1  1 0.0000  4.095134 23.539919 41.753673
484   1  1 0.0000  1.984131 21.086516 37.467644
485   1  1 0.0000  1.295392 23.231770 40.791898
486   1  1 0.0000  6.977825 19.591778 43.132338
487   1  1 0.0000 10.360029 19.701083 40.701713
488   1  1 0.0000  7.226699 21.580799 37.532875
489   1  1 0.0000  8.971662 22.146175 40.056764
490   1  1 0.0000  8.164120 24.930127 40.651859
491   1  1 0.0000  0.051951 11.886062 30.546950
492   1  1 0.0000  1.742345  0.627730 45.007057
493   1  1 0.0000  2.825495  5.078087 48.551323
494   1  1 0.0000  1.449711  0.558973 48.640647
495   1  1 0.0000  4.626347  5.505705 44.206214
496   1  1 0.0000  2.893840  2.570915 46.817307
497   1  1 0.0000  5.815610  3.648641 46.277726
498   1  1 0.0000  6.861720  1.186040 45.051382
499   1  1 0.0000  9.589331  2.929075 45.992979
500   1  1 0.0000 10.888085  2.580642 48.685723
501   1  1 0.0000 10.919547  0.661892 44.281642
502   1  1 0.0000  5.638212  3.700402 49.122897
503   1  1 0.0000 11.800097  4.790441 45.319372
504   1  1 0.0000 15.454214  5.685687 43.894742
505   1  1 0.0000 16.416073  0.956047 47.900574
506   1  1 0.0000 13.799943  2.726624 48.528819
507   1  1 0.0000 14.214539  2.793058 44.784927
508   1  1 0.0000 13.646770  5.689567 47.579848
509   1  1 0.0000 17.046034  3.219208 45.834956
510   1  1 0.0000 18.306592  4.233481 48.302264
511   1  1 0.0000 20.843702  1.062944 45.106864
512   1  1 0.0000 20.604370  2.053883 47.903912
513   1  1 0.0000 19.538676  3.445112 43.842429
514   1  1 0.0000 20.607307  6.111631 44.921564
515   1  1 0.0000 22.869919  3.864276 48.661319
516   1  1 0.0000 20.653053  6.010691 48.981019
517   1  1 0.0000 25.462117  4.780356 47.444729
518   1  1 0.0000 26.148796  1.267993 43.785985
519   1  1 0.0000 27.161011  4.033946 45.048227
520   1  1 0.0000  0.334389 11.462224 49.235087
521   1  1 0.0000  0.334137  7.459002 43.617105
522   1  1 0.0000  4.601845  9.761233 48.827936
523   1  1 0.0000  2.966801 11.057623 43.881840
524   1  1 0.0000  3.052933  8.105953 44.515365
525   1  1 0.0000  2.477956  7.976352 47.598026
526   1  1 0.0000  4.694038 11.304715 46.168806
527   1  1 0.0000  8.436279  7.640694 44.706870
528   1  1 0.0000  9.125439  7.134159 47.613145
529   1  1 0.0000  6.789719 10.001014 44.418672
530   1  1 0.0000 10.924262  9.392100 47.357671
531   1  1 0.0000  9.399918 11.907489 47.405667
532   1  1 0.0000  7.990771 12.855139 43.696225
533   1  1 0.0000 10.889655 12.738968 44.729915
534   1  1 0.0000 13.805136  8.101555 43.390156
535   1  1 0.0000 12.732285 10.430738 45.144688
536   1  1 0.0000 15.092109 10.658530 46.906417
537   1  1 0.0000 15.849789  7.740800 47.221443
538   1  1 0.0000 17.838431  7.142944 44.779936
539   1  1 0.0000  5.077235 17.743017 44.825166
540   1  1 0.0000  2.840959 15.803537 44.608105
541   1  1 0.0000  1.778714 16.110348 47.485201
542   1  1 0.0000  6.833405 13.340281 46.341135
543   1  1 0.0000  6.720643 16.220490 46.964854
544   1  1 0.0000 11.178538 16.019329 48.606614
545   1  1 0.0000  9.523929 17.171368 46.052091
546   1  1 0.0000 10.660397 15.482572 43.722402
547   1  1 0.0000  4.652482 21.224559 43.622312
548   1  1 0.0000  1.913238 20.014857 43.644124
549   1  1 0.0000  1.424530 20.894770 46.378361
550   1  1 0.0000  3.080701 20.507036 48.788585
551   1  1 0.0000  5.058072 20.202460 46.447753
552   1  1 0.0000  2.781392 23.761083 46.937180
553   1  1 0.0000  5.718021 24.468274 47.998230
554   1  1 0.0000  7.212790 19.878101 48.411934
555   1  1 0.0000  9.618524 20.110551 46.900485
556   1  1 0.0000  8.751444 21.725248 44.543991
557   1  1 0.0000  7.257952 24.362920 45.192978
558   1  1 0.0000  0.007459 18.443874 26.210623
559   1  1 0.0000  0.077105 23.860685 28.673810
560   1  1 0.0000 29.736964  5.272314 35.927072
561   1  1 0.0000 20.241396  0.066931 26.903414
562   1  1 0.0000  2.862571 29.141034  3.601573
563   1  1 0.0000  1.114930 31.785932  1.338591
564   1  1 0.0000  1.106268 30.947840  5.018566
565   1  1 0.0000  0.736819 28.780044  1.476088
566   1  1 0.0000  5.215108 26.971692  0.336847
567   1  1 0.0000  4.095133 32.123870  1.089468
568   1  1 0.0000  5.792784 28.863571  4.044679
569   1  1 0.0000  8.188637 29.644262  2.571231
570   1  1 0.0000  6.302145 26.402169  5.722653
571   1  1 0.0000  8.937166 32.114204  3.943751
572   1  1 0.0000  6.639710 32.244972  2.398012
573   1  1 0.0000  0.219151 36.051566  1.642111
574   1  1 0.0000  1.515172 34.133206  3.271927
575   1  1 0.0000  3.964466 33.840169  5.081339
576   1  1 0.0000  0.568226 38.293282  5.823077
577   1  1 0.0000  6.093859 35.775249  5.775993
578   1  1 0.0000  8.243062 37.181540  1.419029
579   1  1 0.0000  8.949213 36.591820  5.168466
580   1  1 0.0000 11.394819 34.854821  5.443710
581   1  1 0.0000 10.378761 38.207614  2.767212
582   1  1 0.0000  8.506139 34.212031  1.139745
583   1  1 0.0000 13.285848 38.672620  2.655756
584   1  1 0.0000  1.548384 40.022691  3.618121
585   1  1 0.0000  3.276476 43.429511  2.230591
586   1  1 0.0000  4.274550 40.857674  3.479456
587   1  1 0.0000  0.996748 44.625193  4.116015
588   1  1 0.0000  6.640632 39.537972  2.185581
589   1  1 0.0000  6.360976 43.963477  5.263579
590   1  1 0.0000  9.293848 41.030104  2.181987
591   1  1 0.0000  8.628651 43.629726  3.376305
592   1  1 0.0000  9.321616 44.969904  0.734752
593   1  1 0.0000 11.911695 44.915647  2.058520
594   1  1 0.0000 12.613687 43.454265  4.613488
595   1  1 0.0000 14.649578 40.725233  4.233101
596   1  1 0.0000 15.726837 42.399436  1.886742
597   1  1 0.0000 17.886187 42.791662  5.853095
598   1  1 0.0000  4.380988 50.234214  1.586909
599   1  1 0.0000  4.250689 48.388298  5.691675
600   1  1 0.0000  1.363154 47.614080  4.952331
601   1  1 0.0000  0.654143 49.556489  2.700245
602   1  1 0.0000  4.479418 45.477156  0.294204
603   1  1 0.0000  4.231426 51.449829  5.890119
604   1  1 0.0000  5.964584 47.768754  1.542215
605   1  1 0.0000  5.992940 46.721246  4.241344
606   1  1 0.0000 10.471968 45.863555  4.573943
607   1  1 0.0000  8.446596 47.910025  5.800690
608   1  1 0.0000 16.395583 45.534319  2.510392
609   1  1 0.0000 14.037286 51.333740  2.286526
610   1  1 0.0000 12.398904 49.078659  1.394230
611   1  1 0.0000 13.478857 49.101156  4.098642
612   1  1 0.0000 15.997987 47.433815  4.678412
613   1  1 0.0000 14.205534 46.682836  0.724699
614   1  1 0.0000 16.961504 51.608426  1.350460
615   1  1 0.0000 18.550149 49.304155  0.384630
616   1  1 0.0000 21.453822 45.516256  2.695378
617   1  1 0.0000 18.238951 49.282373  5.126802
618   1  1 0.0000 18.961096 46.186139  1.080663
619   1  1 0.0000 23.011027 48.193602  3.026427
620   1  1 0.0000 22.749124 49.356550  5.675852
621   1  1 0.0000  0.014645 50.432117 12.497111
622   1  1 0.0000 29.393659 50.939902  3.037420
623   1  1 0.0000 29.164065 46.318880  1.018258
624   1  1 0.0000 27.839069 49.076067  1.161830
625   1  1 0.0000 25.596844 47.330159  2.243557
626   1  1 0.0000 25.823888 49.657716  5.649215
627   1  1 0.0000 27.844808 46.209240  4.053429
628   1  1 0.0000  5.693081 31.294626  6.042995
629   1  1 0.0000  2.081458 27.563513  6.146211
630   1  1 0.0000  5.069616 30.298843  8.834218
631   1  1 0.0000  5.258730 27.422464 10.295888
632   1  1 0.0000  2.432987 26.673046  9.106032
633   1  1 0.0000  2.918078 32.135037  9.291666
634   1  1 0.0000  9.001639 27.573886  6.734430
635   1  1 0.0000  6.619074 31.258440 11.075632
636   1  1 0.0000  9.199685 29.646370 11.293602
637   1  1 0.0000 10.111357 29.866593  8.400159
638   1  1 0.0000  8.655626 32.248683  6.913227
639   1  1 0.0000  0.068885 41.645078  8.683082
640   1  1 0.0000  1.651582 33.177857  6.869596
641   1  1 0.0000  1.913887 38.087846  8.390355
642   1  1 0.0000  5.014474 34.425794  9.769645
643   1  1 0.0000  4.685776 37.124424  8.064804
644   1  1 0.0000  1.072841 32.764902 12.196138
645   1  1 0.0000  7.456015 34.653278  8.172803
646   1  1 0.0000 11.130152 33.417528 11.120757
647   1  1 0.0000 11.087879 37.410350  9.563379
648   1  1 0.0000  8.506788 37.741565  8.023128
649   1  1 0.0000  8.215570 33.767287 12.258951
650   1  1 0.0000  4.528665 41.672681  6.374073
651   1  1 0.0000  2.744877 39.584288 11.118843
652   1  1 0.0000  2.709497 42.918955  8.478768
653   1  1 0.0000  5.408014 44.098329  9.187640
654   1  1 0.0000  5.460765 40.968050 10.932799
655   1  1 0.0000  5.717601 43.949339 12.129535
656   1  1 0.0000  6.086858 39.740897  8.383613
657   1  1 0.0000  8.010003 43.664275  7.764732
658   1  1 0.0000  9.961977 41.520073  8.620840
659   1  1 0.0000  9.228444 41.540030 11.505678
660   1  1 0.0000 11.791080 43.958372  9.601236
661   1  1 0.0000 15.163747 43.760002  6.269663
662   1  1 0.0000 12.068946 39.535864  7.768644
663   1  1 0.0000 14.560966 39.735684 11.073209
664   1  1 0.0000 14.350937 41.242963  7.139218
665   1  1 0.0000 14.061722 42.601562 11.299445
666   1  1 0.0000 17.016961 43.292123 11.170623
667   1  1 0.0000 18.291307 44.359703  8.599345
668   1  1 0.0000  0.004838 36.522697 10.130230
669   1  1 0.0000  0.647850 50.501616  8.115387
670   1  1 0.0000  1.626414 45.843291  8.653055
671   1  1 0.0000  5.401633 48.998859 10.095698
672   1  1 0.0000  4.524480 46.804694  8.318357
673   1  1 0.0000  1.481606 46.471503 11.732250
674   1  1 0.0000  3.492578 50.935536  8.656197
675   1  1 0.0000  9.399950 46.420512  8.268988
676   1  1 0.0000  7.651415 50.790327  9.697613
677   1  1 0.0000 10.123076 46.396138 11.046892
678   1  1 0.0000  9.190906 50.440352  7.139504
679   1  1 0.0000 11.736934 50.316853  8.822378
680   1  1 0.0000  9.128747 51.488757 12.288871
681   1  1 0.0000 12.184728 45.829368  7.178237
682   1  1 0.0000 13.411091 50.623157  6.479695
683   1  1 0.0000 12.222873 48.394211 11.202155
684   1  1 0.0000 16.406867 50.643367  7.258717
685   1  1 0.0000 15.047116 46.549173  7.320328
686   1  1 0.0000 15.077194 47.165700 10.366105
687   1  1 0.0000 16.727977 49.645370 10.070334
688   1  1 0.0000 22.099467 45.130221  6.869651
689   1  1 0.0000 22.819377 45.324287  9.836923
690   1  1 0.0000 20.446208 47.568482  6.540870
691   1  1 0.0000 18.683342 47.218400  8.943442
692   1  1 0.0000 20.357739 46.379566 11.340791
693   1  1 0.0000 21.966084 49.690740 11.600420
694   1  1 0.0000 19.763911 50.065774  9.704899
695   1  1 0.0000 21.464237 51.314060  7.499465
696   1  1 0.0000 24.982521 45.282049 11.869315
697   1  1 0.0000 28.371759 48.165370  6.321340
698   1  1 0.0000 24.234547 50.805281  8.738904
699   1  1 0.0000 26.565491 46.278263  8.072826
700   1  1 0.0000 25.937539 48.785077  9.871827
701   1  1 0.0000  2.857612 28.269061 14.136167
702   1  1 0.0000  2.293481 28.919845 17.274671
703   1  1 0.0000  5.364250 29.271234 12.798578
704   1  1 0.0000  5.157868 31.595802 17.178276
705   1  1 0.0000  0.830442 29.852357 12.783713
706   1  1 0.0000  3.774030 31.835929 14.629628
707   1  1 0.0000  2.400825 31.705347 18.342348
708   1  1 0.0000  9.230611 27.110254 12.719373
709   1  1 0.0000  7.540883 28.357177 14.822875
710   1  1 0.0000  8.103259 30.590808 17.041586
711   1  1 0.0000  0.000979 42.012336  5.463970
712   1  1 0.0000  4.005432 34.057944 12.695336
713   1  1 0.0000  3.151916 36.099439 14.766394
714   1  1 0.0000  3.992145 37.865520 17.021171
715   1  1 0.0000  1.761926 33.579295 16.055081
716   1  1 0.0000  0.631968 36.906903 13.156102
717   1  1 0.0000  5.096322 38.687875 12.623916
718   1  1 0.0000 10.100210 37.652426 12.474464
719   1  1 0.0000  6.243856 34.340455 17.441098
720   1  1 0.0000  9.462318 32.790177 15.122124
721   1  1 0.0000  7.417533 36.740915 12.835641
722   1  1 0.0000  7.674987 36.467142 15.989138
723   1  1 0.0000 10.458259 35.278525 16.751399
724   1  1 0.0000 11.338244 38.023256 16.720442
725   1  1 0.0000 11.870643 35.523685 13.137541
726   1  1 0.0000  1.341348 41.788455 12.677136
727   1  1 0.0000  4.393512 40.116229 15.202399
728   1  1 0.0000  1.587046 40.977324 15.399512
729   1  1 0.0000  2.387318 43.133510 17.642961
730   1  1 0.0000  2.942176 44.147817 13.361170
731   1  1 0.0000  8.606426 44.202849 12.474810
732   1  1 0.0000  6.196573 42.570235 15.920059
733   1  1 0.0000  8.366525 39.211377 16.722493
734   1  1 0.0000 11.019785 40.473135 13.606222
735   1  1 0.0000  8.402372 41.065225 14.460900
736   1  1 0.0000 11.004442 44.302087 17.672864
737   1  1 0.0000 10.870071 44.399930 14.436854
738   1  1 0.0000 13.990626 38.773110 16.092866
739   1  1 0.0000 13.196470 42.468277 14.053649
740   1  1 0.0000 14.313088 41.730446 16.911719
741   1  1 0.0000 16.593098 43.731013 14.113146
742   1  1 0.0000 20.321824 44.173275 13.231408
743   1  1 0.0000 28.606719 50.596375 19.603292
744   1  1 0.0000  1.878307 45.400102 15.885510
745   1  1 0.0000  3.719594 48.446235 12.510911
746   1  1 0.0000  3.231494 48.046741 16.628947
747   1  1 0.0000  1.950549 49.915982 14.681977
748   1  1 0.0000  5.624602 48.013949 14.751884
749   1  1 0.0000 22.960399 50.291514 22.926586
750   1  1 0.0000  6.301892 45.521350 16.331499
751   1  1 0.0000  8.736137 50.843910 17.176223
752   1  1 0.0000 10.222270 47.348862 14.619384
753   1  1 0.0000  8.208271 49.522718 14.347395
754   1  1 0.0000  9.015935 46.307320 17.296188
755   1  1 0.0000 16.216455 51.375252 12.512941
756   1  1 0.0000 12.229573 50.907024 13.059131
757   1  1 0.0000 12.814008 51.048551 16.247724
758   1  1 0.0000 13.414059 46.188937 17.247618
759   1  1 0.0000 15.020297 46.106156 13.110064
760   1  1 0.0000 13.021171 47.560360 14.638587
761   1  1 0.0000 15.198156 49.776989 15.006032
762   1  1 0.0000 17.373848 47.909052 14.433973
763   1  1 0.0000 12.705937 49.027977 18.420851
764   1  1 0.0000 17.551132 48.471287 18.461156
765   1  1 0.0000 20.427844 45.163895 18.060327
766   1  1 0.0000 18.688569 45.368991 15.612411
767   1  1 0.0000 20.172384 48.527546 13.580306
768   1  1 0.0000 19.372831 50.298870 16.896701
769   1  1 0.0000 21.938576 49.499729 15.761983
770   1  1 0.0000 24.186519 51.423790 18.535642
771   1  1 0.0000 24.047304 47.537930 17.168021
772   1  1 0.0000 24.637088 48.225890 12.611391
773   1  1 0.0000 29.311616 49.058426 12.541148
774   1  1 0.0000 24.263935 50.617634 14.224606
775   1  1 0.0000 26.404566 49.559719 17.690410
776   1  1 0.0000 25.974350 46.093396 15.716786
777   1  1 0.0000 27.753865 48.361228 15.160451
778   1  1 0.0000  0.139310 28.287032 24.046985
779   1  1 0.0000  3.942883 28.247515 19.601437
780   1  1 0.0000  1.342610 28.241766 21.230480
781   1  1 0.0000  3.741192 30.876311 23.240047
782   1  1 0.0000  5.582221 30.254077 20.995011
783   1  1 0.0000 10.374614 31.291927 19.043925
784   1  1 0.0000  7.920941 28.909973 21.865702
785   1  1 0.0000 10.325666 30.693816 22.197978
786   1  1 0.0000  7.247019 26.221408 21.060864
787   1  1 0.0000  1.515451 38.385084 18.590485
788   1  1 0.0000  4.439521 35.071291 24.481991
789   1  1 0.0000  0.307245 34.561853 22.634573
790   1  1 0.0000  2.195110 32.683895 21.174791
791   1  1 0.0000  0.470063 37.220352 21.177348
792   1  1 0.0000  5.481720 36.510257 19.399867
793   1  1 0.0000  4.218964 34.995702 21.422261
794   1  1 0.0000  0.158763 38.362213 23.926854
795   1  1 0.0000  6.126778 32.465107 24.294058
796   1  1 0.0000  6.175612 37.320271 24.178522
797   1  1 0.0000  6.468495 32.947927 21.346009
798   1  1 0.0000 10.725802 37.951914 23.743587
799   1  1 0.0000  8.467827 36.857942 19.996986
800   1  1 0.0000  8.562649 33.777026 19.251265
801   1  1 0.0000  9.717838 33.509699 23.199219
802   1  1 0.0000  8.543623 36.154470 22.791650
803   1  1 0.0000  4.629998 45.028534 18.650106
804   1  1 0.0000  0.314409 44.074826 21.253159
805   1  1 0.0000  3.160616 43.780540 22.620910
806   1  1 0.0000  2.087334 41.053788 19.864900
807   1  1 0.0000  4.764315 41.845679 21.180756
808   1  1 0.0000  6.255410 40.210830 23.343024
809   1  1 0.0000  9.504618 39.616602 19.243105
810   1  1 0.0000  6.651587 42.872359 19.153944
811   1  1 0.0000  9.331987 40.450303 22.362083
812   1  1 0.0000  7.532931 44.720647 23.572805
813   1  1 0.0000 11.168423 42.873119 21.690055
814   1  1 0.0000  8.615709 44.266174 20.804632
815   1  1 0.0000 11.724354 41.742558 18.912686
816   1  1 0.0000 16.499188 42.885697 18.793419
817   1  1 0.0000 15.473613 41.856379 21.658452
818   1  1 0.0000 13.525240 43.207160 23.685338
819   1  1 0.0000 22.295041 44.621222 21.862353
820   1  1 0.0000 26.587123 46.817828 21.242694
821   1  1 0.0000 29.780584 46.474920 10.960195
822   1  1 0.0000  2.880485 46.664030 23.968928
823   1  1 0.0000  1.316011 50.846948 19.540887
824   1  1 0.0000  0.866584 50.923767 22.357996
825   1  1 0.0000  1.067454 47.901062 21.867627
826   1  1 0.0000  3.165469 47.354476 19.731637
827   1  1 0.0000  5.638358 48.549641 20.993781
828   1  1 0.0000  5.860780 47.292131 23.804821
829   1  1 0.0000 10.085148 46.517937 24.157355
830   1  1 0.0000  9.037012 51.330836 23.940657
831   1  1 0.0000  8.080317 47.309420 19.791553
832   1  1 0.0000 10.087277 49.520935 19.812425
833   1  1 0.0000 11.443209 50.764813 22.353041
834   1  1 0.0000 16.009406 45.815911 18.437776
835   1  1 0.0000 16.967443 46.457213 23.072784
836   1  1 0.0000 12.384807 47.788161 22.655602
837   1  1 0.0000 14.855014 47.062748 21.035716
838   1  1 0.0000 15.384586 49.864627 19.786694
839   1  1 0.0000 25.807868 49.170837 22.899827
840   1  1 0.0000 19.831812 46.458980 22.572246
841   1  1 0.0000 19.318642 49.084140 20.877224
842   1  1 0.0000 22.127665 49.721841 20.103609
843   1  1 0.0000 22.428365 46.739402 19.637150
844   1  1 0.0000  0.111823 28.501551 10.043121
845   1  1 0.0000  7.835319 28.561229  0.028524
846   1  1 0.0000  5.284458 28.310704 29.099095
847   1  1 0.0000  4.604063 30.995676 30.095615
848   1  1 0.0000  1.568423 30.939897 29.963243
849   1  1 0.0000  5.111298 26.357721 25.166351
850   1  1 0.0000  1.312181 27.515453 26.639032
851   1  1 0.0000  3.554119 29.016103 25.401537
852   1  1 0.0000  3.725560 26.368875 27.751145
853   1  1 0.0000  0.844134 26.421199 30.154068
854   1  1 0.0000  8.102500 30.454661 25.985209
855   1  1 0.0000  7.926369 26.789528 29.180894
856   1  1 0.0000 17.692399 48.943835 24.704434
857   1  1 0.0000  7.901920 32.305225 28.067632
858   1  1 0.0000 24.395787 46.186097 49.082824
859   1  1 0.0000  2.055441 32.999511 27.805993
860   1  1 0.0000  4.918466 33.110619 28.114830
861   1  1 0.0000  5.546053 36.052331 28.575733
862   1  1 0.0000  2.927392 37.817490 28.540527
863   1  1 0.0000  1.876035 35.517405 29.707348
864   1  1 0.0000  1.618960 34.387309 25.441993
865   1  1 0.0000  7.706109 36.925229 26.541287
866   1  1 0.0000  9.253180 34.417028 26.172150
867   1  1 0.0000 11.640593 36.495123 26.182325
868   1  1 0.0000  2.317462 39.002487 25.836797
869   1  1 0.0000  3.350956 43.284314 29.640819
870   1  1 0.0000  3.319308 42.989395 25.704602
871   1  1 0.0000  4.928186 40.487627 26.060159
872   1  1 0.0000  2.651237 40.379714 30.339295
873   1  1 0.0000  0.485579 42.881467 25.901262
874   1  1 0.0000  6.163424 43.070056 28.800207
875   1  1 0.0000  9.201484 38.990851 28.042369
876   1  1 0.0000  6.302189 39.940730 28.733179
877   1  1 0.0000 10.259626 41.663108 27.383454
878   1  1 0.0000  8.037831 43.598403 26.301506
879   1  1 0.0000 10.466922 43.276246 30.021582
880   1  1 0.0000 16.214195 51.521289 25.149138
881   1  1 0.0000 14.707846 39.121588 27.054855
882   1  1 0.0000 13.180351 41.499826 26.226648
883   1  1 0.0000 15.700968 43.035073 27.184972
884   1  1 0.0000 17.397381 44.064864 24.890777
885   1  1 0.0000 17.948971 42.842706 29.233967
886   1  1 0.0000 22.295730 44.393507 26.169963
887   1  1 0.0000 18.939327 45.108228 27.357971
888   1  1 0.0000 21.878029 45.163222 29.127762
889   1  1 0.0000 25.097388 45.392792 26.070467
890   1  1 0.0000  4.543892 51.272907 25.356094
891   1  1 0.0000  1.341360 45.592992 29.528014
892   1  1 0.0000  2.945326 45.762738 26.761737
893   1  1 0.0000  3.747520 49.766700 27.792034
894   1  1 0.0000  5.124281 47.173079 28.439474
895   1  1 0.0000  0.908125 50.091114 27.670304
896   1  1 0.0000  8.189417 48.650513 25.377895
897   1  1 0.0000  7.887233 46.445257 27.364203
898   1  1 0.0000 10.138580 46.259945 29.323475
899   1  1 0.0000  8.438654 49.887147 28.187654
900   1  1 0.0000 11.377492 50.366303 27.662141
901   1  1 0.0000  7.799847 50.895159 30.779882
902   1  1 0.0000 12.576267 47.550417 27.662540
903   1  1 0.0000 15.072309 48.688050 28.779708
904   1  1 0.0000 12.860667 45.942951 25.001481
905   1  1 0.0000 17.613433 47.649766 27.408218
906   1  1 0.0000 13.937956 51.435687 29.175596
907   1  1 0.0000  7.611402 27.899108 24.696446
908   1  1 0.0000 19.411986 49.610781 28.927405
909   1  1 0.0000 22.542089 49.342340 29.473814
910   1  1 0.0000 20.695677 46.790147 25.559954
911   1  1 0.0000 20.602097 49.688444 24.872346
912   1  1 0.0000  6.666686 25.845249 37.962193
913   1  1 0.0000 24.137825 47.220171 28.246415
914   1  1 0.0000 28.712183 50.336678 26.601685
915   1  1 0.0000 26.376788 47.305007 30.469611
916   1  1 0.0000 27.693006 48.209718 24.900360
917   1  1 0.0000 28.163798 49.634815 30.737762
918   1  1 0.0000  4.989752 25.913295 33.392009
919   1  1 0.0000  0.169531 26.219435 33.052982
920   1  1 0.0000  3.394575 27.506936 31.359646
921   1  1 0.0000  1.993842 28.754861 33.729339
922   1  1 0.0000  3.788770 27.486814 35.834472
923   1  1 0.0000  0.634816 31.171329 32.764044
924   1  1 0.0000  5.955679 30.326004 32.673424
925   1  1 0.0000  5.922411 29.468713 35.538051
926   1  1 0.0000  2.874456 41.686885 49.068007
927   1  1 0.0000  7.371800 27.646758 32.098987
928   1  1 0.0000  8.742545 28.730575 34.536818
929   1  1 0.0000 10.341312 31.546164 35.825191
930   1  1 0.0000  8.577035 31.634555 33.535046
931   1  1 0.0000 27.590581 49.981256 47.597254
932   1  1 0.0000 26.239480 47.256653 47.006994
933   1  1 0.0000  3.836727 36.221071 32.043829
934   1  1 0.0000  2.946841 35.181335 34.793678
935   1  1 0.0000  0.323201 33.293858 34.863602
936   1  1 0.0000  5.864749 35.267427 35.348661
937   1  1 0.0000  8.631890 33.017224 31.058690
938   1  1 0.0000  6.675735 35.355500 31.506838
939   1  1 0.0000  8.726131 34.526504 34.576825
940   1  1 0.0000  8.643503 37.109104 33.066092
941   1  1 0.0000  6.792652 38.057869 35.319013
942   1  1 0.0000  1.991226 49.291108 49.133813
943   1  1 0.0000  5.006678 39.264221 31.482488
944   1  1 0.0000  4.220110 43.337788 34.845118
945   1  1 0.0000  5.011031 40.449766 35.872496
946   1  1 0.0000  9.824330 39.153496 31.001562
947   1  1 0.0000  7.727205 43.599772 31.312286
948   1  1 0.0000  7.520500 40.786087 32.270237
949   1  1 0.0000 11.272905 40.197474 35.189394
950   1  1 0.0000  8.969340 41.923864 34.834410
951   1  1 0.0000 10.012146 44.678907 34.691927
952   1  1 0.0000 12.168835 40.066439 32.380760
953   1  1 0.0000 13.834183 39.069705 35.923580
954   1  1 0.0000 16.018195 42.064327 31.142219
955   1  1 0.0000 13.149264 42.887673 31.690102
956   1  1 0.0000 13.000890 44.526782 34.175765
957   1  1 0.0000 17.131663 44.454312 34.143770
958   1  1 0.0000 17.425685 41.663478 33.815922
959   1  1 0.0000 16.883931 44.913822 31.145935
960   1  1 0.0000 14.035822 43.795450 36.949532
961   1  1 0.0000 19.705592 43.481211 33.350310
962   1  1 0.0000  0.643233 46.838975 33.867703
963   1  1 0.0000  5.271766 47.257566 31.483889
964   1  1 0.0000  3.722150 50.984086 34.085341
965   1  1 0.0000  2.350274 47.670814 31.588324
966   1  1 0.0000  1.458197 50.498910 32.166837
967   1  1 0.0000  6.300166 45.225505 33.436398
968   1  1 0.0000  6.403826 49.521337 32.958728
969   1  1 0.0000 10.381138 46.804876 32.500147
970   1  1 0.0000  7.105217 47.672246 35.229792
971   1  1 0.0000  9.776188 48.428606 36.583641
972   1  1 0.0000 15.471583 47.447955 31.440696
973   1  1 0.0000 12.537242 47.555884 35.455752
974   1  1 0.0000 12.692185 48.647175 31.982911
975   1  1 0.0000 14.716638 49.611982 35.495421
976   1  1 0.0000 17.013270 49.163733 33.425710
977   1  1 0.0000 13.328381 51.531835 32.086737
978   1  1 0.0000 16.516301 45.615180 36.777714
979   1  1 0.0000 19.629129 46.380263 31.015355
980   1  1 0.0000 18.425891 50.938962 31.498838
981   1  1 0.0000 21.568332 46.975959 33.271320
982   1  1 0.0000 19.948427 49.525708 33.571168
983   1  1 0.0000 20.946071 46.408789 36.253241
984   1  1 0.0000 23.461467 51.085907 36.565895
985   1  1 0.0000 23.962451 48.199527 32.111711
986   1  1 0.0000 27.176568 51.013177 33.184463
987   1  1 0.0000 24.988289 49.365556 34.534819
988   1  1 0.0000 25.548026 46.470309 35.480131
989   1  1 0.0000  1.986271 30.012174 40.992148
990   1  1 0.0000  3.147218 27.342323 40.580684
991   1  1 0.0000  0.938831 26.695543 42.368900
992   1  1 0.0000  0.410838 31.519545 37.378451
993   1  1 0.0000  3.017811 32.131050 38.906964
994   1  1 0.0000  5.810294 28.407105 41.559459
995   1  1 0.0000  5.967258 31.326231 37.907112
996   1  1 0.0000  6.404974 31.157645 42.544996
997   1  1 0.0000  9.025143 31.137028 41.184070
998   1  1 0.0000  9.686547 30.062815 38.348147
999   1  1 0.0000  7.251451 28.627088 39.063356
1000  1  1 0.0000 10.016625 28.875148 43.123370
1001  1  1 0.0000 27.056117 50.229256 43.554344
1002  1  1 0.0000  4.129046 34.978661 39.590089
1003  1  1 0.0000  2.304294 36.553477 37.471432
1004  1  1 0.0000  3.833020 37.030449 41.723684
1005  1  1 0.0000  1.027275 37.297012 42.679091
1006  1  1 0.0000  9.371095 35.616018 37.558539
1007  1  1 0.0000  6.715168 34.279320 38.193100
1008  1  1 0.0000  8.688599 37.051794 40.621601
1009  1  1 0.0000 11.289764 35.471617 39.490468
1010  1  1 0.0000  7.326108 38.435735 38.398208
1011  1  1 0.0000 10.560709 33.130979 42.972822
1012  1  1 0.0000  8.478096 35.376623 43.109962
1013  1  1 0.0000 13.204044 37.400257 40.444167
1014  1  1 0.0000  2.876046 45.010873 37.109930
1015  1  1 0.0000  2.502367 39.630325 37.219314
1016  1  1 0.0000  5.394554 39.248461 40.456772
1017  1  1 0.0000  0.762278 40.207247 42.028360
1018  1  1 0.0000  3.016966 41.033614 39.997662
1019  1  1 0.0000  3.828556 44.062597 39.767529
1020  1  1 0.0000  2.019421 44.385314 42.827773
1021  1  1 0.0000 10.078027 38.837432 37.744960
1022  1  1 0.0000  7.060679 41.937265 37.264006
1023  1  1 0.0000  6.394509 44.566670 38.154918
1024  1  1 0.0000  8.054880 39.468698 41.995558
1025  1  1 0.0000  8.774957 43.285205 39.083869
1026  1  1 0.0000  9.580801 41.881635 41.636651
1027  1  1 0.0000 11.024476 44.620246 37.699274
1028  1  1 0.0000 11.727481 39.978762 40.210958
1029  1  1 0.0000 15.749929 41.882301 38.457290
1030  1  1 0.0000 15.574216 43.482520 41.069087
1031  1  1 0.0000 13.838554 41.198784 41.946829
1032  1  1 0.0000 20.788392 44.902254 40.791677
1033  1  1 0.0000 23.384207 44.973710 42.076336
1034  1  1 0.0000  3.220159 50.689378 36.988586
1035  1  1 0.0000  1.458126 51.224057 40.519463
1036  1  1 0.0000  4.950265 47.192398 37.155139
1037  1  1 0.0000  4.069764 50.630968 41.740690
1038  1  1 0.0000  0.850395 49.140172 38.383107
1039  1  1 0.0000  5.173255 49.698777 38.942160
1040  1  1 0.0000  5.168740 46.001218 41.810474
1041  1  1 0.0000  7.888716 50.232311 40.275830
1042  1  1 0.0000  7.774357 47.195697 41.034828
1043  1  1 0.0000 10.361722 47.008883 39.381563
1044  1  1 0.0000  9.860985 50.874521 38.177644
1045  1  1 0.0000 12.194891 47.634149 41.714747
1046  1  1 0.0000 13.541985 50.376159 41.823060
1047  1  1 0.0000 12.773964 51.010267 39.130261
1048  1  1 0.0000 13.987243 48.235272 37.975664
1049  1  1 0.0000 16.375617 50.568196 40.507957
1050  1  1 0.0000 14.772315 46.484326 40.485455
1051  1  1 0.0000 16.766702 46.883853 42.614847
1052  1  1 0.0000 17.803994 50.788234 37.916709
1053  1  1 0.0000 18.550682 49.120791 42.368892
1054  1  1 0.0000 18.341263 47.914248 37.394005
1055  1  1 0.0000 22.117132 48.630434 38.231950
1056  1  1 0.0000 19.983360 47.642538 40.028475
1057  1  1 0.0000 20.749070 51.321928 38.933264
1058  1  1 0.0000 25.071505 47.306603 41.182835
1059  1  1 0.0000 24.731154 50.203338 41.324451
1060  1  1 0.0000 25.000771 47.843907 38.143717
1061  1  1 0.0000 27.736497 48.522897 38.790781
1062  1  1 0.0000 28.929753 49.514587 41.385957
1063  1  1 0.0000 27.597912 46.024208 41.985923
1064  1  1 0.0000  2.534439 27.373637 48.946564
1065  1  1 0.0000  0.705165 28.367713 44.552068
1066  1  1 0.0000  2.763200 30.496800 44.004023
1067  1  1 0.0000  4.278541 30.746045 47.820306
1068  1  1 0.0000  4.859459 28.839017 45.647764
1069  1  1 0.0000  2.818797 26.578662 45.832333
1070  1  1 0.0000  1.705846 32.241762 47.662448
1071  1  1 0.0000  8.289116 31.094683 47.794428
1072  1  1 0.0000  7.801811 29.725784 45.032660
1073  1  1 0.0000  0.010159 44.167175 40.482716
1074  1  1 0.0000  0.492335 35.667482 45.132746
1075  1  1 0.0000  3.776208 34.304335 48.274084
1076  1  1 0.0000  1.143259 33.089476 43.589122
1077  1  1 0.0000  4.830411 36.386370 44.537225
1078  1  1 0.0000  4.058419 37.078519 47.426336
1079  1  1 0.0000  6.122744 32.903219 46.930867
1080  1  1 0.0000  2.046452 38.786816 48.765995
1081  1  1 0.0000  6.055292 33.607398 43.944515
1082  1  1 0.0000  6.330203 38.504895 48.819681
1083  1  1 0.0000  9.241034 35.268652 47.678629
1084  1  1 0.0000  7.748523 36.724836 45.709019
1085  1  1 0.0000 11.010173 33.360073 45.788833
1086  1  1 0.0000 10.480374 37.948388 48.961494
1087  1  1 0.0000 13.848407 38.217511 45.487983
1088  1  1 0.0000  1.106910 42.181192 46.599590
1089  1  1 0.0000  2.647012 41.827494 43.915578
1090  1  1 0.0000  5.379391 41.308160 44.824799
1091  1  1 0.0000  5.730414 41.316565 47.813359
1092  1  1 0.0000  0.466908 39.224516 46.325431
1093  1  1 0.0000 21.069205 50.942773 49.238633
1094  1  1 0.0000  6.555414 43.612621 43.017764
1095  1  1 0.0000  6.971845 44.056208 48.248916
1096  1  1 0.0000 10.408292 41.007867 48.679505
1097  1  1 0.0000  7.832191 39.528582 45.006246
1098  1  1 0.0000  9.601907 43.736451 43.790532
1099  1  1 0.0000  9.852317 41.778791 45.851404
1100  1  1 0.0000 15.559199 40.729018 48.517280
1101  1  1 0.0000 12.772457 41.114289 44.876066
1102  1  1 0.0000 15.148394 42.719380 46.117293
1103  1  1 0.0000 17.248709 43.139040 43.735129
1104  1  1 0.0000 12.932118 39.550503 49.036653
1105  1  1 0.0000 22.550461 45.241206 45.059539
1106  1  1 0.0000  4.528419 50.969723 44.775856
1107  1  1 0.0000  4.821658 48.401633 43.524858
1108  1  1 0.0000  2.159515 46.443301 47.647383
1109  1  1 0.0000  2.395851 46.882649 44.524836
1110  1  1 0.0000 10.191857 47.728775 49.050901
1111  1  1 0.0000  8.058364 50.985111 47.178507
1112  1  1 0.0000  7.386871 48.423818 48.341567
1113  1  1 0.0000  6.932372 46.212415 46.344541
1114  1  1 0.0000  7.911020 47.445536 43.950455
1115  1  1 0.0000  9.797322 49.658282 44.948281
1116  1  1 0.0000 11.698916 47.764958 46.538141
1117  1  1 0.0000 11.691270 46.020251 44.032513
1118  1  1 0.0000 13.675664 51.590679 44.649668
1119  1  1 0.0000 15.295528 45.439686 47.323695
1120  1  1 0.0000 14.504293 46.287781 44.463429
1121  1  1 0.0000 14.434754 48.809511 45.768476
1122  1  1 0.0000 16.996881 49.659333 46.991186
1123  1  1 0.0000 23.041375 48.802975 49.112476
1124  1  1 0.0000 18.331036 45.432436 47.439895
1125  1  1 0.0000 19.136482 45.385160 43.207445
1126  1  1 0.0000 19.357835 50.043799 45.076717
1127  1  1 0.0000 20.310140 47.117928 45.566665
1128  1  1 0.0000 23.700951 51.519795 45.350919
1129  1  1 0.0000 24.795151 51.073459 48.075570
1130  1  1 0.0000 24.820601 48.804373 44.966583
1131  1  1 0.0000 32.351895  2.600096  4.252380
1132  1  1 0.0000 32.302568  5.636479  4.610474
1133  1  1 0.0000 33.848749  5.305723  2.008076
1134  1  1 0.0000 34.700623  1.269517  5.137981
1135  1  1 0.0000 32.241730  2.748587  1.208512
1136  1  1 0.0000 33.603630  0.238986  0.269969
1137  1  1 0.0000 36.765987  3.978725  2.200459
1138  1  1 0.0000 37.201998  2.465218  4.802001
1139  1  1 0.0000 40.204482  1.494964  5.248501
1140  1  1 0.0000 41.705184  2.633692  2.828291
1141  1  1 0.0000 59.569124 24.013868 23.168812
1142  1  1 0.0000 43.554427  0.144380  2.312264
1143  1  1 0.0000 43.802986  4.464306  3.560613
1144  1  1 0.0000 45.661791  3.365374  1.386787
1145  1  1 0.0000 47.323958  2.433435  3.939950
1146  1  1 0.0000 52.700882  1.335201  2.675385
1147  1  1 0.0000 49.935409  2.629515  2.810575
1148  1  1 0.0000 49.523662  5.635894  1.931846
1149  1  1 0.0000 50.941231  5.874092  5.364074
1150  1  1 0.0000 53.456739  4.429667  4.726715
1151  1  1 0.0000 48.591272  4.179345  6.006038
1152  1  1 0.0000 49.001889  1.103400  0.318446
1153  1  1 0.0000 53.907592  1.533083  5.423520
1154  1  1 0.0000 55.287377  4.700320  2.211641
1155  1  1 0.0000 57.974830  5.676517  2.818125
1156  1  1 0.0000 56.758862  2.260231  5.308598
1157  1  1 0.0000 55.518253  0.681443  3.322098
1158  1  1 0.0000 56.023141  0.789614  0.265394
1159  1  1 0.0000 37.692952  6.747457  2.156110
1160  1  1 0.0000 41.087576  7.394337  4.294521
1161  1  1 0.0000 39.651464  6.653329  0.051557
1162  1  1 0.0000 45.090153  7.064559  4.781473
1163  1  1 0.0000 43.302693  9.322730  4.349958
1164  1  1 0.0000 45.187080 11.634328  1.661221
1165  1  1 0.0000 43.299800  9.489311  1.344666
1166  1  1 0.0000 47.423162 10.781077  3.654360
1167  1  1 0.0000 47.439180  7.141724  0.501912
1168  1  1 0.0000 47.554096  7.547149  3.318892
1169  1  1 0.0000 51.910292  8.529402  3.949728
1170  1  1 0.0000 51.902024  7.289016  1.115147
1171  1  1 0.0000 50.315082 10.901451  2.891907
1172  1  1 0.0000 53.181209 11.951806  0.100043
1173  1  1 0.0000 54.745735  9.741999  4.694780
1174  1  1 0.0000 54.898605 10.237628  1.746807
1175  1  1 0.0000 57.418427  8.373442  4.336770
1176  1  1 0.0000 58.552131 11.169966  3.697397
1177  1  1 0.0000 57.282059 12.004713  1.079576
1178  1  1 0.0000 54.788252  7.215926  0.779498
1179  1  1 0.0000 47.605694 14.926815  5.415184
1180  1  1 0.0000 50.949578 13.476973  3.819154
1181  1  1 0.0000 51.336674 17.752790  5.521090
1182  1  1 0.0000 50.474265 18.064046  1.696481
1183  1  1 0.0000 52.571599 15.976709  3.197903
1184  1  1 0.0000 48.924345 15.358905  2.643271
1185  1  1 0.0000 52.492351 14.888690  0.461980
1186  1  1 0.0000 53.159209 19.056210  0.930624
1187  1  1 0.0000 52.593754 13.532572  6.151467
1188  1  1 0.0000 56.437305 14.564611  1.933776
1189  1  1 0.0000 54.838625 14.737121  4.446713
1190  1  1 0.0000 59.311271 15.762830  2.915667
1191  1  1 0.0000 55.454530 16.955043  0.229846
1192  1  1 0.0000 59.587700 10.362039 13.713772
1193  1  1 0.0000 51.213362 22.601010  3.365626
1194  1  1 0.0000 52.206479 25.221810  4.168316
1195  1  1 0.0000 53.615699 19.839980  5.439072
1196  1  1 0.0000 53.638610 21.839472  0.057832
1197  1  1 0.0000 56.553743 19.445761  5.194015
1198  1  1 0.0000 53.889825 21.102680  2.802421
1199  1  1 0.0000 55.575886 23.250080  1.923042
1200  1  1 0.0000 55.074731 24.440458  4.664161
1201  1  1 0.0000 57.362988 22.427394  5.265640
1202  1  1 0.0000 58.591195 23.165377  0.596155
1203  1  1 0.0000 59.291746 23.843689  3.333363
1204  1  1 0.0000 33.468237  5.088995  7.405303
1205  1  1 0.0000 32.254954  2.492345  8.433583
1206  1  1 0.0000 35.022212  5.471275 11.380301
1207  1  1 0.0000 32.190061  4.421210 10.702130
1208  1  1 0.0000 34.805345  1.433056  8.255388
1209  1  1 0.0000 31.119654  0.801683  6.403535
1210  1  1 0.0000 34.638344  1.337238 12.236313
1211  1  1 0.0000 36.381210  4.913997  6.477307
1212  1  1 0.0000 36.287146  3.104376 10.124115
1213  1  1 0.0000 39.099197  3.858963  9.967740
1214  1  1 0.0000 41.340501  1.862883  9.973472
1215  1  1 0.0000 41.462971  5.513338  6.662515
1216  1  1 0.0000 38.362504  6.310342  8.370507
1217  1  1 0.0000 44.251092  3.885318  6.320517
1218  1  1 0.0000 46.846332  2.849835 10.434432
1219  1  1 0.0000 46.574383  4.913835  8.042809
1220  1  1 0.0000 42.638824  1.492537  7.162247
1221  1  1 0.0000 42.447739  5.327530 11.712670
1222  1  1 0.0000 45.259873  4.663318 12.328415
1223  1  1 0.0000 50.048698  1.725748  7.138070
1224  1  1 0.0000 49.478524  1.876861 10.138973
1225  1  1 0.0000 50.011299  5.795596 11.045159
1226  1  1 0.0000 52.157161  2.346701  9.077599
1227  1  1 0.0000 51.691536  5.241708  8.463590
1228  1  1 0.0000 53.359666  0.312111 11.108464
1229  1  1 0.0000 55.736893  4.911984  6.403888
1230  1  1 0.0000 56.547124  0.394366  9.120950
1231  1  1 0.0000 54.708525  4.728678 11.408872
1232  1  1 0.0000 55.899219  3.309703  8.951544
1233  1  1 0.0000 58.351621  4.881202  9.876496
1234  1  1 0.0000 56.331773  0.804007 12.079842
1235  1  1 0.0000 58.316680  0.196508  6.617697
1236  1  1 0.0000 41.713458  8.025871 11.821819
1237  1  1 0.0000 46.825100 12.075888  6.215857
1238  1  1 0.0000 42.484994  6.824357  9.261263
1239  1  1 0.0000 47.206729  6.932755 11.619182
1240  1  1 0.0000 44.532930  8.191759  7.667251
1241  1  1 0.0000 47.119248  8.042680  8.860422
1242  1  1 0.0000 48.918462 10.152698  7.518252
1243  1  1 0.0000 51.249662 11.183362 11.736676
1244  1  1 0.0000 49.768182 12.374561  9.519122
1245  1  1 0.0000 53.557952  9.916322  9.994050
1246  1  1 0.0000 53.649009  6.891488  9.840726
1247  1  1 0.0000 57.763732 22.170928 21.682596
1248  1  1 0.0000 53.996463 11.169730  7.324994
1249  1  1 0.0000 58.058359 12.302415  6.526758
1250  1  1 0.0000 57.871412  9.857447  8.518330
1251  1  1 0.0000 56.399316  9.704212 11.185932
1252  1  1 0.0000 56.543602  7.048191  8.442458
1253  1  1 0.0000 47.856010 14.566208  8.459348
1254  1  1 0.0000 48.735293 16.957522  9.938499
1255  1  1 0.0000 52.297843 16.186330  7.935649
1256  1  1 0.0000 52.169099 14.290325 10.161488
1257  1  1 0.0000 50.970480 18.376432 11.331436
1258  1  1 0.0000 56.087911 13.528110 11.843789
1259  1  1 0.0000 56.472852 15.026115  6.963217
1260  1  1 0.0000 55.059005 13.470434  9.010575
1261  1  1 0.0000 57.354662 17.807730  7.600873
1262  1  1 0.0000 54.617312 17.801253  9.137113
1263  1  1 0.0000 55.439188 16.482539 11.823490
1264  1  1 0.0000 57.513988 18.814363 11.860423
1265  1  1 0.0000 50.846837 23.966230  8.546542
1266  1  1 0.0000 52.934942 22.091672  7.374316
1267  1  1 0.0000 52.806907 20.175708  9.940550
1268  1  1 0.0000 49.558153 20.888714 12.434361
1269  1  1 0.0000 58.115649 24.384821  7.386897
1270  1  1 0.0000 55.413154 23.442116  8.485333
1271  1  1 0.0000 56.867184 21.479883 10.468777
1272  1  1 0.0000 54.795459 25.680987 10.397038
1273  1  1 0.0000 31.661400  1.634718 12.725133
1274  1  1 0.0000 34.026623  3.170151 16.064404
1275  1  1 0.0000 33.053094  5.784758 16.303599
1276  1  1 0.0000 31.774610  1.146629 15.617595
1277  1  1 0.0000 30.351864  5.700758 15.188704
1278  1  1 0.0000 35.785240  0.917934 17.468165
1279  1  1 0.0000 30.065732  4.245178 12.593514
1280  1  1 0.0000 35.986843  4.536856 14.260769
1281  1  1 0.0000 38.345042  2.763422 14.776450
1282  1  1 0.0000 39.625339  4.481199 12.900038
1283  1  1 0.0000 38.730204  4.298817 17.622126
1284  1  1 0.0000 41.711805  4.082834 17.505512
1285  1  1 0.0000 42.543952  1.051130 12.628883
1286  1  1 0.0000 42.274690  1.938190 15.434968
1287  1  1 0.0000 44.936855  0.961592 14.391789
1288  1  1 0.0000 44.906698  5.339448 15.383475
1289  1  1 0.0000 44.532083  3.682534 17.908093
1290  1  1 0.0000 47.556567  5.234026 16.209987
1291  1  1 0.0000 47.667580  2.463770 14.718668
1292  1  1 0.0000 49.739692  4.287919 13.608680
1293  1  1 0.0000 51.969977  4.847094 15.634966
1294  1  1 0.0000 53.356365  2.051535 15.478591
1295  1  1 0.0000 51.764965  0.092487 13.629947
1296  1  1 0.0000 54.778138  2.585979 17.916272
1297  1  1 0.0000 55.370183  3.039967 13.574666
1298  1  1 0.0000 56.864081  3.892953 15.976938
1299  1  1 0.0000 58.634352  1.314006 16.380752
1300  1  1 0.0000 58.536400  5.612117 17.677248
1301  1  1 0.0000 58.463256  6.148222 14.673526
1302  1  1 0.0000 35.839354  6.669399 16.322383
1303  1  1 0.0000 38.708140  7.412129 12.755234
1304  1  1 0.0000 42.228508  6.674192 15.973483
1305  1  1 0.0000 44.791184 11.019886 14.803964
1306  1  1 0.0000 47.091955  9.557488 16.085489
1307  1  1 0.0000 43.039381  8.654478 18.070851
1308  1  1 0.0000 51.395513  6.622598 18.378352
1309  1  1 0.0000 50.821521  8.272158 12.649514
1310  1  1 0.0000 48.487533  7.460867 14.352662
1311  1  1 0.0000 49.387063 11.301160 16.992936
1312  1  1 0.0000 53.293479  7.258595 14.119908
1313  1  1 0.0000 56.137164  6.918469 12.581977
1314  1  1 0.0000 54.969054  8.761181 15.954341
1315  1  1 0.0000 56.703860 10.506491 14.225875
1316  1  1 0.0000 54.045986 11.093627 17.902108
1317  1  1 0.0000 56.712377  7.981807 18.271399
1318  1  1 0.0000 46.913944 14.158190 13.686001
1319  1  1 0.0000 47.874802 17.080600 13.934492
1320  1  1 0.0000 53.071329 13.320321 12.924429
1321  1  1 0.0000 49.264597 13.587901 15.364020
1322  1  1 0.0000 50.544853 16.294954 14.868022
1323  1  1 0.0000 53.058910 17.291278 13.373627
1324  1  1 0.0000 50.924932 17.778471 17.510271
1325  1  1 0.0000 53.348337 13.560515 16.262315
1326  1  1 0.0000 53.135454 15.860384 18.278038
1327  1  1 0.0000 48.767832 13.693121 18.428938
1328  1  1 0.0000 58.949572 13.196252 12.647321
1329  1  1 0.0000 59.069983 16.774399 15.392677
1330  1  1 0.0000 55.861435 17.006307 17.321103
1331  1  1 0.0000 56.192850 13.259429 15.303454
1332  1  1 0.0000 56.302974 16.198063 14.535485
1333  1  1 0.0000 59.084906 13.825560 15.642624
1334  1  1 0.0000 58.038209 19.097527 17.133167
1335  1  1 0.0000 52.335379 21.903384 12.544880
1336  1  1 0.0000 52.732220 20.020140 17.201248
1337  1  1 0.0000 50.872007 25.062639 17.098874
1338  1  1 0.0000 50.566938 21.971738 17.238379
1339  1  1 0.0000 53.853833 25.126182 17.213357
1340  1  1 0.0000 53.933279 20.189572 14.454565
1341  1  1 0.0000 54.205574 24.306014 12.908538
1342  1  1 0.0000 56.121433 22.108046 13.485922
1343  1  1 0.0000 57.409193 21.809498 15.993427
1344  1  1 0.0000 55.344311 22.583060 18.145419
1345  1  1 0.0000 31.643490  1.115707 19.754607
1346  1  1 0.0000 31.331247  4.871866 21.299823
1347  1  1 0.0000 32.746615  3.223124 23.520702
1348  1  1 0.0000 34.061627  1.729159 21.298230
1349  1  1 0.0000 36.764222  0.973226 24.471644
1350  1  1 0.0000 36.865474  1.501043 20.191860
1351  1  1 0.0000 40.499644  0.780842 22.357806
1352  1  1 0.0000 38.242241  2.846858 22.427759
1353  1  1 0.0000 36.537555  5.475590 19.171099
1354  1  1 0.0000 37.616779  5.926932 23.198613
1355  1  1 0.0000 42.200168  5.690843 24.353489
1356  1  1 0.0000 46.902700  5.407841 18.984516
1357  1  1 0.0000 45.475111  1.132826 19.117586
1358  1  1 0.0000 44.682966  0.812401 23.495719
1359  1  1 0.0000 47.001483  1.439376 21.777701
1360  1  1 0.0000 46.092105  6.175813 23.407741
1361  1  1 0.0000 42.610074  0.439189 20.165385
1362  1  1 0.0000 50.605405  2.040604 19.013454
1363  1  1 0.0000 51.900263  4.539278 23.495019
1364  1  1 0.0000 48.606248  3.700436 20.729998
1365  1  1 0.0000 52.729749  0.945773 20.804537
1366  1  1 0.0000 50.590088  5.965476 21.338638
1367  1  1 0.0000 58.074056  2.274956 24.128259
1368  1  1 0.0000 54.089152  2.932100 22.218184
1369  1  1 0.0000 57.322050  1.025617 19.214007
1370  1  1 0.0000 55.468216  0.767717 23.717622
1371  1  1 0.0000 54.871232  4.551638 19.988134
1372  1  1 0.0000 58.018717  3.820276 19.867684
1373  1  1 0.0000 56.926440  5.097685 24.311193
1374  1  1 0.0000 38.939345  6.908087 18.846055
1375  1  1 0.0000 40.196435  7.406775 23.043291
1376  1  1 0.0000 41.580213  7.031900 20.202193
1377  1  1 0.0000 45.873760  8.128196 18.688182
1378  1  1 0.0000 43.815390  6.630344 21.739228
1379  1  1 0.0000 43.966389  9.826681 21.923173
1380  1  1 0.0000 43.613456 11.281361 19.150259
1381  1  1 0.0000 46.378325 11.565977 22.483247
1382  1  1 0.0000 47.339011  9.828322 20.476982
1383  1  1 0.0000 49.871790  9.074758 18.688957
1384  1  1 0.0000 52.608850  8.938870 19.568256
1385  1  1 0.0000 53.295136 10.365663 23.163020
1386  1  1 0.0000 48.455747  7.808976 22.625256
1387  1  1 0.0000 51.388958 11.400692 20.965590
1388  1  1 0.0000 59.281341  9.657541 18.388831
1389  1  1 0.0000 54.778915  7.459042 20.536954
1390  1  1 0.0000 57.096614  7.454335 22.493319
1391  1  1 0.0000 56.129420 10.004159 23.718584
1392  1  1 0.0000 57.835508 12.236432 22.201274
1393  1  1 0.0000 55.999645 12.561522 19.782311
1394  1  1 0.0000 53.990623  2.841502  0.168312
1395  1  1 0.0000 53.016040 13.458928 23.691549
1396  1  1 0.0000 52.029740 17.804138 24.130128
1397  1  1 0.0000 50.672802 15.003414 23.616068
1398  1  1 0.0000 49.584174 15.422254 20.821526
1399  1  1 0.0000 49.332496 18.210143 20.042098
1400  1  1 0.0000 53.323469 13.757807 20.770244
1401  1  1 0.0000 59.589365 16.561171 23.689106
1402  1  1 0.0000 40.906000  2.250793  0.094923
1403  1  1 0.0000 57.717493 14.264890 24.233042
1404  1  1 0.0000 57.334834 15.277574 19.267302
1405  1  1 0.0000 55.109283 18.042675 23.803627
1406  1  1 0.0000 56.104251 17.731746 20.894338
1407  1  1 0.0000 58.796635 18.714327 21.898306
1408  1  1 0.0000 53.573878 25.634176 23.426085
1409  1  1 0.0000 50.447841 19.760720 22.413314
1410  1  1 0.0000 53.026448 24.106027 20.909774
1411  1  1 0.0000 52.933495 21.369704 22.026644
1412  1  1 0.0000 54.287071 23.074747 24.385956
1413  1  1 0.0000 57.189681 20.394439 23.795861
1414  1  1 0.0000 56.234295 24.385038 20.221319
1415  1  1 0.0000 54.377671 19.957582 19.779108
1416  1  1 0.0000 59.444140 20.555036 19.706552
1417  1  1 0.0000 59.603930 18.782358  2.050154
1418  1  1 0.0000 51.469921  0.021762 23.356289
1419  1  1 0.0000 59.546754  8.380868 21.211948
1420  1  1 0.0000 59.599450  8.411171  6.685012
1421  1  1 0.0000 31.661470  3.883606 28.756599
1422  1  1 0.0000 34.297930  5.197641 29.406466
1423  1  1 0.0000 31.777242  1.052982 30.152951
1424  1  1 0.0000 32.587633  1.225032 25.855278
1425  1  1 0.0000 35.220022  2.436019 26.768395
1426  1  1 0.0000 57.597304 18.856966 49.208595
1427  1  1 0.0000 36.144432  5.119218 27.252101
1428  1  1 0.0000 38.743310  5.324837 25.935969
1429  1  1 0.0000 39.381043  3.679616 30.309008
1430  1  1 0.0000 40.128018  2.798681 26.157586
1431  1  1 0.0000 36.804148  2.381435 29.564597
1432  1  1 0.0000 38.980204  0.176048 26.288937
1433  1  1 0.0000 41.827925  4.121843 28.589093
1434  1  1 0.0000 46.060058  4.326339 25.772248
1435  1  1 0.0000 43.666765  5.889691 26.931069
1436  1  1 0.0000 43.373740  1.512020 28.019749
1437  1  1 0.0000 45.929640  0.872527 29.709218
1438  1  1 0.0000 42.809811  2.585600 25.124137
1439  1  1 0.0000 46.036312  6.209483 30.900240
1440  1  1 0.0000 46.711564  0.143098 45.388374
1441  1  1 0.0000 47.824989  1.999910 26.341006
1442  1  1 0.0000 48.848228  5.207535 30.316282
1443  1  1 0.0000 52.172472  2.509987 27.227101
1444  1  1 0.0000 48.657539  4.693161 27.214084
1445  1  1 0.0000 48.609579  2.023266 30.582523
1446  1  1 0.0000 53.893563  4.538899 28.388441
1447  1  1 0.0000 54.154027  5.732511 25.448551
1448  1  1 0.0000 54.380687  0.752779 26.481915
1449  1  1 0.0000 55.731753  3.421700 30.368707
1450  1  1 0.0000 59.076991  5.564486 26.474918
1451  1  1 0.0000 32.783338  6.004268 24.760181
1452  1  1 0.0000 39.589941  7.744367 27.621268
1453  1  1 0.0000 41.821790  7.858231 29.790063
1454  1  1 0.0000 44.876360  7.793714 28.625915
1455  1  1 0.0000 46.837275 10.096118 29.237719
1456  1  1 0.0000 45.239618  8.108077 25.687162
1457  1  1 0.0000 48.306357  8.790363 25.637598
1458  1  1 0.0000 50.503273  7.071477 26.836190
1459  1  1 0.0000 52.923349  8.499120 25.601682
1460  1  1 0.0000 52.253908 10.744368 27.359894
1461  1  1 0.0000 49.803719 10.257652 29.015118
1462  1  1 0.0000 50.863462  7.461638 29.841389
1463  1  1 0.0000 48.336489 11.771650 24.940254
1464  1  1 0.0000 51.064997 12.838252 25.435720
1465  1  1 0.0000 53.787651 12.380776 29.592035
1466  1  1 0.0000 57.786523  6.705592 29.042470
1467  1  1 0.0000 55.431618 10.006121 29.407483
1468  1  1 0.0000 58.198917  9.274199 30.374091
1469  1  1 0.0000 55.957773 10.890228 26.541861
1470  1  1 0.0000 58.528957 12.503142 26.505553
1471  1  1 0.0000 46.180853 13.112434 29.159640
1472  1  1 0.0000 47.888272 14.800833 25.036953
1473  1  1 0.0000 48.776630 17.172422 26.529628
1474  1  1 0.0000 48.478708 15.040213 29.397571
1475  1  1 0.0000 50.885258 15.292734 27.330644
1476  1  1 0.0000 53.976256 15.278780 28.328533
1477  1  1 0.0000 54.050102 18.986225 27.560907
1478  1  1 0.0000 55.025813 13.829341 25.845742
1479  1  1 0.0000 55.603836 16.498976 26.284414
1480  1  1 0.0000 55.464423 17.719862 29.709894
1481  1  1 0.0000 58.044246 16.864428 28.178559
1482  1  1 0.0000 58.136784 14.090111 29.128346
1483  1  1 0.0000 49.204378 19.466794 28.511239
1484  1  1 0.0000 51.436457 19.624041 26.532595
1485  1  1 0.0000 51.654141 22.631325 25.684926
1486  1  1 0.0000 56.805408 24.996120 28.777838
1487  1  1 0.0000 54.325739 23.572103 29.160628
1488  1  1 0.0000 55.220513 21.677683 26.876178
1489  1  1 0.0000 57.981459 20.827287 26.576537
1490  1  1 0.0000 30.140585  2.286209 32.291971
1491  1  1 0.0000 31.176917  4.943015 31.719301
1492  1  1 0.0000 34.582865  3.342986 34.776308
1493  1  1 0.0000 35.418499  4.065806 31.899752
1494  1  1 0.0000 32.855145  2.156171 36.650248
1495  1  1 0.0000 33.990898  0.391815 32.009126
1496  1  1 0.0000 34.922567  6.302481 35.306426
1497  1  1 0.0000 40.811916  1.353318 31.764645
1498  1  1 0.0000 38.066025  5.464533 32.527204
1499  1  1 0.0000 40.076484  5.356469 34.788844
1500  1  1 0.0000 36.966440  1.572420 35.625312
1501  1  1 0.0000 40.918323  2.257957 34.686149
1502  1  1 0.0000 43.645813  0.929953 34.792825
1503  1  1 0.0000 43.994706  1.561995 32.120677
1504  1  1 0.0000 44.297230  4.512265 32.493239
1505  1  1 0.0000 46.158336  5.325125 34.772522
1506  1  1 0.0000 46.432569  2.297053 35.551781
1507  1  1 0.0000 42.056486  6.326658 32.439070
1508  1  1 0.0000 50.505848  0.143203 28.919879
1509  1  1 0.0000 52.571021  2.803184 33.594612
1510  1  1 0.0000 52.533085  1.168399 36.171200
1511  1  1 0.0000 51.522409  5.567027 33.251516
1512  1  1 0.0000 47.993244  0.749002 33.470166
1513  1  1 0.0000 48.956118  6.157564 34.539071
1514  1  1 0.0000 58.693371  0.161340 35.533567
1515  1  1 0.0000 58.395910 22.131849 47.069485
1516  1  1 0.0000 53.925961  1.207410 31.357415
1517  1  1 0.0000 53.934711  5.732318 31.024644
1518  1  1 0.0000 58.722538  2.946157 31.062788
1519  1  1 0.0000 55.401626  3.513767 34.463479
1520  1  1 0.0000 57.236412  1.389796 33.244349
1521  1  1 0.0000 56.288436  6.387489 34.617043
1522  1  1 0.0000 59.522031  5.772792 31.281189
1523  1  1 0.0000 40.184497  7.928479 36.598489
1524  1  1 0.0000 42.860411 10.292829 30.892627
1525  1  1 0.0000 44.440672  8.303358 32.745613
1526  1  1 0.0000 45.221253 11.719513 33.554706
1527  1  1 0.0000 47.562850 10.210330 32.134371
1528  1  1 0.0000 46.964385 11.434489 36.026031
1529  1  1 0.0000 53.349482  6.618666 35.619587
1530  1  1 0.0000 48.659483  9.206318 34.757792
1531  1  1 0.0000 50.044399 11.891416 31.642651
1532  1  1 0.0000 51.057542 11.046274 34.275213
1533  1  1 0.0000 53.533154  8.497041 31.216080
1534  1  1 0.0000 53.816659 10.032063 33.883035
1535  1  1 0.0000 58.620782  7.751338 33.161489
1536  1  1 0.0000 56.672336 10.579067 35.130357
1537  1  1 0.0000 58.198767 12.337262 33.209109
1538  1  1 0.0000 58.877385  8.960165 35.952422
1539  1  1 0.0000 47.060656 15.648754 33.264144
1540  1  1 0.0000 49.796674 13.109190 36.050161
1541  1  1 0.0000 51.999897 16.591608 32.026582
1542  1  1 0.0000 49.551108 14.830222 32.202709
1543  1  1 0.0000 53.434791 17.172945 34.615551
1544  1  1 0.0000 53.425060 14.032751 31.932016
1545  1  1 0.0000 49.110392 15.983119 36.685083
1546  1  1 0.0000 53.507678 14.204696 34.939567
1547  1  1 0.0000 51.210469 19.358154 31.021666
1548  1  1 0.0000 55.640195 12.951848 36.698693
1549  1  1 0.0000 56.517356 14.421968 31.636802
1550  1  1 0.0000 56.940262 17.434432 32.217784
1551  1  1 0.0000 55.924128 18.852635 34.749316
1552  1  1 0.0000 58.031692 18.281759 36.756772
1553  1  1 0.0000 59.444991 18.741015 30.834265
1554  1  1 0.0000 50.100568 20.282548 33.927169
1555  1  1 0.0000 51.616720 20.696327 36.594556
1556  1  1 0.0000 53.514129 21.471570 31.336607
1557  1  1 0.0000 53.828120 23.265715 33.689460
1558  1  1 0.0000 57.366027 25.456848 34.880672
1559  1  1 0.0000 56.013407 21.414206 32.893087
1560  1  1 0.0000 57.139808 22.628185 36.125406
1561  1  1 0.0000 58.914436 21.562769 33.810695
1562  1  1 0.0000 54.022914 22.443679 36.583084
1563  1  1 0.0000 30.586260  1.255596 38.333994
1564  1  1 0.0000 32.043561  2.095572 41.013654
1565  1  1 0.0000 34.937846  3.392718 38.624874
1566  1  1 0.0000 33.738607  6.115814 38.159701
1567  1  1 0.0000 30.643968  4.895827 41.239064
1568  1  1 0.0000 34.566591  2.371424 42.374888
1569  1  1 0.0000 35.965272  4.915156 42.471363
1570  1  1 0.0000 40.563254  0.712343 37.198884
1571  1  1 0.0000 37.770991  3.602404 37.832686
1572  1  1 0.0000 36.961580  0.507613 42.488875
1573  1  1 0.0000 40.531869  2.838147 39.144113
1574  1  1 0.0000 39.256184  0.684743 40.792817
1575  1  1 0.0000 47.085424  0.466608 39.742607
1576  1  1 0.0000 44.201830  1.225261 38.897811
1577  1  1 0.0000 47.405441  3.591959 41.437737
1578  1  1 0.0000 45.429843  4.812738 39.679972
1579  1  1 0.0000 42.627887  4.571275 40.691390
1580  1  1 0.0000 47.682815  0.722302 42.427020
1581  1  1 0.0000 49.523921  4.890403 37.286502
1582  1  1 0.0000 52.700699  4.187556 37.408172
1583  1  1 0.0000 48.269483  2.220655 37.940412
1584  1  1 0.0000 50.096177  2.432333 42.373321
1585  1  1 0.0000 52.709939  1.460909 40.989485
1586  1  1 0.0000 51.545450  6.074297 41.466274
1587  1  1 0.0000 53.738049  4.230357 40.402817
1588  1  1 0.0000 56.499230  2.965444 37.376652
1589  1  1 0.0000 57.107891  2.214921 41.994151
1590  1  1 0.0000 56.672824  4.382775 40.019770
1591  1  1 0.0000 37.769311  6.605414 38.457331
1592  1  1 0.0000 39.092942  7.670309 40.910174
1593  1  1 0.0000 41.924329  7.395808 41.566385
1594  1  1 0.0000 43.006654  8.687691 37.422342
1595  1  1 0.0000 45.289303  6.631355 37.354288
1596  1  1 0.0000 42.656956 10.114901 40.060318
1597  1  1 0.0000 46.427689  7.481480 39.833630
1598  1  1 0.0000 46.697356 10.251204 40.957567
1599  1  1 0.0000 46.294029 12.470658 38.718202
1600  1  1 0.0000 49.208777  9.966948 39.340034
1601  1  1 0.0000 52.934484  8.943638 37.743411
1602  1  1 0.0000 49.356270  6.916960 39.414467
1603  1  1 0.0000 51.478325 11.588772 38.284349
1604  1  1 0.0000 49.206452  9.408019 42.091921
1605  1  1 0.0000 52.201612  8.884306 40.887275
1606  1  1 0.0000 53.200290 10.826941 42.775478
1607  1  1 0.0000 58.678250  6.656787 41.105185
1608  1  1 0.0000 57.848669  6.745721 37.395846
1609  1  1 0.0000 55.757275  8.726213 38.836388
1610  1  1 0.0000 57.608044 11.378768 42.258816
1611  1  1 0.0000 56.396168  8.573028 41.640703
1612  1  1 0.0000 57.886702 10.923948 39.297581
1613  1  1 0.0000 59.585010  2.448398 36.760704
1614  1  1 0.0000 47.235047 14.279543 41.744405
1615  1  1 0.0000 51.663604 17.630723 36.893830
1616  1  1 0.0000 48.385747 14.697448 39.251568
1617  1  1 0.0000 50.867135 15.224637 40.821577
1618  1  1 0.0000 53.241451 16.160606 39.108984
1619  1  1 0.0000 53.055137 19.505933 40.706800
1620  1  1 0.0000 59.373918 13.338722 38.679696
1621  1  1 0.0000 55.246120 12.955204 42.006834
1622  1  1 0.0000 53.936708 13.316139 39.100919
1623  1  1 0.0000 57.411190 15.331410 37.669855
1624  1  1 0.0000 56.056917 16.767711 40.170366
1625  1  1 0.0000 55.462568 15.803412 42.992446
1626  1  1 0.0000 59.555025  1.075791 28.740798
1627  1  1 0.0000 50.467543 22.470160 38.721125
1628  1  1 0.0000 51.131143 21.508797 41.627758
1629  1  1 0.0000 52.911680 24.322158 38.828161
1630  1  1 0.0000 50.174449 24.001719 43.189702
1631  1  1 0.0000 59.463064 25.543149 39.759435
1632  1  1 0.0000 54.113662 24.451644 41.662977
1633  1  1 0.0000 55.862108 19.799488 39.993053
1634  1  1 0.0000 57.545296 22.106804 39.053183
1635  1  1 0.0000 57.048709 24.358347 41.071484
1636  1  1 0.0000 56.681342 20.482150 42.940054
1637  1  1 0.0000 30.028394  4.466009 45.374918
1638  1  1 0.0000 32.555492  2.603126 44.859049
1639  1  1 0.0000 33.648774  3.950596 47.194324
1640  1  1 0.0000 30.958014  5.408022 48.067012
1641  1  1 0.0000 34.524904  5.914108 44.794215
1642  1  1 0.0000 40.392796  0.101219 46.090348
1643  1  1 0.0000 41.386618  3.711043 43.233750
1644  1  1 0.0000 38.661767  4.329535 43.347684
1645  1  1 0.0000 36.444301  3.146848 48.354582
1646  1  1 0.0000 39.080745  4.064825 47.861822
1647  1  1 0.0000 37.909494  1.631981 44.943479
1648  1  1 0.0000 40.400134  5.507771 45.340156
1649  1  1 0.0000 42.047832  0.751798 43.687076
1650  1  1 0.0000 45.398474  5.494271 48.564392
1651  1  1 0.0000 44.499946  2.094353 44.953168
1652  1  1 0.0000 45.839009  4.709738 43.846738
1653  1  1 0.0000 47.290707  4.517081 46.390898
1654  1  1 0.0000 42.853787  1.734015 47.392169
1655  1  1 0.0000 45.234291  0.667983 49.032780
1656  1  1 0.0000 48.684427  1.889050 46.702907
1657  1  1 0.0000 51.315670  2.493794 45.186263
1658  1  1 0.0000 52.528121  4.606637 47.255833
1659  1  1 0.0000 49.872434  6.027403 46.873364
1660  1  1 0.0000 53.630679  1.256803 43.786119
1661  1  1 0.0000 58.545039  0.276186 45.581491
1662  1  1 0.0000 53.956622  6.079564 45.228136
1663  1  1 0.0000 58.600588  2.219936 48.851889
1664  1  1 0.0000 57.680443  3.188624 46.094756
1665  1  1 0.0000 55.376107  3.560101 44.218284
1666  1  1 0.0000 58.386861  6.170187 45.846071
1667  1  1 0.0000 59.479645 19.725598 39.105359
1668  1  1 0.0000 54.411402 22.270961 43.940311
1669  1  1 0.0000 42.737142  7.062082 48.876552
1670  1  1 0.0000 42.242673  8.003790 45.958082
1671  1  1 0.0000 45.389652  9.854368 43.639404
1672  1  1 0.0000 44.113589  7.255775 43.755765
1673  1  1 0.0000 46.842629 11.444304 45.637440
1674  1  1 0.0000 45.307631 12.464980 48.055710
1675  1  1 0.0000 51.053170  6.728856 44.260638
1676  1  1 0.0000 50.276799 11.364745 48.900546
1677  1  1 0.0000 49.717018  8.562139 48.660282
1678  1  1 0.0000 49.679936 11.347526 44.551906
1679  1  1 0.0000 51.869901  9.417321 45.204169
1680  1  1 0.0000 59.339987 12.063606 46.577088
1681  1  1 0.0000 57.265521  7.814630 48.368154
1682  1  1 0.0000 57.036784 10.092966 46.217173
1683  1  1 0.0000 56.155454  7.753990 44.517134
1684  1  1 0.0000 55.101021 12.459684 46.941127
1685  1  1 0.0000 46.497976 14.300725 44.617081
1686  1  1 0.0000 51.365502 13.246863 43.172425
1687  1  1 0.0000 50.081737 16.977442 43.131015
1688  1  1 0.0000 53.159715 17.694170 43.287419
1689  1  1 0.0000 49.178016 19.019216 48.441992
1690  1  1 0.0000 49.047599 15.562497 45.593017
1691  1  1 0.0000 51.911427 18.616796 47.413679
1692  1  1 0.0000 50.523855 14.043059 47.785584
1693  1  1 0.0000 52.943829 13.947758 45.671177
1694  1  1 0.0000 53.792421 16.183543 47.306636
1695  1  1 0.0000 58.718842 13.398297 44.161284
1696  1  1 0.0000 58.582297 17.324237 46.945149
1697  1  1 0.0000 57.484412 14.397173 46.656428
1698  1  1 0.0000 57.435120 17.622529 44.094210
1699  1  1 0.0000 59.339451 22.148656 43.032837
1700  1  1 0.0000 53.635778 19.758153 45.374027
1701  1  1 0.0000 53.684101 24.284386 46.284998
1702  1  1 0.0000 49.168325 19.881248 43.352320
1703  1  1 0.0000 51.308773 22.711301 47.672734
1704  1  1 0.0000 58.411824 24.841436 43.892754
1705  1  1 0.0000 55.781717 20.700878 47.411287
1706  1  1 0.0000 50.417583  2.542842 24.864618
1707  1  1 0.0000 36.828545  0.029742 33.109661
1708  1  1 0.0000 59.571266 35.161106  5.867853
1709  1  1 0.0000 51.012676 29.224118  0.890321
1710  1  1 0.0000 50.460718 30.094234  5.021190
1711  1  1 0.0000 50.716989 31.697483  2.573579
1712  1  1 0.0000 49.836293 26.979176  4.844430
1713  1  1 0.0000 52.941492 26.695680  1.404169
1714  1  1 0.0000 53.017037 30.540927  6.085236
1715  1  1 0.0000 58.501086 26.877897  2.959006
1716  1  1 0.0000 55.430536 27.829504  2.949616
1717  1  1 0.0000 56.195019 30.399106  1.464667
1718  1  1 0.0000 58.075747 31.061066  3.564674
1719  1  1 0.0000 55.753705 31.513589  5.664388
1720  1  1 0.0000 55.445533 27.153880  5.908159
1721  1  1 0.0000 58.406892 27.144745  5.955163
1722  1  1 0.0000 29.898691 46.269968 15.671990
1723  1  1 0.0000 48.597971 33.490052  1.177399
1724  1  1 0.0000 48.823276 35.657864  3.406469
1725  1  1 0.0000 52.395716 34.286525  3.004059
1726  1  1 0.0000 49.850248 38.290620  2.423027
1727  1  1 0.0000 52.872096 35.051720  0.311731
1728  1  1 0.0000 51.888997 35.675842  5.834985
1729  1  1 0.0000 53.481735 38.405269  6.119696
1730  1  1 0.0000 49.253097 34.775220  6.165539
1731  1  1 0.0000 55.319495 34.056253  4.043586
1732  1  1 0.0000 57.209017 34.511785  1.779595
1733  1  1 0.0000 55.371330 36.985580  1.333073
1734  1  1 0.0000 40.275955 42.994000  2.666050
1735  1  1 0.0000 41.549654 43.648780  5.454201
1736  1  1 0.0000 47.158646 39.090634  1.103116
1737  1  1 0.0000 44.707325 42.465762  2.288808
1738  1  1 0.0000 43.690842 45.035142  3.928751
1739  1  1 0.0000 47.564786 42.438109  3.244670
1740  1  1 0.0000 52.157527 38.949070  0.879310
1741  1  1 0.0000 49.178041 44.592730  4.430938
1742  1  1 0.0000 49.424831 40.221416  4.416247
1743  1  1 0.0000 52.858602 43.351508  2.159545
1744  1  1 0.0000 51.432545 42.528347  4.597034
1745  1  1 0.0000 48.121943 41.951909  0.430933
1746  1  1 0.0000 58.859677 39.112388  2.026418
1747  1  1 0.0000 54.211139 38.921415  3.180924
1748  1  1 0.0000 55.320237 41.579184  1.809774
1749  1  1 0.0000 57.749658 39.962032  4.698388
1750  1  1 0.0000 56.162904 44.561767  5.012279
1751  1  1 0.0000 57.970767 45.256427  2.803258
1752  1  1 0.0000 31.696384 49.120928  3.042427
1753  1  1 0.0000 34.244921 50.712380  3.147933
1754  1  1 0.0000 30.983736 46.186642  3.627890
1755  1  1 0.0000 34.107364 47.717129  0.231804
1756  1  1 0.0000 34.539590 50.743441 24.616217
1757  1  1 0.0000 36.409705 45.289561  3.808688
1758  1  1 0.0000 36.946742 51.262884  4.015509
1759  1  1 0.0000 38.399810 47.502293  2.890730
1760  1  1 0.0000 39.849528 47.964586  5.695479
1761  1  1 0.0000 40.853629 48.057397  1.644710
1762  1  1 0.0000 36.763638 49.204176  0.915006
1763  1  1 0.0000 41.410435 50.716048  0.625539
1764  1  1 0.0000 45.711231 51.451436  4.336444
1765  1  1 0.0000 43.431705 47.869805  3.177757
1766  1  1 0.0000 45.923848 48.064923  1.574241
1767  1  1 0.0000 47.646626 50.636712  1.994103
1768  1  1 0.0000 43.104940 47.967779  6.056671
1769  1  1 0.0000 48.479737 46.817800  2.525608
1770  1  1 0.0000 49.942410 49.279534  3.277413
1771  1  1 0.0000 52.411796 50.007968  1.822794
1772  1  1 0.0000 52.279324 47.701470  5.708584
1773  1  1 0.0000 49.584552 50.513066  6.074116
1774  1  1 0.0000 53.880917 46.008399  3.554204
1775  1  1 0.0000 56.224886 49.979951  5.255300
1776  1  1 0.0000 57.495976 48.246983  3.290203
1777  1  1 0.0000 54.900631 48.183942  1.656596
1778  1  1 0.0000 59.625483 29.439343  7.409593
1779  1  1 0.0000 52.062307 26.460523  9.864399
1780  1  1 0.0000 50.792840 30.553126 10.969697
1781  1  1 0.0000 49.061433 31.969899  6.824668
1782  1  1 0.0000 53.529308 31.083443 12.128092
1783  1  1 0.0000 53.695173 28.470446  8.189306
1784  1  1 0.0000 57.056240 27.484657 10.692732
1785  1  1 0.0000 55.622253 30.049829 10.331606
1786  1  1 0.0000 57.447810 31.484804  8.130227
1787  1  1 0.0000 52.636377 33.146480  7.546643
1788  1  1 0.0000 50.038603 32.759366  9.280103
1789  1  1 0.0000 49.912611 35.819660  9.768641
1790  1  1 0.0000 52.875453 36.593816  9.664441
1791  1  1 0.0000 48.914000 38.480329  8.985013
1792  1  1 0.0000 56.608773 35.577804  6.250283
1793  1  1 0.0000 54.948953 34.680768  8.700756
1794  1  1 0.0000 58.917159 33.483056 10.005900
1795  1  1 0.0000 56.431037 34.376361 11.405405
1796  1  1 0.0000 56.275608 38.616455  6.846876
1797  1  1 0.0000 40.929258 44.180949  8.684674
1798  1  1 0.0000 47.383899 39.594028  6.511376
1799  1  1 0.0000 42.924418 41.395037  6.739138
1800  1  1 0.0000 45.364508 39.387592 10.994570
1801  1  1 0.0000 45.008444 43.042737  8.186137
1802  1  1 0.0000 43.672185 44.357385 10.405252
1803  1  1 0.0000 47.964057 40.670135 10.356817
1804  1  1 0.0000 47.924428 42.283461  7.743417
1805  1  1 0.0000 51.891241 39.285694  8.350992
1806  1  1 0.0000 53.094005 43.988562  8.827083
1807  1  1 0.0000 50.079495 44.284710  8.243992
1808  1  1 0.0000 53.332175 41.367512 10.053059
1809  1  1 0.0000 49.515369 45.192012 11.048588
1810  1  1 0.0000 53.891285 50.100701 19.415807
1811  1  1 0.0000 54.153171 42.650727  6.286240
1812  1  1 0.0000 58.117258 39.155739  9.437260
1813  1  1 0.0000 55.704908 39.845203 11.127780
1814  1  1 0.0000 58.572583 43.017034 11.107702
1815  1  1 0.0000 31.158273 47.982373  7.532706
1816  1  1 0.0000 31.588210 49.864897  9.752400
1817  1  1 0.0000 33.037956 50.118988  7.296145
1818  1  1 0.0000 35.185752 47.575375 10.709011
1819  1  1 0.0000 33.848637 50.056659 11.668424
1820  1  1 0.0000 32.786425 46.082845 11.748243
1821  1  1 0.0000 35.556364 48.832975  7.928136
1822  1  1 0.0000 38.799909 50.711599  6.302937
1823  1  1 0.0000 39.293592 51.337198 10.903251
1824  1  1 0.0000 38.953616 46.458227  8.031207
1825  1  1 0.0000 36.211397 46.143122  6.856295
1826  1  1 0.0000 37.249050 51.195533  8.744757
1827  1  1 0.0000 40.401429 48.816125  9.417079
1828  1  1 0.0000 37.923956 46.230922 11.494783
1829  1  1 0.0000 41.141540 47.235723 11.581590
1830  1  1 0.0000 44.873979 45.630689  6.492332
1831  1  1 0.0000 46.959705 47.447024  7.822510
1832  1  1 0.0000 42.609019 50.276783  8.035845
1833  1  1 0.0000 45.346169 47.028905 10.346366
1834  1  1 0.0000 46.598842 50.356692  6.903845
1835  1  1 0.0000 44.331901 49.741442 10.461713
1836  1  1 0.0000 46.804219 51.364457  9.705694
1837  1  1 0.0000 53.463412 50.304807  6.400161
1838  1  1 0.0000 49.639828 46.656485  6.565759
1839  1  1 0.0000 49.604592 50.743462 10.616714
1840  1  1 0.0000 51.444501 49.840772  8.501111
1841  1  1 0.0000 49.348713 48.143818 12.140862
1842  1  1 0.0000 53.971374 46.873282  8.302040
1843  1  1 0.0000 57.270032 45.539970 10.259995
1844  1  1 0.0000 54.666610 49.611566  9.888314
1845  1  1 0.0000 56.953067 45.990846  7.391926
1846  1  1 0.0000 58.370662 47.883838 11.734149
1847  1  1 0.0000 59.218915 47.855310  7.316674
1848  1  1 0.0000 54.939187 45.333994 12.064098
1849  1  1 0.0000 56.403137 42.995203 24.523558
1850  1  1 0.0000 59.622520 27.276554 17.085727
1851  1  1 0.0000 50.720504 29.365514 15.304609
1852  1  1 0.0000 53.610686 29.523713 14.678244
1853  1  1 0.0000 54.798432 26.503460 14.680176
1854  1  1 0.0000 58.511732 28.943737 14.739155
1855  1  1 0.0000 56.225718 30.833262 15.446575
1856  1  1 0.0000 57.761321 26.420023 13.446408
1857  1  1 0.0000 57.015441 31.466993 18.444499
1858  1  1 0.0000 46.703341 38.543971 13.729086
1859  1  1 0.0000 49.639795 34.903953 12.436631
1860  1  1 0.0000 49.155669 37.166706 14.449891
1861  1  1 0.0000 52.071886 33.645282 13.387919
1862  1  1 0.0000 53.215098 36.434212 12.759217
1863  1  1 0.0000 50.476167 33.796143 16.042567
1864  1  1 0.0000 50.614222 36.588529 17.741797
1865  1  1 0.0000 52.512471 33.004670 17.953045
1866  1  1 0.0000 53.291348 37.876015 16.657358
1867  1  1 0.0000 51.792921 38.646640 14.186043
1868  1  1 0.0000 55.978571 37.215488 12.464325
1869  1  1 0.0000 59.127289 34.237516 14.340235
1870  1  1 0.0000 56.076333 33.644133 14.185912
1871  1  1 0.0000 54.498845 34.992907 16.474848
1872  1  1 0.0000 40.731075 42.935803 13.697433
1873  1  1 0.0000 36.748863 45.065512 17.301985
1874  1  1 0.0000 41.472223 45.156720 17.477117
1875  1  1 0.0000 44.810079 43.160237 12.952084
1876  1  1 0.0000 42.954343 41.055558 14.333549
1877  1  1 0.0000 43.870723 41.479435 17.104117
1878  1  1 0.0000 46.658986 40.340119 16.365284
1879  1  1 0.0000 46.364226 45.059945 14.979767
1880  1  1 0.0000 47.734261 42.875471 12.303957
1881  1  1 0.0000 51.990615 44.337735 12.595024
1882  1  1 0.0000 52.241040 41.314023 12.948379
1883  1  1 0.0000 49.041437 39.196799 17.904823
1884  1  1 0.0000 48.173646 42.762583 15.391254
1885  1  1 0.0000 50.536356 41.440885 16.648695
1886  1  1 0.0000 53.282831 41.961555 15.443902
1887  1  1 0.0000 58.217145 38.880086 13.996088
1888  1  1 0.0000 59.092916 39.255437 16.758736
1889  1  1 0.0000 54.366264 44.361711 16.906712
1890  1  1 0.0000 56.818567 41.568716 13.188616
1891  1  1 0.0000 56.454943 44.103314 14.586149
1892  1  1 0.0000 35.553849 51.391372 14.714139
1893  1  1 0.0000 31.762633 47.829712 13.906136
1894  1  1 0.0000 33.721750 48.989032 15.918721
1895  1  1 0.0000 33.170307 51.076592 17.832823
1896  1  1 0.0000 35.810257 47.132749 15.391546
1897  1  1 0.0000 38.377533 51.385581 13.884046
1898  1  1 0.0000 41.421781 51.427042 17.368037
1899  1  1 0.0000 38.139574 48.864335 15.383646
1900  1  1 0.0000 40.309942 46.910552 15.458569
1901  1  1 0.0000 39.191197 49.685208 18.186536
1902  1  1 0.0000 41.347436 43.992580  0.021590
1903  1  1 0.0000 42.180049 45.581492 13.591658
1904  1  1 0.0000 42.609507 49.010683 15.980770
1905  1  1 0.0000 42.438011 49.706719 12.913143
1906  1  1 0.0000 43.892103 46.346477 15.986442
1907  1  1 0.0000 46.584506 47.536507 13.130493
1908  1  1 0.0000 46.470820 49.844560 15.011284
1909  1  1 0.0000 46.692034 50.258625 17.967852
1910  1  1 0.0000 49.120782 51.364375 14.997355
1911  1  1 0.0000 49.730692 50.876319 17.854225
1912  1  1 0.0000 51.415550 46.860209 14.370180
1913  1  1 0.0000 51.726084 45.984126 17.224700
1914  1  1 0.0000 53.498167 49.190511 14.269366
1915  1  1 0.0000 55.562858 48.230415 12.416632
1916  1  1 0.0000 57.225645 50.962858 14.704500
1917  1  1 0.0000 58.581611 45.553371 15.757200
1918  1  1 0.0000 55.130267 49.929958 16.629821
1919  1  1 0.0000 57.479552 48.405070 16.007647
1920  1  1 0.0000 59.101311 48.591482 18.474031
1921  1  1 0.0000 58.814158 45.586700 18.761399
1922  1  1 0.0000 50.829221 25.956767 19.850640
1923  1  1 0.0000 49.671216 30.358547 21.042974
1924  1  1 0.0000 50.931685 27.985061 22.219786
1925  1  1 0.0000 52.505816 30.578853 21.860334
1926  1  1 0.0000 54.478601 27.622338 18.862609
1927  1  1 0.0000 57.296464 27.078951 19.047483
1928  1  1 0.0000 54.921237 30.395598 23.502226
1929  1  1 0.0000 55.190717 27.694142 21.981553
1930  1  1 0.0000 54.018413 30.492478 18.908477
1931  1  1 0.0000 58.521026 29.638844 20.258861
1932  1  1 0.0000 57.566840 26.287052 23.338463
1933  1  1 0.0000 56.361881 45.765520 20.740871
1934  1  1 0.0000 57.769643 48.422785 21.163143
1935  1  1 0.0000 56.094387 50.668264 21.339124
1936  1  1 0.0000 47.650656 36.621369 20.541993
1937  1  1 0.0000 53.364155 36.944131 24.124845
1938  1  1 0.0000 51.030943 34.555052 19.993188
1939  1  1 0.0000 50.351382 36.310713 22.040082
1940  1  1 0.0000 52.118549 34.366690 22.739755
1941  1  1 0.0000 54.498454 37.680945 21.336807
1942  1  1 0.0000 56.391276 34.358541 18.911156
1943  1  1 0.0000 56.924278 35.104493 23.436491
1944  1  1 0.0000 54.579130 34.680041 21.255423
1945  1  1 0.0000 57.175299 37.244159 19.975494
1946  1  1 0.0000 41.784795 42.321996 23.847657
1947  1  1 0.0000 42.098157 43.339579 20.955231
1948  1  1 0.0000 47.272953 44.474674 19.296467
1949  1  1 0.0000 46.363953 39.336581 20.238538
1950  1  1 0.0000 46.575356 42.141486 20.901984
1951  1  1 0.0000 44.558087 43.499391 19.134365
1952  1  1 0.0000 46.768872 41.498561 23.896833
1953  1  1 0.0000 49.982573 43.833273 18.439107
1954  1  1 0.0000 51.315005 43.236297 21.056026
1955  1  1 0.0000 52.106148 44.211460 23.830583
1956  1  1 0.0000 49.612789 39.903196 23.345222
1957  1  1 0.0000 50.454756 40.160276 20.420213
1958  1  1 0.0000 53.221117 39.598069 19.242267
1959  1  1 0.0000 52.296925 41.334935 24.095170
1960  1  1 0.0000 53.420793 45.166417 21.361954
1961  1  1 0.0000 57.968215 45.139077 23.117778
1962  1  1 0.0000 58.935666 41.328589 21.060063
1963  1  1 0.0000 58.576800 41.080099 24.055192
1964  1  1 0.0000 57.138411 40.050071 18.693866
1965  1  1 0.0000 54.460858 42.276382 22.163425
1966  1  1 0.0000 54.798899 42.008211 19.078551
1967  1  1 0.0000 39.347639 46.079887 24.620294
1968  1  1 0.0000 30.084191 49.767094 24.093906
1969  1  1 0.0000 31.251959 46.517785 20.935179
1970  1  1 0.0000 30.925974 49.512824 21.272064
1971  1  1 0.0000 33.833469 50.245069 21.800507
1972  1  1 0.0000 34.670094 46.642300 23.763086
1973  1  1 0.0000 37.408587 46.240795 19.955756
1974  1  1 0.0000 38.146989 50.583702 21.028154
1975  1  1 0.0000 36.244126 48.511905 21.749464
1976  1  1 0.0000 40.352378 47.228735 19.393881
1977  1  1 0.0000 41.158412 46.131848 21.995755
1978  1  1 0.0000 44.090795 50.078860 21.725086
1979  1  1 0.0000 46.959715 49.423351 20.671340
1980  1  1 0.0000 44.155612 46.970431 22.297319
1981  1  1 0.0000 46.863487 46.503134 21.239193
1982  1  1 0.0000 51.222092 47.331928 21.982941
1983  1  1 0.0000 48.609315 46.199677 23.644245
1984  1  1 0.0000 51.227035 48.417733 19.258407
1985  1  1 0.0000 52.459222 48.915058 24.398669
1986  1  1 0.0000 48.819374 50.829055 22.262372
1987  1  1 0.0000 49.336060 37.178129 24.616316
1988  1  1 0.0000 31.759625 49.589424  0.013364
1989  1  1 0.0000 51.619385 25.929431 45.053581
1990  1  1 0.0000 59.617802 40.259975 35.514110
1991  1  1 0.0000 52.806300 26.233671 29.299332
1992  1  1 0.0000 51.618026 30.154565 26.075752
1993  1  1 0.0000 50.197093 26.389865 27.705103
1994  1  1 0.0000 51.628518 27.253072 24.953975
1995  1  1 0.0000 49.815596 28.780812 30.929892
1996  1  1 0.0000 58.544848 30.373828 25.847394
1997  1  1 0.0000 54.334956 28.944876 29.033013
1998  1  1 0.0000 55.586761 29.129134 26.168057
1999  1  1 0.0000 56.581692 26.333617 26.193138
2000  1  1 0.0000 57.033936 27.791326 30.134872
2001  1  1 0.0000 59.342903 29.099672 28.534689
2002  1  1 0.0000 56.961044 32.089848 30.042774
2003  1  1 0.0000 46.507952 37.527224 25.571325
2004  1  1 0.0000 52.761736 32.399134 27.432126
2005  1  1 0.0000 49.703867 35.138746 26.904376
2006  1  1 0.0000 50.363643 35.304881 29.849110
2007  1  1 0.0000 51.062265 33.017249 25.227100
2008  1  1 0.0000 51.685997 32.789368 30.134909
2009  1  1 0.0000 56.726444 32.349558 24.767257
2010  1  1 0.0000 55.730522 32.616031 27.564063
2011  1  1 0.0000 57.374930 35.296138 27.560389
2012  1  1 0.0000 56.025434 37.123519 25.502357
2013  1  1 0.0000 58.554647 34.744711 30.383123
2014  1  1 0.0000 54.919738 36.739323 30.581502
2015  1  1 0.0000 59.409157 36.464574 26.136399
2016  1  1 0.0000 45.330511 41.952028 27.984151
2017  1  1 0.0000 42.885182 43.052770 26.443749
2018  1  1 0.0000 45.908748 44.291671 29.832942
2019  1  1 0.0000 46.619143 39.209363 30.435715
2020  1  1 0.0000 47.371599 39.996240 27.445420
2021  1  1 0.0000 32.929768 51.335276 34.835706
2022  1  1 0.0000 52.405743 38.916745 26.020951
2023  1  1 0.0000 50.543743 40.022752 27.975476
2024  1  1 0.0000 50.371543 42.863054 27.516048
2025  1  1 0.0000 49.034837 44.150102 29.824430
2026  1  1 0.0000 52.190831 40.594914 30.251184
2027  1  1 0.0000 48.229376 43.827998 25.569900
2028  1  1 0.0000 52.976652 44.639159 28.006871
2029  1  1 0.0000 54.228631 38.902671 28.554195
2030  1  1 0.0000 56.307429 39.887516 26.879228
2031  1  1 0.0000 55.404545 42.735418 27.242445
2032  1  1 0.0000 58.187364 43.151422 28.177286
2033  1  1 0.0000 59.268530 39.241773 27.469112
2034  1  1 0.0000 59.455617 39.430413 30.666596
2035  1  1 0.0000 31.307443 50.852864 27.838803
2036  1  1 0.0000 32.878224 48.139276 27.698691
2037  1  1 0.0000 31.915061 47.382580 24.885726
2038  1  1 0.0000 35.621893 49.285281 27.349836
2039  1  1 0.0000 37.816834 47.503305 28.333720
2040  1  1 0.0000 40.745133 47.753346 28.609056
2041  1  1 0.0000 37.488998 51.100600 28.876476
2042  1  1 0.0000 54.701870 26.038886 48.375480
2043  1  1 0.0000 41.810907 45.942955 26.404815
2044  1  1 0.0000 46.368726 51.212769 25.836263
2045  1  1 0.0000 42.373820 50.353495 28.816557
2046  1  1 0.0000 44.343112 46.984262 25.184662
2047  1  1 0.0000 46.521015 45.737150 27.237240
2048  1  1 0.0000 46.824112 49.437110 29.503856
2049  1  1 0.0000 43.890303 49.868137 26.333869
2050  1  1 0.0000 48.949984 49.507093 27.579091
2051  1  1 0.0000 49.299796 46.668506 27.962398
2052  1  1 0.0000 51.681020 46.437696 25.956765
2053  1  1 0.0000 53.267061 51.029964 28.971524
2054  1  1 0.0000 48.282539 49.078818 24.704095
2055  1  1 0.0000 57.093193 51.631161 27.113635
2056  1  1 0.0000 59.325524 45.519401 26.925154
2057  1  1 0.0000 59.170169 50.407928 25.043260
2058  1  1 0.0000 58.254554 48.930089 29.367814
2059  1  1 0.0000 55.503690 49.134270 28.352108
2060  1  1 0.0000 55.081273 48.018337 25.587761
2061  1  1 0.0000 58.035538 47.639409 24.945025
2062  1  1 0.0000 52.480331 30.071198 31.211193
2063  1  1 0.0000 50.981283 26.838184 34.366732
2064  1  1 0.0000 52.182209 29.797306 34.209892
2065  1  1 0.0000 52.901958 26.617669 36.746516
2066  1  1 0.0000 53.101474 26.022116 32.493810
2067  1  1 0.0000 53.610399 29.510625 36.943254
2068  1  1 0.0000 54.931770 27.120826 34.521152
2069  1  1 0.0000 57.544067 29.843337 32.069439
2070  1  1 0.0000 56.481454 29.899956 34.831944
2071  1  1 0.0000 58.895002 28.949156 36.534423
2072  1  1 0.0000 59.334789 26.150806 36.809172
2073  1  1 0.0000 46.946226 36.489575 35.805273
2074  1  1 0.0000 45.552735 38.619410 34.126691
2075  1  1 0.0000 51.202716 32.516924 34.973835
2076  1  1 0.0000 48.272362 36.806859 31.469236
2077  1  1 0.0000 52.264277 36.619775 31.946441
2078  1  1 0.0000 51.046299 37.100473 35.898161
2079  1  1 0.0000 49.190374 34.532126 35.673237
2080  1  1 0.0000 50.123278 38.209888 33.302965
2081  1  1 0.0000 53.250045 34.319616 33.601217
2082  1  1 0.0000 54.589165 33.789757 31.023666
2083  1  1 0.0000 54.194365 36.582128 35.435911
2084  1  1 0.0000 57.709914 37.172490 31.707011
2085  1  1 0.0000 58.517962 37.444757 34.519759
2086  1  1 0.0000 57.655433 34.945255 35.956539
2087  1  1 0.0000 55.748775 32.662130 36.453789
2088  1  1 0.0000 56.023085 38.585987 33.634590
2089  1  1 0.0000 37.627093 44.487827 34.192118
2090  1  1 0.0000 40.526390 44.857832 35.376829
2091  1  1 0.0000 42.257224 43.201803 33.704157
2092  1  1 0.0000 46.785851 41.068024 32.838569
2093  1  1 0.0000 45.121683 42.876923 34.604823
2094  1  1 0.0000 47.428312 45.035237 35.742488
2095  1  1 0.0000 51.290139 43.066759 31.648045
2096  1  1 0.0000 49.595936 41.228253 33.479669
2097  1  1 0.0000 53.089496 43.715824 35.585742
2098  1  1 0.0000 50.110968 40.990494 36.552986
2099  1  1 0.0000 53.057761 40.634139 35.827637
2100  1  1 0.0000 50.171636 44.867300 35.090918
2101  1  1 0.0000 53.383827 45.170340 31.158011
2102  1  1 0.0000 59.557809 44.960843 35.921877
2103  1  1 0.0000 53.876836 40.407956 32.928674
2104  1  1 0.0000 59.026092 43.751819 30.873072
2105  1  1 0.0000 58.806360 41.439659 32.738218
2106  1  1 0.0000 56.167649 41.567574 34.265549
2107  1  1 0.0000 57.770853 42.525396 36.487813
2108  1  1 0.0000 56.385392 45.138694 31.779991
2109  1  1 0.0000 33.658965 48.990448 31.624066
2110  1  1 0.0000 35.056826 49.328860 34.318742
2111  1  1 0.0000 30.574069 48.436297 32.049988
2112  1  1 0.0000 35.414542 46.469928 35.004685
2113  1  1 0.0000 29.949225 50.367952 34.319581
2114  1  1 0.0000 36.278370 47.568333 31.076229
2115  1  1 0.0000 40.520473 45.760672 31.137972
2116  1  1 0.0000 39.265573 50.526524 31.275484
2117  1  1 0.0000 38.795838 47.862790 32.633702
2118  1  1 0.0000 40.749187 47.748715 35.060923
2119  1  1 0.0000 44.246898 49.263173 30.926472
2120  1  1 0.0000 45.279488 45.495865 32.405971
2121  1  1 0.0000 42.858418 47.189995 32.742462
2122  1  1 0.0000 46.070099 49.905072 33.349932
2123  1  1 0.0000 45.170894 48.753435 36.231207
2124  1  1 0.0000 50.126219 51.539804 37.449250
2125  1  1 0.0000 48.282801 46.064331 33.223771
2126  1  1 0.0000 48.555104 48.698114 31.908891
2127  1  1 0.0000 50.382635 50.323192 33.563072
2128  1  1 0.0000 51.045859 47.915886 35.256636
2129  1  1 0.0000 53.394676 47.508457 33.140967
2130  1  1 0.0000 53.636208 50.364586 33.289809
2131  1  1 0.0000 59.604016 36.963073 47.954966
2132  1  1 0.0000 55.258400 45.545910 34.441545
2133  1  1 0.0000 59.141701 48.948811 35.682451
2134  1  1 0.0000 54.634421 50.479077 36.171288
2135  1  1 0.0000 57.998432 47.746211 31.845472
2136  1  1 0.0000 57.286328 46.877713 36.328726
2137  1  1 0.0000 58.035340 50.604749 31.714880
2138  1  1 0.0000 50.062765 30.569801 39.376140
2139  1  1 0.0000 56.368145 28.994022 38.389676
2140  1  1 0.0000 56.422491 28.350487 41.228250
2141  1  1 0.0000 59.065803 29.173109 42.153446
2142  1  1 0.0000 57.384523 31.887482 38.951556
2143  1  1 0.0000 47.310892 35.820573 40.363099
2144  1  1 0.0000 52.927848 32.289671 37.481989
2145  1  1 0.0000 52.435702 32.468481 40.428257
2146  1  1 0.0000 51.639489 37.139325 38.739922
2147  1  1 0.0000 51.907011 35.473061 41.041995
2148  1  1 0.0000 47.951480 38.660461 40.192551
2149  1  1 0.0000 59.087677 35.637845 38.533596
2150  1  1 0.0000 55.015966 35.608521 40.958724
2151  1  1 0.0000 54.638863 36.675038 38.261387
2152  1  1 0.0000 56.853969 33.330441 41.743766
2153  1  1 0.0000 56.295498 38.014038 42.435515
2154  1  1 0.0000 59.449040 34.824152 41.387720
2155  1  1 0.0000 40.884367 43.874752 38.249039
2156  1  1 0.0000 41.213037 44.796295 43.193324
2157  1  1 0.0000 45.348982 41.006662 36.976191
2158  1  1 0.0000 45.492517 42.238596 39.756926
2159  1  1 0.0000 43.750988 44.594397 39.356432
2160  1  1 0.0000 47.737573 39.171661 37.244374
2161  1  1 0.0000 52.771937 39.701241 40.221265
2162  1  1 0.0000 48.288961 42.892465 40.603094
2163  1  1 0.0000 50.331942 43.465094 38.575149
2164  1  1 0.0000 52.209709 44.058215 40.634470
2165  1  1 0.0000 50.122038 40.498663 41.212118
2166  1  1 0.0000 48.585710 44.721358 43.073571
2167  1  1 0.0000 53.763308 39.277603 43.082496
2168  1  1 0.0000 57.335179 40.762081 41.585745
2169  1  1 0.0000 54.788170 39.726442 38.087955
2170  1  1 0.0000 56.346009 42.082530 38.858743
2171  1  1 0.0000 54.935324 44.543972 39.802260
2172  1  1 0.0000 54.300578 44.072418 42.686095
2173  1  1 0.0000 31.938001 47.491711 37.030447
2174  1  1 0.0000 31.100623 51.255615 41.995635
2175  1  1 0.0000 34.535805 46.487386 37.827678
2176  1  1 0.0000 33.651998 49.866491 40.951893
2177  1  1 0.0000 30.610886 47.121540 41.870684
2178  1  1 0.0000 35.453216 47.726129 40.298714
2179  1  1 0.0000 30.155100 49.874932 37.193903
2180  1  1 0.0000 55.033356 46.780911 43.698805
2181  1  1 0.0000 36.256160 50.605552 40.184561
2182  1  1 0.0000 38.771428 45.996640 38.806959
2183  1  1 0.0000 39.497193 46.856304 41.624617
2184  1  1 0.0000 39.253129 48.623244 37.474009
2185  1  1 0.0000 40.358592 49.527410 40.397316
2186  1  1 0.0000 37.819598 51.176397 37.607253
2187  1  1 0.0000 36.877421 46.529733 42.921598
2188  1  1 0.0000 43.145934 50.763747 37.078514
2189  1  1 0.0000 42.744945 51.257296 40.932843
2190  1  1 0.0000 43.794699 46.114736 41.959426
2191  1  1 0.0000 45.676358 46.281606 37.751606
2192  1  1 0.0000 44.152328 49.301222 42.453365
2193  1  1 0.0000 47.552139 47.471112 39.909781
2194  1  1 0.0000 59.290493 47.516049 43.140699
2195  1  1 0.0000 47.763787 49.781672 37.874458
2196  1  1 0.0000 52.679774 45.405777 38.146279
2197  1  1 0.0000 52.659474 48.531753 37.723803
2198  1  1 0.0000 49.966720 46.282216 41.091620
2199  1  1 0.0000 51.576555 48.633908 41.745743
2200  1  1 0.0000 51.695789 50.707927 39.778946
2201  1  1 0.0000 56.531246 51.046838 40.996646
2202  1  1 0.0000 54.697177 48.543909 41.252077
2203  1  1 0.0000 56.325765 47.200453 39.240982
2204  1  1 0.0000 59.201229 47.111433 40.121374
2205  1  1 0.0000 36.251808 51.589369 48.253836
2206  1  1 0.0000 53.147039 32.051183 43.248121
2207  1  1 0.0000 51.865834 28.239865 43.081457
2208  1  1 0.0000 52.615505 30.008775 45.274630
2209  1  1 0.0000 51.853532 31.077327 47.951878
2210  1  1 0.0000 54.627548 27.099197 43.184573
2211  1  1 0.0000 58.406918 26.892400 46.314158
2212  1  1 0.0000 54.810955 28.149033 46.147079
2213  1  1 0.0000 56.951199 29.211348 47.769219
2214  1  1 0.0000 58.072486 31.550100 43.748652
2215  1  1 0.0000 58.577801 31.665502 46.741731
2216  1  1 0.0000 50.047830 32.736148 43.380331
2217  1  1 0.0000 50.810016 35.638116 43.791540
2218  1  1 0.0000 48.591625 33.387374 47.459906
2219  1  1 0.0000 51.414455 33.965931 47.346356
2220  1  1 0.0000 48.551683 37.347687 44.877817
2221  1  1 0.0000 53.280624 34.437432 45.001120
2222  1  1 0.0000 53.396119 38.197022 47.411497
2223  1  1 0.0000 56.819266 51.589101 37.922741
2224  1  1 0.0000 56.671672 33.607143 48.137717
2225  1  1 0.0000 55.529095 36.018873 46.435511
2226  1  1 0.0000 57.917249 37.353471 44.934851
2227  1  1 0.0000 57.171842 38.710769 48.779651
2228  1  1 0.0000 39.621858 44.031059 45.536731
2229  1  1 0.0000 37.829125 44.952522 47.643282
2230  1  1 0.0000 54.847779 50.678431 44.837794
2231  1  1 0.0000 46.743879 39.000641 43.095107
2232  1  1 0.0000 44.342292 43.434456 48.802670
2233  1  1 0.0000 45.705754 44.568178 43.733359
2234  1  1 0.0000 43.923516 41.131419 46.877752
2235  1  1 0.0000 45.875834 41.664706 44.585267
2236  1  1 0.0000 47.930917 38.818308 47.504191
2237  1  1 0.0000 50.647955 38.870747 46.718362
2238  1  1 0.0000 51.184640 44.151996 48.976962
2239  1  1 0.0000 48.152985 41.907321 46.822247
2240  1  1 0.0000 50.995516 41.212573 48.926403
2241  1  1 0.0000 52.452343 44.824060 46.488957
2242  1  1 0.0000 50.473104 42.952522 44.870787
2243  1  1 0.0000 51.004959 40.061436 44.084621
2244  1  1 0.0000 54.366869 32.176474 49.120211
2245  1  1 0.0000 58.782194 44.425795 43.156614
2246  1  1 0.0000 57.047380 44.953736 45.390412
2247  1  1 0.0000 59.262792 44.732800 47.336422
2248  1  1 0.0000 55.565390 41.632166 43.947823
2249  1  1 0.0000 55.199931 43.545960 47.450688
2250  1  1 0.0000 55.474228 40.567218 46.860367
2251  1  1 0.0000 56.963761 45.032984 49.176204
2252  1  1 0.0000 41.343339 50.530893 24.818251
2253  1  1 0.0000 30.337743 49.762791 46.700151
2254  1  1 0.0000 30.491321 47.130191 44.870063
2255  1  1 0.0000 34.451179 46.962297 44.395711
2256  1  1 0.0000 34.556470 49.848817 44.106562
2257  1  1 0.0000 32.132725 51.382484 44.880500
2258  1  1 0.0000 36.445420 47.467104 47.897036
2259  1  1 0.0000 36.920182 49.595464 45.966349
2260  1  1 0.0000 39.931853 48.690036 46.317022
2261  1  1 0.0000 41.441190 46.867548 48.277890
2262  1  1 0.0000 57.509680 49.976246 43.476350
2263  1  1 0.0000 46.925743 48.489266 42.980050
2264  1  1 0.0000 45.202238 46.824139 45.290046
2265  1  1 0.0000 46.205151 49.921225 47.460158
2266  1  1 0.0000 45.711570 46.169415 48.270129
2267  1  1 0.0000 42.651279 48.713799 44.903328
2268  1  1 0.0000 43.231091 49.194107 47.659986
2269  1  1 0.0000 53.432556 47.575393 45.952402
2270  1  1 0.0000 52.081305 50.172389 45.604821
2271  1  1 0.0000 48.715523 45.894544 48.993651
2272  1  1 0.0000 49.774906 48.932163 44.212879
2273  1  1 0.0000 51.056475 50.495856 48.364334
2274  1  1 0.0000 49.019386 48.409917 47.213670
2275  1  1 0.0000 55.767962 47.668639 48.054877
2276  1  1 0.0000 56.460526 50.413374 47.395076
2277  1  1 0.0000 44.442344 39.518340 24.635670
2278  1  2 0.0000 25.228823  9.265850  1.108495
2279  1  2 0.0000 27.837221  7.093638  0.967957
2280  1  2 0.0000 27.725080  7.178928  8.549596
2281  1  2 0.0000 28.655678  8.356558  4.506119
2282  1  2 0.0000 15.809863 13.209375  4.126807
2283  1  2 0.0000 19.577988 11.736856  2.237372
2284  1  2 0.0000 17.894395 11.821449  4.199012
2285  1  2 0.0000 18.469368 10.934662  6.817484
2286  1  2 0.0000 18.563990 13.871936  2.931263
2287  1  2 0.0000 16.500139 14.971313  2.495904
2288  1  2 0.0000 16.811516 12.991900  1.160241
2289  1  2 0.0000 17.361992 12.939238  7.775671
2290  1  2 0.0000 17.152170 15.551568  4.881972
2291  1  2 0.0000 20.126408 12.775041  4.709227
2292  1  2 0.0000 20.630153 10.768833  0.188839
2293  1  2 0.0000 20.963748  9.127069  2.623595
2294  1  2 0.0000 13.887521 15.654815  1.633231
2295  1  2 0.0000 19.069162 12.550035 48.986026
2296  1  2 0.0000 15.795459 15.761941 49.054588
2297  1  2 0.0000 18.563509 15.076442  0.843541
2298  1  2 0.0000 22.650773 10.677422  1.696914
2299  1  2 0.0000 23.440730  8.497239  2.825100
2300  1  2 0.0000 13.251196 16.759807  6.146117
2301  1  2 0.0000 11.587664 21.135047  3.604396
2302  1  2 0.0000 11.861951 20.580805  7.889520
2303  1  2 0.0000 14.548361 15.274033  4.151373
2304  1  2 0.0000 14.236537 18.486654  4.556930
2305  1  2 0.0000 14.245855 23.797339  1.776890
2306  1  2 0.0000 10.948722 23.700082  1.831179
2307  1  2 0.0000 11.406622 21.455896  1.007208
2308  1  2 0.0000 12.694076 21.985724  5.837097
2309  1  2 0.0000 12.397081 23.712582  3.775816
2310  1  2 0.0000 13.043226 25.858676  2.459732
2311  1  2 0.0000 11.035232 26.293715  0.907419
2312  1  2 0.0000 12.766237 26.915225  5.224261
2313  1  2 0.0000 13.241553 24.722632  6.279099
2314  1  2 0.0000 14.709523 24.822813  4.124942
2315  1  2 0.0000 12.479024 19.398155  1.981418
2316  1  2 0.0000 13.670020 20.092532 48.791186
2317  1  2 0.0000 14.055499 21.674765  3.650485
2318  1  2 0.0000 22.909644  9.975183  6.964405
2319  1  2 0.0000 24.499957  8.106480  6.538483
2320  1  2 0.0000 24.926280 10.512489  5.856842
2321  1  2 0.0000 25.077601  9.852219  8.406715
2322  1  2 0.0000 22.256932  9.146934  9.752049
2323  1  2 0.0000 23.701943  8.096144 15.289526
2324  1  2 0.0000 25.051298  7.779902 12.222566
2325  1  2 0.0000 28.936980  8.897685  7.055833
2326  1  2 0.0000 30.290840  7.369917  8.552724
2327  1  2 0.0000 19.179017 14.561563  6.832185
2328  1  2 0.0000 19.615708 13.360952  8.977710
2329  1  2 0.0000 17.919638 12.619280 12.937494
2330  1  2 0.0000 16.104352 16.764911 10.080858
2331  1  2 0.0000 15.455023 14.265086  9.810705
2332  1  2 0.0000 17.834997 15.175204  8.878031
2333  1  2 0.0000 17.368863 15.083135 11.290062
2334  1  2 0.0000 22.109090 10.486442 12.073284
2335  1  2 0.0000 20.094498  9.539287 11.086854
2336  1  2 0.0000 20.580148  9.821386  6.270197
2337  1  2 0.0000 22.019209 12.178932  6.025551
2338  1  2 0.0000 21.170526 11.477586  9.834430
2339  1  2 0.0000 13.600144 16.350059  8.725364
2340  1  2 0.0000 13.369750 17.592621 11.057292
2341  1  2 0.0000 12.634839 21.560027 11.680417
2342  1  2 0.0000 14.990885 15.072610  7.005946
2343  1  2 0.0000 15.922048 18.472220  6.468380
2344  1  2 0.0000 14.746927 18.572181  9.240300
2345  1  2 0.0000 11.582367 23.305407 10.031840
2346  1  2 0.0000 10.880135 26.230037  6.735919
2347  1  2 0.0000 14.150440 23.209149 10.416333
2348  1  2 0.0000 12.460559 23.989474 12.347241
2349  1  2 0.0000 13.188680 26.665600  7.835538
2350  1  2 0.0000 11.623751 25.812482  9.596252
2351  1  2 0.0000 11.564824 26.322739 12.793134
2352  1  2 0.0000 14.160884 25.765555 10.100305
2353  1  2 0.0000 26.927758  8.019677 14.142679
2354  1  2 0.0000 25.835912  9.234278 16.250015
2355  1  2 0.0000 24.277195  7.694074 17.747512
2356  1  2 0.0000 27.525655  7.374160 16.537312
2357  1  2 0.0000 26.281501  7.512390 19.469979
2358  1  2 0.0000 30.232880  8.280961 15.318012
2359  1  2 0.0000 28.259548  9.705499 15.664316
2360  1  2 0.0000 28.433938  8.723294 19.153889
2361  1  2 0.0000 15.287027 15.783498 18.120248
2362  1  2 0.0000 19.029802 12.019009 17.949483
2363  1  2 0.0000 16.627839 13.805531 14.566077
2364  1  2 0.0000 18.978649 12.520825 15.370865
2365  1  2 0.0000 16.730915 12.435097 18.966820
2366  1  2 0.0000 18.404185 14.382707 18.354975
2367  1  2 0.0000 13.857733 17.381542 15.679688
2368  1  2 0.0000 14.465102 16.733278 13.296502
2369  1  2 0.0000 15.001407 20.658550 12.242588
2370  1  2 0.0000 13.657941 19.874226 16.205667
2371  1  2 0.0000 12.919830 19.645315 13.351407
2372  1  2 0.0000 13.281726 16.880960 18.814850
2373  1  2 0.0000 11.487558 21.497152 16.098117
2374  1  2 0.0000 15.984806 16.039181 15.301118
2375  1  2 0.0000 15.482487 17.465809 20.175794
2376  1  2 0.0000 13.153523 21.631080 18.055144
2377  1  2 0.0000 11.966403 24.780229 14.723186
2378  1  2 0.0000 20.936614  9.306822 20.028404
2379  1  2 0.0000 24.059776  8.257314 20.360856
2380  1  2 0.0000 22.863141 10.120672 21.488539
2381  1  2 0.0000 27.291962  8.663586 21.563679
2382  1  2 0.0000 28.703353  7.897600 23.930917
2383  1  2 0.0000 23.596122 10.190895 16.978696
2384  1  2 0.0000 24.597490  8.686879 22.871224
2385  1  2 0.0000 26.461766 10.026235 19.394064
2386  1  2 0.0000 17.371586 11.564584 25.887472
2387  1  2 0.0000 18.139814 14.897531 22.451029
2388  1  2 0.0000 16.727742 14.813944 25.052593
2389  1  2 0.0000 16.912033 12.819545 23.369631
2390  1  2 0.0000 19.366733 11.531214 22.869079
2391  1  2 0.0000 20.971023 11.741389 20.841129
2392  1  2 0.0000 21.763880 12.049221 23.266239
2393  1  2 0.0000 15.042622 18.344585 17.743558
2394  1  2 0.0000 13.350860 19.011947 22.331667
2395  1  2 0.0000 15.207567 18.053397 23.949088
2396  1  2 0.0000 12.856181 18.439074 24.821325
2397  1  2 0.0000 11.733283 20.619068 25.731184
2398  1  2 0.0000 12.475499 22.037900 20.571391
2399  1  2 0.0000 12.743115 22.210168 23.927593
2400  1  2 0.0000 12.840099 24.370954 20.834308
2401  1  2 0.0000 12.329797 26.289555 23.703111
2402  1  2 0.0000 24.036937  8.092647 25.383844
2403  1  2 0.0000 23.428381 10.385058 24.249434
2404  1  2 0.0000 23.190013  8.499467 31.403164
2405  1  2 0.0000 27.487783  8.098435 28.571146
2406  1  2 0.0000 25.842846  9.295117 29.936985
2407  1  2 0.0000 31.087881  7.140564 24.680715
2408  1  2 0.0000 29.810701  8.620797 26.270906
2409  1  2 0.0000 29.902930  7.769454 28.720113
2410  1  2 0.0000 16.844645 12.230550 28.301004
2411  1  2 0.0000 19.089825 11.365668 27.818646
2412  1  2 0.0000 19.543720 10.673527 31.355676
2413  1  2 0.0000 18.248039 14.707775 29.973565
2414  1  2 0.0000 17.397749 11.669315 30.896046
2415  1  2 0.0000 21.440707 10.995692 27.384206
2416  1  2 0.0000 15.736698 16.703514 26.094543
2417  1  2 0.0000 13.136092 17.019978 26.948503
2418  1  2 0.0000 14.572357 20.301313 26.906778
2419  1  2 0.0000 12.241254 20.283512 28.186432
2420  1  2 0.0000 14.215354 17.477111 31.641590
2421  1  2 0.0000 13.475079 19.818198 31.190013
2422  1  2 0.0000 16.519274 15.146053 27.887460
2423  1  2 0.0000 14.600321 17.275027 29.100983
2424  1  2 0.0000 13.462414 22.366982 27.110625
2425  1  2 0.0000 12.347426 22.046148 30.856285
2426  1  2 0.0000 11.670320 26.236293 26.285274
2427  1  2 0.0000 13.399859 25.618558 28.437506
2428  1  2 0.0000 11.297518 24.229240 27.830342
2429  1  2 0.0000 11.992274 26.736376 30.281122
2430  1  2 0.0000 13.062731 24.397722 30.574972
2431  1  2 0.0000 28.460520  6.866356 35.488277
2432  1  2 0.0000 28.666454  8.816416 30.763310
2433  1  2 0.0000 24.972498  9.166104 33.105915
2434  1  2 0.0000 26.381149  8.237761 34.944011
2435  1  2 0.0000 19.448112 10.328588 35.801804
2436  1  2 0.0000 16.629776 14.161458 37.896145
2437  1  2 0.0000 21.424953  9.038378 35.293599
2438  1  2 0.0000 21.372894 10.827760 37.301953
2439  1  2 0.0000 23.114896  9.743950 28.799236
2440  1  2 0.0000 22.858834 10.507882 33.028044
2441  1  2 0.0000 21.428176 11.536392 34.791475
2442  1  2 0.0000 23.895728  8.398886 35.273628
2443  1  2 0.0000 13.784732 16.613540 34.722424
2444  1  2 0.0000 15.584665 15.135601 35.699954
2445  1  2 0.0000 14.964330 15.688378 38.224701
2446  1  2 0.0000 11.872326 19.791625 36.096317
2447  1  2 0.0000 14.546046 14.845211 33.102495
2448  1  2 0.0000 12.605285 19.237432 33.585743
2449  1  2 0.0000 13.122756 18.290978 37.613066
2450  1  2 0.0000 14.842682 19.160602 35.751938
2451  1  2 0.0000 14.329496 20.428672 37.908936
2452  1  2 0.0000 12.064479 20.397690 39.254109
2453  1  2 0.0000 18.609318 12.186577 33.107950
2454  1  2 0.0000 16.321611 16.201844 30.422199
2455  1  2 0.0000 16.309346 16.750926 33.771076
2456  1  2 0.0000 16.620355 13.645126 32.912506
2457  1  2 0.0000 11.696400 23.652539 32.809966
2458  1  2 0.0000 12.866441 23.789501 35.161724
2459  1  2 0.0000 12.299561 22.235012 37.481244
2460  1  2 0.0000 11.255590 23.081337 39.668400
2461  1  2 0.0000 11.951574 25.898702 34.001530
2462  1  2 0.0000 12.511519 26.355722 36.423056
2463  1  2 0.0000 27.002730  7.517442 37.399266
2464  1  2 0.0000 26.552517  8.764777 39.503648
2465  1  2 0.0000 30.867761  6.950975 42.368864
2466  1  2 0.0000 28.581822  7.786411 42.855640
2467  1  2 0.0000 14.190695 16.585111 42.595238
2468  1  2 0.0000 16.664844 13.983848 41.583749
2469  1  2 0.0000 22.398945  9.926316 39.585528
2470  1  2 0.0000 24.384834  8.698698 44.696052
2471  1  2 0.0000 23.645251  8.255939 42.338324
2472  1  2 0.0000 19.487432 10.473633 41.730134
2473  1  2 0.0000 23.734543 11.046618 37.753013
2474  1  2 0.0000 15.479091 16.935560 40.300736
2475  1  2 0.0000 14.291519 18.838752 41.548925
2476  1  2 0.0000 13.778521 22.328049 39.405785
2477  1  2 0.0000 14.763968 21.342987 41.501188
2478  1  2 0.0000 12.367336 20.267952 41.832923
2479  1  2 0.0000 11.222850 27.324151 42.567694
2480  1  2 0.0000 20.325213 10.753505 44.304429
2481  1  2 0.0000 21.435277  9.984045 46.538583
2482  1  2 0.0000 23.796441  9.000221 47.106252
2483  1  2 0.0000 26.449678  9.068292 46.211732
2484  1  2 0.0000 30.048696  6.946756 44.773111
2485  1  2 0.0000 17.724040 13.706864 44.819242
2486  1  2 0.0000 18.079304 11.340664 43.557017
2487  1  2 0.0000 13.631142 18.964839 46.421932
2488  1  2 0.0000 15.571263 17.620670 47.353120
2489  1  2 0.0000 14.669793 18.436422  1.045938
2490  1  2 0.0000 12.055971 20.877424 47.101275
2491  1  2 0.0000 14.545139 16.836594 45.149642
2492  1  2 0.0000 11.145225 22.341481 43.950468
2493  1  2 0.0000 11.949232 23.946668 45.671414
2494  1  2 0.0000 30.975047  7.046950 35.398848
2495  1  2 0.0000 29.867138  9.264265 35.214325
2496  1  2 0.0000 30.634077  8.511209 37.950080
2497  1  2 0.0000 11.753518 27.926631  3.124241
2498  1  2 0.0000 13.128707 31.641148  2.493372
2499  1  2 0.0000 12.649872 33.568524  4.174705
2500  1  2 0.0000 14.427903 33.939044  8.421506
2501  1  2 0.0000 12.483777 33.647340  6.875657
2502  1  2 0.0000 14.890653 36.199686  7.515250
2503  1  2 0.0000 15.335494 37.108515  2.537201
2504  1  2 0.0000 16.041755 34.823899  3.468295
2505  1  2 0.0000 15.423416 36.749561  5.171941
2506  1  2 0.0000 16.731057 39.312882  4.371069
2507  1  2 0.0000 18.483971 40.429846  5.834059
2508  1  2 0.0000 17.529435 39.220631 48.772921
2509  1  2 0.0000 21.751168 41.067376  4.736093
2510  1  2 0.0000 20.186440 41.429981  2.624812
2511  1  2 0.0000 19.173955 39.299581  3.630890
2512  1  2 0.0000 23.061720 41.854964  0.947045
2513  1  2 0.0000 24.235333 42.120104  3.178783
2514  1  2 0.0000 28.005071 44.406101  0.792178
2515  1  2 0.0000 27.327791 42.109974 49.204275
2516  1  2 0.0000 28.813045 42.287310  2.017662
2517  1  2 0.0000 31.662952 42.940222  0.634886
2518  1  2 0.0000 30.102519 42.650852 47.786527
2519  1  2 0.0000 25.473310 43.692274  4.582971
2520  1  2 0.0000 26.438981 42.849718  2.237127
2521  1  2 0.0000 30.444635 44.602867  5.011311
2522  1  2 0.0000 29.302280 43.795356  7.208170
2523  1  2 0.0000 28.056279 43.734586  4.470739
2524  1  2 0.0000 12.651243 29.556610  8.100994
2525  1  2 0.0000 13.108837 28.021460  9.960383
2526  1  2 0.0000 13.085433 29.765761 13.450634
2527  1  2 0.0000 12.410953 31.779727 11.954796
2528  1  2 0.0000 12.292174 33.044737  9.560631
2529  1  2 0.0000 14.211022 30.451966  9.934538
2530  1  2 0.0000 15.154752 32.364056 11.449135
2531  1  2 0.0000 12.951290 34.033915 14.302092
2532  1  2 0.0000 15.445989 35.537824 10.142941
2533  1  2 0.0000 15.704142 38.430842  9.683170
2534  1  2 0.0000 15.168970 37.745016 14.615299
2535  1  2 0.0000 18.759568 38.219432 11.074006
2536  1  2 0.0000 16.200397 36.419305 12.610402
2537  1  2 0.0000 17.683185 39.749584  9.369463
2538  1  2 0.0000 16.660466 39.493136 11.688653
2539  1  2 0.0000 18.520893 41.126253 11.093043
2540  1  2 0.0000 20.145468 41.942536 13.322039
2541  1  2 0.0000 18.985156 39.703536 13.459066
2542  1  2 0.0000 22.075055 42.738233  7.346607
2543  1  2 0.0000 21.357792 40.845780  9.168024
2544  1  2 0.0000 25.004146 42.778322  7.121175
2545  1  2 0.0000 22.694056 42.946093  9.867310
2546  1  2 0.0000 22.270649 43.094648 13.010103
2547  1  2 0.0000 25.705549 41.697035  9.475501
2548  1  2 0.0000 24.717257 43.163971 12.771286
2549  1  2 0.0000 26.714124 44.114126 11.786832
2550  1  2 0.0000 27.336322 43.999031  8.719770
2551  1  2 0.0000 26.440722 43.720264 15.118021
2552  1  2 0.0000 28.070628 42.675841 13.534620
2553  1  2 0.0000 12.887079 27.769320 15.113357
2554  1  2 0.0000 12.645117 30.974189 18.199215
2555  1  2 0.0000 13.721150 32.574586 16.394868
2556  1  2 0.0000 15.083336 34.566871 15.748527
2557  1  2 0.0000 14.012928 32.994957 18.907845
2558  1  2 0.0000 14.376331 35.458447 19.091877
2559  1  2 0.0000 15.104861 37.225956 17.323604
2560  1  2 0.0000 15.046322 32.757629 14.025642
2561  1  2 0.0000 13.823813 36.117633 13.223619
2562  1  2 0.0000 17.140340 36.188484 15.693557
2563  1  2 0.0000 17.686310 38.702155 15.415662
2564  1  2 0.0000 19.281632 40.468110 15.776736
2565  1  2 0.0000 23.745452 40.840943 13.169352
2566  1  2 0.0000 20.977374 40.083495 11.644165
2567  1  2 0.0000 23.487336 42.660944 15.080390
2568  1  2 0.0000 21.518502 41.504108 16.275886
2569  1  2 0.0000 21.317189 39.994922 14.330363
2570  1  2 0.0000 23.625801 41.648462 17.487473
2571  1  2 0.0000 28.921400 44.103126 15.471370
2572  1  2 0.0000 26.560180 43.017423 18.525400
2573  1  2 0.0000 27.782285 41.603189 15.785081
2574  1  2 0.0000 13.215085 27.956678 17.712186
2575  1  2 0.0000 14.033667 28.724147 20.196171
2576  1  2 0.0000 11.823156 27.398969 19.828938
2577  1  2 0.0000 11.686101 30.551216 20.528078
2578  1  2 0.0000 14.929386 29.922223 22.248415
2579  1  2 0.0000 12.303923 30.283742 23.421326
2580  1  2 0.0000 14.041788 32.350943 21.859788
2581  1  2 0.0000 12.514194 31.490897 25.825411
2582  1  2 0.0000 12.844739 34.345395 20.776011
2583  1  2 0.0000 16.956978 38.416217 19.678375
2584  1  2 0.0000 16.458227 37.481335 22.033564
2585  1  2 0.0000 22.081571 42.250483 25.347914
2586  1  2 0.0000 25.094585 41.970795 20.381809
2587  1  2 0.0000 22.776582 42.216417 21.403358
2588  1  2 0.0000 25.885469 42.674727 23.141085
2589  1  2 0.0000 24.344595 40.148447 22.019931
2590  1  2 0.0000 28.827175 44.227729 18.649498
2591  1  2 0.0000 28.446966 42.777542 21.336048
2592  1  2 0.0000 29.550498 42.365641  9.215478
2593  1  2 0.0000 29.252982 44.345364 11.932602
2594  1  2 0.0000 28.243827 41.975261 11.160936
2595  1  2 0.0000 32.433807 43.636037 12.266717
2596  1  2 0.0000 12.037022 27.916707 48.626686
2597  1  2 0.0000 12.822444 29.016981 25.734389
2598  1  2 0.0000 11.463185 29.179365 30.414119
2599  1  2 0.0000 24.381689 43.785965 48.614261
2600  1  2 0.0000 24.063102 43.796724 45.993253
2601  1  2 0.0000 25.912716 42.289311 47.025308
2602  1  2 0.0000 13.339223 32.660129 28.053653
2603  1  2 0.0000 13.687631 35.221163 25.511268
2604  1  2 0.0000 14.413924 34.624816 22.978156
2605  1  2 0.0000 14.496512 34.890675 28.544521
2606  1  2 0.0000 15.520088 36.448950 24.193383
2607  1  2 0.0000 15.108205 37.006716 27.416500
2608  1  2 0.0000 18.896532 37.317516 26.684203
2609  1  2 0.0000 17.926920 37.980547 28.846676
2610  1  2 0.0000 16.098446 37.809092 30.741497
2611  1  2 0.0000 16.697175 38.545209 26.194868
2612  1  2 0.0000 20.021825 40.593245 23.263086
2613  1  2 0.0000 21.714976 40.676511 28.876517
2614  1  2 0.0000 20.195197 38.717511 28.553066
2615  1  2 0.0000 19.431944 40.898466 29.915395
2616  1  2 0.0000 24.215324 43.415758 26.165078
2617  1  2 0.0000 24.255492 41.282531 29.044732
2618  1  2 0.0000 23.239961 40.420872 26.784681
2619  1  2 0.0000 23.383112 43.264314 32.808496
2620  1  2 0.0000 22.738715 43.299330 30.283241
2621  1  2 0.0000 27.514914 41.937884 25.020209
2622  1  2 0.0000 29.023175 43.680438 26.276224
2623  1  2 0.0000 26.581703 43.712200 26.715736
2624  1  2 0.0000 25.753629 42.803908 30.246128
2625  1  2 0.0000 25.955531 43.476373 32.803808
2626  1  2 0.0000 29.118085 43.788584 23.709806
2627  1  2 0.0000 13.296207 28.070774 34.534280
2628  1  2 0.0000 10.906146 27.917520 35.307247
2629  1  2 0.0000 12.477144 29.650899 32.791822
2630  1  2 0.0000 12.481756 30.422242 35.343595
2631  1  2 0.0000 12.171225 29.333837 38.303124
2632  1  2 0.0000 12.539728 32.872641 32.897037
2633  1  2 0.0000 14.994423 32.013248 35.749333
2634  1  2 0.0000 13.800558 33.100561 37.745576
2635  1  2 0.0000 12.410292 31.458688 30.849565
2636  1  2 0.0000 17.749534 37.225199 35.515228
2637  1  2 0.0000 15.458802 35.133143 34.734999
2638  1  2 0.0000 17.303386 37.697757 38.107320
2639  1  2 0.0000 15.054970 35.509966 37.261863
2640  1  2 0.0000 19.406348 41.312668 33.291215
2641  1  2 0.0000 17.687461 37.750393 33.090627
2642  1  2 0.0000 18.035484 39.660260 34.707185
2643  1  2 0.0000 19.961520 41.700184 36.517676
2644  1  2 0.0000 21.222096 42.571359 34.517202
2645  1  2 0.0000 22.729989 41.085253 31.601157
2646  1  2 0.0000 22.112501 39.456899 33.491778
2647  1  2 0.0000 24.489506 42.017704 34.641290
2648  1  2 0.0000 24.603343 42.539941 37.263051
2649  1  2 0.0000 28.030205 42.411284 35.212845
2650  1  2 0.0000 26.324113 43.768602 38.608965
2651  1  2 0.0000 12.054306 27.872778 40.202619
2652  1  2 0.0000 12.255212 29.526873 43.597127
2653  1  2 0.0000 13.016000 32.681185 42.533136
2654  1  2 0.0000 13.946535 27.821703 44.128182
2655  1  2 0.0000 12.053073 26.437303 45.201096
2656  1  2 0.0000 13.107935 34.779647 35.959238
2657  1  2 0.0000 15.212042 33.375377 41.180186
2658  1  2 0.0000 12.766852 33.837264 40.290773
2659  1  2 0.0000 14.014557 35.971995 41.742371
2660  1  2 0.0000 13.854731 31.498072 40.373800
2661  1  2 0.0000 12.974474 34.002765 45.159292
2662  1  2 0.0000 16.390577 34.782097 39.595501
2663  1  2 0.0000 15.318454 37.429423 39.891110
2664  1  2 0.0000 16.033814 36.934756 42.507761
2665  1  2 0.0000 19.673590 39.374397 37.601299
2666  1  2 0.0000 19.574924 41.407437 39.010605
2667  1  2 0.0000 21.106679 41.331795 43.663616
2668  1  2 0.0000 19.929716 40.908588 41.427159
2669  1  2 0.0000 21.301753 42.665962 40.087495
2670  1  2 0.0000 23.856189 42.447523 42.152769
2671  1  2 0.0000 26.064390 41.396449 41.969673
2672  1  2 0.0000 24.743012 41.847110 39.819503
2673  1  2 0.0000 27.577139 43.977049 40.806053
2674  1  2 0.0000 27.276675 44.579301 43.441258
2675  1  2 0.0000 28.877590 43.754649 38.558779
2676  1  2 0.0000 28.699752 43.392340 45.121122
2677  1  2 0.0000 12.616318 31.958710 46.723212
2678  1  2 0.0000 14.987614 32.438877 44.831916
2679  1  2 0.0000 14.420108 30.053329 45.197812
2680  1  2 0.0000 15.012533 31.566304 47.200950
2681  1  2 0.0000 13.452829 32.503618 49.041692
2682  1  2 0.0000 13.350652 34.893223 48.457406
2683  1  2 0.0000 15.089391 34.468890 46.479706
2684  1  2 0.0000 17.748944 35.359017 44.639884
2685  1  2 0.0000 16.234459 37.477836 45.333537
2686  1  2 0.0000 15.068166 34.782357 43.874174
2687  1  2 0.0000 17.736995 36.237826 47.041087
2688  1  2 0.0000 15.706465 35.880321 48.445784
2689  1  2 0.0000 19.528756 39.451948  0.931252
2690  1  2 0.0000 19.163593 40.808112 48.091186
2691  1  2 0.0000 18.618706 40.958678 43.695894
2692  1  2 0.0000 20.869500 41.269328 46.205600
2693  1  2 0.0000 23.252010 41.016233 45.029324
2694  1  2 0.0000 23.526707 41.778054 47.568631
2695  1  2 0.0000 30.931866  7.487088  4.606340
2696  1  2 0.0000 32.369593 10.085127  4.125304
2697  1  2 0.0000 34.593891  9.083641  4.865700
2698  1  2 0.0000 33.830112  7.428339  0.937711
2699  1  2 0.0000 34.349366 10.032400  2.562795
2700  1  2 0.0000 34.976944  9.764795  0.234453
2701  1  2 0.0000 36.669037  8.458188  3.395899
2702  1  2 0.0000 37.784434 10.690108 48.995030
2703  1  2 0.0000 39.914086 11.662374  4.719368
2704  1  2 0.0000 41.218135 12.193259  6.843880
2705  1  2 0.0000 41.472760 13.493315  4.583593
2706  1  2 0.0000 43.298420 12.858717  2.531701
2707  1  2 0.0000 41.775834 11.243735  0.373877
2708  1  2 0.0000 43.177248 12.352157 47.804916
2709  1  2 0.0000 41.500407 13.796417 49.130448
2710  1  2 0.0000 43.908257 13.976056  4.633617
2711  1  2 0.0000 44.753882 15.317442  2.666072
2712  1  2 0.0000 45.425944 15.168009  8.619964
2713  1  2 0.0000 45.256744 16.003506  5.124631
2714  1  2 0.0000 43.294964 15.652503  7.022798
2715  1  2 0.0000 46.988047 18.736815  6.430265
2716  1  2 0.0000 47.031216 18.474447 48.263746
2717  1  2 0.0000 47.029950 18.863311  3.626329
2718  1  2 0.0000 45.322533 17.705056  2.002982
2719  1  2 0.0000 47.549265 21.943199  0.772104
2720  1  2 0.0000 47.837727 22.673780  6.506115
2721  1  2 0.0000 47.841778 24.470190  1.240411
2722  1  2 0.0000 46.938695 23.097050  4.046068
2723  1  2 0.0000 48.414509 26.703007  3.351360
2724  1  2 0.0000 48.062536 26.248632  6.014486
2725  1  2 0.0000 31.762297  9.177105  7.786856
2726  1  2 0.0000 34.518171  7.931251 11.131244
2727  1  2 0.0000 32.572632  8.894732 12.538594
2728  1  2 0.0000 34.935216  9.810553 12.948482
2729  1  2 0.0000 37.293787  8.634315 11.524598
2730  1  2 0.0000 31.751230  8.673952 10.214452
2731  1  2 0.0000 36.734160  9.138066  5.972137
2732  1  2 0.0000 35.911141 10.312679  9.697356
2733  1  2 0.0000 38.210518 10.867766  7.251261
2734  1  2 0.0000 38.381766  9.947932  9.712655
2735  1  2 0.0000 40.470149 10.248163  8.196486
2736  1  2 0.0000 40.238981 10.697092 14.364245
2737  1  2 0.0000 41.334739 12.550051 12.921809
2738  1  2 0.0000 46.429060 17.557507 10.556083
2739  1  2 0.0000 45.573289 19.376662  8.520488
2740  1  2 0.0000 46.189766 18.431835 12.920026
2741  1  2 0.0000 44.575672 19.253521 11.020444
2742  1  2 0.0000 47.876866 21.590867 11.124617
2743  1  2 0.0000 46.694695 22.934827  9.310104
2744  1  2 0.0000 48.485957 27.326645  8.280435
2745  1  2 0.0000 48.553346 24.836384  8.018605
2746  1  2 0.0000 47.753932 24.156952 11.479301
2747  1  2 0.0000 47.645813 21.032591 13.717291
2748  1  2 0.0000 46.830772 22.406798 15.680159
2749  1  2 0.0000 32.199628  7.449120 17.516140
2750  1  2 0.0000 34.075520  7.662757 15.875249
2751  1  2 0.0000 33.376459  7.914930 19.844797
2752  1  2 0.0000 29.929492  8.784731 11.970795
2753  1  2 0.0000 30.111201  9.624266 17.459676
2754  1  2 0.0000 37.758524  9.090856 14.071596
2755  1  2 0.0000 36.271891  8.972519 16.190529
2756  1  2 0.0000 36.143852 11.095810 14.627895
2757  1  2 0.0000 36.829667 11.269441 12.147349
2758  1  2 0.0000 43.572027 12.794529 11.048380
2759  1  2 0.0000 42.581780 14.964982 15.611271
2760  1  2 0.0000 44.987738 14.972174 14.797570
2761  1  2 0.0000 40.340959 11.579012 16.873110
2762  1  2 0.0000 41.589700 12.838704 18.787829
2763  1  2 0.0000 39.439855 11.677283 19.287597
2764  1  2 0.0000 43.083601 14.832238 12.540547
2765  1  2 0.0000 44.214186 16.946758 11.759893
2766  1  2 0.0000 46.399746 17.686912 15.450107
2767  1  2 0.0000 44.621566 19.614399 15.632677
2768  1  2 0.0000 47.167328 19.948564 16.087166
2769  1  2 0.0000 44.549139 14.814717 17.409639
2770  1  2 0.0000 47.197996 27.056013 15.430455
2771  1  2 0.0000 48.471635 25.545680 20.519928
2772  1  2 0.0000 46.488744 25.259433 18.750644
2773  1  2 0.0000 47.663346 22.553827 20.573250
2774  1  2 0.0000 46.426454 22.905774 18.262265
2775  1  2 0.0000 30.877730  8.241263 19.426405
2776  1  2 0.0000 29.702700  8.887144 21.732637
2777  1  2 0.0000 32.276759  9.662301 21.167999
2778  1  2 0.0000 31.691064  7.283939 21.925908
2779  1  2 0.0000 38.477908  9.356931 18.840200
2780  1  2 0.0000 34.526926  9.344101 21.883265
2781  1  2 0.0000 35.226751  9.773987 24.377764
2782  1  2 0.0000 38.001839 10.728268 21.106795
2783  1  2 0.0000 39.283465  9.814371 26.627574
2784  1  2 0.0000 36.945654 11.041938 23.521554
2785  1  2 0.0000 39.857335  9.714090 23.598946
2786  1  2 0.0000 40.421572 12.137315 22.633121
2787  1  2 0.0000 44.156073 14.992684 20.029793
2788  1  2 0.0000 44.287059 13.635373 25.184097
2789  1  2 0.0000 45.705296 15.412280 24.167637
2790  1  2 0.0000 46.794620 18.372537 20.248687
2791  1  2 0.0000 46.636596 18.300882 22.748023
2792  1  2 0.0000 46.442107 20.637561 19.269075
2793  1  2 0.0000 45.757308 18.731030 17.856194
2794  1  2 0.0000 47.321109 22.962754 23.285019
2795  1  2 0.0000 32.978093  7.376968 26.313023
2796  1  2 0.0000 33.643481  7.542950 28.781295
2797  1  2 0.0000 33.843167  8.948703 31.875928
2798  1  2 0.0000 35.562334  9.622832 29.828680
2799  1  2 0.0000 37.824999  8.862421 28.513588
2800  1  2 0.0000 31.161098  9.593289 23.398436
2801  1  2 0.0000 32.431683 10.670424 25.488771
2802  1  2 0.0000 33.432681  8.012560 23.849790
2803  1  2 0.0000 34.021212  9.656432 27.165805
2804  1  2 0.0000 38.669889 12.256597 26.706043
2805  1  2 0.0000 36.536726 11.068404 26.163069
2806  1  2 0.0000 37.732972 10.086927 30.891929
2807  1  2 0.0000 37.217344 11.390080 28.719554
2808  1  2 0.0000 40.888695 11.322857 27.663809
2809  1  2 0.0000 42.669596 13.176310 27.260827
2810  1  2 0.0000 44.105569 13.624511 32.698166
2811  1  2 0.0000 43.228028 15.571647 26.456669
2812  1  2 0.0000 45.297685 15.762464 32.006586
2813  1  2 0.0000 43.897538 17.183135 29.366659
2814  1  2 0.0000 44.343213 14.318632 30.223646
2815  1  2 0.0000 46.967538 20.615986 28.772302
2816  1  2 0.0000 45.363952 18.409988 27.749240
2817  1  2 0.0000 45.853267 18.461741 30.399856
2818  1  2 0.0000 47.991118 22.858952 28.698071
2819  1  2 0.0000 46.386181 22.293716 30.774598
2820  1  2 0.0000 48.480000 24.986529 24.271277
2821  1  2 0.0000 48.371616 25.093514 27.623129
2822  1  2 0.0000 47.761228 23.199131 26.019079
2823  1  2 0.0000 31.712855  8.848664 33.505910
2824  1  2 0.0000 33.690346  7.418744 34.078731
2825  1  2 0.0000 34.354096 10.166248 34.791011
2826  1  2 0.0000 32.183655  9.564378 35.807131
2827  1  2 0.0000 34.026006  7.619933 36.770643
2828  1  2 0.0000 36.449187  9.665708 33.156040
2829  1  2 0.0000 35.858536  8.147018 35.092595
2830  1  2 0.0000 35.378252 10.089736 37.864874
2831  1  2 0.0000 36.700649 10.418369 35.703785
2832  1  2 0.0000 39.315127  9.906664 35.665604
2833  1  2 0.0000 38.796357 10.143556 33.157991
2834  1  2 0.0000 37.339498 11.427489 38.171780
2835  1  2 0.0000 37.581291  8.824710 37.485484
2836  1  2 0.0000 40.788725 11.203270 34.210038
2837  1  2 0.0000 40.919179 13.333434 29.182464
2838  1  2 0.0000 39.151640 12.618605 30.845031
2839  1  2 0.0000 41.628077 12.416198 31.474875
2840  1  2 0.0000 42.949072 15.190615 35.551196
2841  1  2 0.0000 41.283805 14.554560 33.674420
2842  1  2 0.0000 41.728453 12.985722 35.786470
2843  1  2 0.0000 45.362184 15.871225 34.502096
2844  1  2 0.0000 44.401251 14.185165 38.733049
2845  1  2 0.0000 42.729524 15.731541 31.919105
2846  1  2 0.0000 44.494811 18.789424 32.690696
2847  1  2 0.0000 45.476823 19.118544 35.057519
2848  1  2 0.0000 43.470645 17.465535 34.569471
2849  1  2 0.0000 46.640264 17.571869 32.879227
2850  1  2 0.0000 47.175628 19.501327 37.055476
2851  1  2 0.0000 46.767912 18.427699 39.513124
2852  1  2 0.0000 44.414357 16.868001 36.768418
2853  1  2 0.0000 46.442760 20.155973 32.125577
2854  1  2 0.0000 48.298557 21.821074 33.828653
2855  1  2 0.0000 45.885850 22.362937 33.428389
2856  1  2 0.0000 46.837426 22.767387 35.892884
2857  1  2 0.0000 33.332392 10.684606 39.350012
2858  1  2 0.0000 33.351066  8.077771 39.380421
2859  1  2 0.0000 34.805828  9.451633 40.877166
2860  1  2 0.0000 33.144290  7.290930 43.737841
2861  1  2 0.0000 32.506906  9.099567 41.641354
2862  1  2 0.0000 34.992586  8.158229 45.261437
2863  1  2 0.0000 37.260101  8.495789 41.593305
2864  1  2 0.0000 38.810130  9.966934 40.334099
2865  1  2 0.0000 40.825528 11.702227 39.438737
2866  1  2 0.0000 41.846440 13.777133 38.559259
2867  1  2 0.0000 40.101457 13.827422 40.578371
2868  1  2 0.0000 41.049245 12.564918 42.643123
2869  1  2 0.0000 44.977435 14.390782 41.431942
2870  1  2 0.0000 42.603247 14.936850 40.592493
2871  1  2 0.0000 43.038117 13.813049 42.791197
2872  1  2 0.0000 44.697000 17.151783 39.339234
2873  1  2 0.0000 44.335508 15.524952 45.011432
2874  1  2 0.0000 45.535768 17.839880 41.757676
2875  1  2 0.0000 43.563712 16.439186 42.345513
2876  1  2 0.0000 46.969675 20.985189 39.366419
2877  1  2 0.0000 46.621040 24.921754 37.382071
2878  1  2 0.0000 45.604915 22.846991 38.209983
2879  1  2 0.0000 47.986487 23.127957 38.902512
2880  1  2 0.0000 47.390184 25.517310 39.933451
2881  1  2 0.0000 46.962584 20.983888 42.877854
2882  1  2 0.0000 47.884925 23.571458 43.943600
2883  1  2 0.0000 48.712008 25.222486 42.195585
2884  1  2 0.0000 46.016743 25.234284 42.115501
2885  1  2 0.0000 48.063161 24.625379 46.264277
2886  1  2 0.0000 45.819035 24.607224 45.147161
2887  1  2 0.0000 31.006352  7.844575 47.494931
2888  1  2 0.0000 35.071344  7.822442 47.897376
2889  1  2 0.0000 28.967903  9.277431 46.536330
2890  1  2 0.0000 29.950493  8.683710  1.537179
2891  1  2 0.0000 30.026932  9.991161 48.671407
2892  1  2 0.0000 33.001538  9.773443 43.927267
2893  1  2 0.0000 33.915443 10.008829 46.766060
2894  1  2 0.0000 40.641280 11.931109 47.540752
2895  1  2 0.0000 38.880501 10.421547 46.562237
2896  1  2 0.0000 44.618406 14.574379 47.564531
2897  1  2 0.0000 42.887213 16.435925 47.237279
2898  1  2 0.0000 42.266045 14.233994 45.898414
2899  1  2 0.0000 44.446688 16.216492  0.249379
2900  1  2 0.0000 44.480520 18.241522 44.060417
2901  1  2 0.0000 45.305057 17.030041 47.267100
2902  1  2 0.0000 45.742381 19.199473 46.088068
2903  1  2 0.0000 48.133398 20.698007 47.654805
2904  1  2 0.0000 45.921795 20.062426  1.555539
2905  1  2 0.0000 45.497738 21.415232 48.584688
2906  1  2 0.0000 47.032731 22.398739 46.054267
2907  1  2 0.0000 44.907808 20.674711 44.280918
2908  1  2 0.0000 48.574716 28.621883  1.470253
2909  1  2 0.0000 46.403353 28.390291  3.154428
2910  1  2 0.0000 45.989650 30.737916  3.746627
2911  1  2 0.0000 46.804492 31.829399  6.011894
2912  1  2 0.0000 46.240637 32.618136  1.435882
2913  1  2 0.0000 31.527097 42.097629 14.179693
2914  1  2 0.0000 31.056051 42.979819 18.629716
2915  1  2 0.0000 45.848414 29.826958  1.180392
2916  1  2 0.0000 45.309153 34.851184  0.926835
2917  1  2 0.0000 46.224308 33.164406 46.830779
2918  1  2 0.0000 45.170257 33.788052  3.295198
2919  1  2 0.0000 47.936255 31.512922 47.613913
2920  1  2 0.0000 44.971952 34.726956  5.797845
2921  1  2 0.0000 44.199118 36.056729  3.713900
2922  1  2 0.0000 45.330453 33.182902  8.070704
2923  1  2 0.0000 38.065477 38.913369  1.722515
2924  1  2 0.0000 37.321068 40.473581  3.988512
2925  1  2 0.0000 38.289036 42.196458  2.314936
2926  1  2 0.0000 36.486330 42.840496  3.907346
2927  1  2 0.0000 40.106596 40.690969  2.350384
2928  1  2 0.0000 38.471919 40.896797  7.154121
2929  1  2 0.0000 39.777088 39.219177  5.734224
2930  1  2 0.0000 40.973691 40.412099  7.591846
2931  1  2 0.0000 42.601480 38.068961  0.894496
2932  1  2 0.0000 44.511580 36.878532 48.594075
2933  1  2 0.0000 42.958514 38.203855  3.392045
2934  1  2 0.0000 32.162325 44.438953  3.352825
2935  1  2 0.0000 33.150107 42.262462  2.591893
2936  1  2 0.0000 31.553171 42.839081  6.526153
2937  1  2 0.0000 33.533068 43.123144  5.096961
2938  1  2 0.0000 32.170302 44.107288 47.631642
2939  1  2 0.0000 35.863536 41.266571  1.959100
2940  1  2 0.0000 34.777473 44.196322  7.325421
2941  1  2 0.0000 47.241458 27.864498 10.509044
2942  1  2 0.0000 47.263730 28.541134 12.986864
2943  1  2 0.0000 47.134523 31.106288 12.612108
2944  1  2 0.0000 45.164727 29.804220  6.066117
2945  1  2 0.0000 45.510704 30.636467  8.448680
2946  1  2 0.0000 46.056709 32.248128 10.477548
2947  1  2 0.0000 41.115776 40.523428 10.769056
2948  1  2 0.0000 43.527398 37.775173  8.052082
2949  1  2 0.0000 42.645253 39.233699  6.147099
2950  1  2 0.0000 42.693379 35.941682  9.900320
2951  1  2 0.0000 42.412566 36.570659 12.676843
2952  1  2 0.0000 43.163852 39.177598 10.934243
2953  1  2 0.0000 42.438307 38.775378 14.152571
2954  1  2 0.0000 44.791671 37.386833 10.255682
2955  1  2 0.0000 34.974031 42.891271  9.549692
2956  1  2 0.0000 35.319424 43.420511 12.192559
2957  1  2 0.0000 33.927992 42.824556 14.153446
2958  1  2 0.0000 36.103337 42.032205  7.289382
2959  1  2 0.0000 47.355063 28.195231 17.815324
2960  1  2 0.0000 47.476188 30.607902 17.531766
2961  1  2 0.0000 46.208957 29.303040 15.841849
2962  1  2 0.0000 44.975618 36.504186 17.042607
2963  1  2 0.0000 45.327850 36.680876 14.523044
2964  1  2 0.0000 45.943408 34.454057 15.861644
2965  1  2 0.0000 46.895823 33.098115 17.875506
2966  1  2 0.0000 38.589341 40.378880 10.903716
2967  1  2 0.0000 39.023558 42.207183 14.792102
2968  1  2 0.0000 36.538264 42.701199 14.383151
2969  1  2 0.0000 40.877467 40.723691 13.865410
2970  1  2 0.0000 35.079426 43.341099 16.902402
2971  1  2 0.0000 34.772301 40.874380 16.014703
2972  1  2 0.0000 36.371689 42.121888 20.512970
2973  1  2 0.0000 34.726910 41.446772 18.612306
2974  1  2 0.0000 37.486841 43.146888 16.734586
2975  1  2 0.0000 37.135157 40.687613 16.032505
2976  1  2 0.0000 40.909526 38.335318 12.240036
2977  1  2 0.0000 39.579581 38.798199 16.672529
2978  1  2 0.0000 40.425484 37.199672 14.544300
2979  1  2 0.0000 42.458884 39.996147 18.324057
2980  1  2 0.0000 42.660131 37.495069 18.028347
2981  1  2 0.0000 39.865930 41.824235 45.963648
2982  1  2 0.0000 41.727573 40.474035 46.933731
2983  1  2 0.0000 46.339442 27.042120 20.594404
2984  1  2 0.0000 45.755598 28.893921 22.447360
2985  1  2 0.0000 46.423385 32.891907 20.592119
2986  1  2 0.0000 46.785976 32.534938 23.278033
2987  1  2 0.0000 47.401714 30.816051 21.309758
2988  1  2 0.0000 47.210205 26.772788 22.881244
2989  1  2 0.0000 45.751392 35.830703 21.644490
2990  1  2 0.0000 43.867578 34.232199 20.909961
2991  1  2 0.0000 43.313291 36.460244 22.001024
2992  1  2 0.0000 38.298830 39.038435 23.339733
2993  1  2 0.0000 40.348565 38.396375 22.093304
2994  1  2 0.0000 40.665302 39.936705 24.173916
2995  1  2 0.0000 37.629217 41.262947 24.406155
2996  1  2 0.0000 38.282213 42.173130 22.184110
2997  1  2 0.0000 42.979826 38.689352 23.243544
2998  1  2 0.0000 42.925097 38.932222 26.046924
2999  1  2 0.0000 42.383276 38.374149 20.518335
3000  1  2 0.0000 30.358215 44.390477 21.550664
3001  1  2 0.0000 34.058336 43.214762 20.387114
3002  1  2 0.0000 32.629329 43.026986 22.583528
3003  1  2 0.0000 33.740054 42.833845 25.667255
3004  1  2 0.0000 47.252831 26.980718 46.280932
3005  1  2 0.0000 48.333008 27.561389 28.030224
3006  1  2 0.0000 47.167644 29.541469 27.318756
3007  1  2 0.0000 48.719540 24.682404 30.853921
3008  1  2 0.0000 46.501211 25.674705 29.714923
3009  1  2 0.0000 47.381590 26.982339 25.348852
3010  1  2 0.0000 45.586117 26.593427 27.357395
3011  1  2 0.0000 48.392989 27.199772 30.779868
3012  1  2 0.0000 48.340209 29.492127 29.619304
3013  1  2 0.0000 48.436035 26.584818 34.243880
3014  1  2 0.0000 46.911397 25.808907 32.264738
3015  1  2 0.0000 48.180788 29.292751 32.209427
3016  1  2 0.0000 46.299295 31.103153 32.078041
3017  1  2 0.0000 45.569292 28.758628 31.809455
3018  1  2 0.0000 44.351792 34.716647 23.510737
3019  1  2 0.0000 45.502730 36.146988 28.927040
3020  1  2 0.0000 45.408302 35.637410 26.424556
3021  1  2 0.0000 44.503824 37.509540 24.777066
3022  1  2 0.0000 43.272912 37.334421 28.115182
3023  1  2 0.0000 46.509487 31.454776 25.776942
3024  1  2 0.0000 41.414624 38.985688 28.231419
3025  1  2 0.0000 44.376863 37.884140 30.380513
3026  1  2 0.0000 43.879414 37.902955 32.827929
3027  1  2 0.0000 46.181971 35.447090 32.003720
3028  1  2 0.0000 47.768187 24.172149 34.074005
3029  1  2 0.0000 48.550115 26.689316 37.898066
3030  1  2 0.0000 47.786867 28.761865 36.267917
3031  1  2 0.0000 42.674668 35.873778 35.187841
3032  1  2 0.0000 43.763397 35.186751 32.984505
3033  1  2 0.0000 45.322940 35.397886 39.232961
3034  1  2 0.0000 45.047860 35.213508 36.693755
3035  1  2 0.0000 43.786686 38.153375 35.331895
3036  1  2 0.0000 43.471534 36.776661 37.583538
3037  1  2 0.0000 47.206208 31.226575 36.109755
3038  1  2 0.0000 34.712038 42.649479 31.869925
3039  1  2 0.0000 37.215877 41.649210 37.402441
3040  1  2 0.0000 36.656504 42.354009 34.915351
3041  1  2 0.0000 37.499291 43.216721 32.647734
3042  1  2 0.0000 39.087284 41.471497 32.762635
3043  1  2 0.0000 38.460145 40.717779 35.343075
3044  1  2 0.0000 40.989666 41.142835 34.462765
3045  1  2 0.0000 39.570322 39.160351 33.654219
3046  1  2 0.0000 40.386765 39.684826 31.322928
3047  1  2 0.0000 33.371091 44.306096 38.254677
3048  1  2 0.0000 32.435944 43.112808 35.224203
3049  1  2 0.0000 46.761773 28.218894 38.520870
3050  1  2 0.0000 48.232255 29.735811 40.596684
3051  1  2 0.0000 46.363705 31.465879 40.463526
3052  1  2 0.0000 46.197241 32.670003 42.557585
3053  1  2 0.0000 43.731108 36.749496 41.239364
3054  1  2 0.0000 45.803627 35.575962 41.821569
3055  1  2 0.0000 39.652885 41.866353 38.972494
3056  1  2 0.0000 41.456935 40.173836 38.708390
3057  1  2 0.0000 40.787355 40.670216 41.111879
3058  1  2 0.0000 37.826383 42.965832 44.628335
3059  1  2 0.0000 29.613398 44.216238 36.161454
3060  1  2 0.0000 31.033034 42.962743 38.025301
3061  1  2 0.0000 33.880275 43.987513 40.693211
3062  1  2 0.0000 35.136185 42.706277 38.557875
3063  1  2 0.0000 32.376134 43.040804 42.506762
3064  1  2 0.0000 35.158812 42.905552 44.418788
3065  1  2 0.0000 47.562345 27.371942 41.534487
3066  1  2 0.0000 47.752016 29.337101 43.127863
3067  1  2 0.0000 45.844031 30.904890 44.350032
3068  1  2 0.0000 44.325164 34.471668 47.931769
3069  1  2 0.0000 44.856494 37.349877 43.392626
3070  1  2 0.0000 36.849084 40.501297 45.966110
3071  1  2 0.0000 36.546751 42.879819 47.038937
3072  1  2 0.0000 36.272258 40.867963 48.572486
3073  1  2 0.0000 41.215758 37.539816 45.285935
3074  1  2 0.0000 41.540859 37.447520 47.942367
3075  1  2 0.0000 43.400756 37.075330 46.334488
3076  1  2 0.0000 32.879224 42.809057 45.560273
3077  1  3 0.0000  2.850268  1.601734  3.155241
3078  1  3 0.0000  3.669045  4.255383  3.385389
3079  1  3 0.0000  3.257581  5.386412  5.737632
3080  1  3 0.0000  2.157030  3.117637  5.089204
3081  1  3 0.0000  1.183495  3.595630  2.673990
3082  1  3 0.0000  1.634194  0.726096  0.927675
3083  1  3 0.0000  5.348106  0.648084  5.091745
3084  1  3 0.0000  1.732099  4.994856  0.489816
3085  1  3 0.0000  5.889143  1.411520  2.546963
3086  1  3 0.0000 13.202492 25.761732 10.100305
3087  1  3 0.0000  2.352914  6.468973  3.550837
3088  1  3 0.0000  6.567694  3.948480  1.101934
3089  1  3 0.0000  6.981449  2.726734  4.625235
3090  1  3 0.0000  7.160846  5.132208  3.300298
3091  1  3 0.0000  9.146010  4.090338  4.506781
3092  1  3 0.0000  9.359374  2.000982  3.073424
3093  1  3 0.0000 11.241802  4.106617  3.064772
3094  1  3 0.0000 11.146571  2.254417  4.886865
3095  1  3 0.0000  8.874438  5.040474  1.428899
3096  1  3 0.0000  7.632387  1.138662  0.470893
3097  1  3 0.0000  7.725854  0.227481  4.009860
3098  1  3 0.0000 10.323294  1.470176  0.374382
3099  1  3 0.0000  6.987833  4.871181  5.901555
3100  1  3 0.0000  6.643256  6.428789  0.947375
3101  1  3 0.0000 10.881256  6.583795  0.801549
3102  1  3 0.0000 17.578431  0.557970  2.699270
3103  1  3 0.0000 12.507295  5.676669  4.712307
3104  1  3 0.0000 13.810699  3.805084  3.324310
3105  1  3 0.0000 16.794665  5.161196  2.844338
3106  1  3 0.0000 15.912901  2.863513  2.254282
3107  1  3 0.0000 13.848080  1.224605  2.795785
3108  1  3 0.0000 13.679555  3.021552  0.883985
3109  1  3 0.0000 12.862543  5.978664  2.231042
3110  1  3 0.0000 17.269591  4.245892  0.336308
3111  1  3 0.0000 17.816128  1.439527  5.106329
3112  1  3 0.0000 17.708268  5.361077  5.389241
3113  1  3 0.0000 18.559484  3.328120  2.373163
3114  1  3 0.0000 20.458668  4.009622  4.041487
3115  1  3 0.0000 22.944198  4.038460  3.543589
3116  1  3 0.0000 23.407869  4.068829  0.901128
3117  1  3 0.0000 21.165996  3.009511  1.916943
3118  1  3 0.0000 22.231140  5.706692  5.473877
3119  1  3 0.0000 19.854454  1.413979  3.576968
3120  1  3 0.0000 23.550277  1.825034  2.120291
3121  1  3 0.0000 20.582970  6.065617  1.246421
3122  1  3 0.0000 21.944907  3.146903  5.872048
3123  1  3 0.0000 19.041749  6.405934  3.484810
3124  1  3 0.0000 28.556228  0.130836  4.130265
3125  1  3 0.0000 26.493738  3.863206  1.725256
3126  1  3 0.0000 28.609379  2.549317  2.343193
3127  1  3 0.0000 26.354378  1.357689  2.932169
3128  1  3 0.0000 27.018302  3.495908  4.285629
3129  1  3 0.0000 24.784060  0.902194  4.964065
3130  1  3 0.0000 28.957649  4.917029  5.263681
3131  1  3 0.0000 25.453300  6.177170  2.273731
3132  1  3 0.0000 27.736168  6.140581  0.967957
3133  1  3 0.0000 28.770913  2.395511  5.730400
3134  1  3 0.0000 29.437174  5.530881  2.792517
3135  1  3 0.0000 10.665351 25.811663  9.596252
3136  1  3 0.0000  4.762048  6.607790  4.268139
3137  1  3 0.0000  3.588449  7.489852  1.505976
3138  1  3 0.0000  2.903708 11.046576  5.142347
3139  1  3 0.0000  4.077692  8.660734  5.671948
3140  1  3 0.0000  2.573882  9.029823  3.509450
3141  1  3 0.0000  1.001375  7.864005  1.735638
3142  1  3 0.0000  0.568851 11.339772  3.837012
3143  1  3 0.0000  4.840471 10.442748  0.984885
3144  1  3 0.0000  2.995300 12.408140  2.906889
3145  1  3 0.0000  0.594953 10.077764  0.612689
3146  1  3 0.0000  0.912978 12.738535  0.801370
3147  1  3 0.0000  1.348748  8.949647  5.931706
3148  1  3 0.0000  6.368415 10.865665  3.088396
3149  1  3 0.0000  6.418871  8.567346  4.374766
3150  1  3 0.0000 11.040383 11.003484  3.893252
3151  1  3 0.0000  8.736025  9.709938  3.609592
3152  1  3 0.0000  9.492823 12.323575  2.149297
3153  1  3 0.0000  7.108657  8.836242  1.775547
3154  1  3 0.0000  9.086849 11.772180  5.285235
3155  1  3 0.0000  7.243896 11.604579  0.833349
3156  1  3 0.0000 10.095653  9.176210  5.757871
3157  1  3 0.0000 11.777493 11.201497  1.455195
3158  1  3 0.0000 16.650576  7.381722  4.129792
3159  1  3 0.0000 12.525541  8.560141  1.369913
3160  1  3 0.0000 15.249656  9.862046  3.518636
3161  1  3 0.0000 14.049946  7.771476  4.208313
3162  1  3 0.0000 15.786756  8.000758  1.875683
3163  1  3 0.0000 17.272973 11.091815  4.199012
3164  1  3 0.0000 16.129226 12.318838  1.160241
3165  1  3 0.0000 15.097648 12.568063  4.126807
3166  1  3 0.0000 14.077558 10.593558  0.606645
3167  1  3 0.0000 17.520615  9.558587  0.588147
3168  1  3 0.0000 15.484869 10.812894  6.043390
3169  1  3 0.0000 20.130766  9.950821  0.188839
3170  1  3 0.0000 18.356441  7.349477  1.288604
3171  1  3 0.0000 19.014373 10.961699  2.237372
3172  1  3 0.0000 23.109502  7.597895  2.825100
3173  1  3 0.0000 20.514603  8.280429  2.623595
3174  1  3 0.0000 22.240669  9.811197  1.696914
3175  1  3 0.0000 19.554863 12.005712  4.709227
3176  1  3 0.0000 21.543482 11.346938  6.025551
3177  1  3 0.0000 20.100868  8.991434  6.270197
3178  1  3 0.0000 28.591752  7.400292  4.506119
3179  1  3 0.0000 24.972613  8.342332  1.108495
3180  1  3 0.0000 24.634378  9.599623  5.856842
3181  1  3 0.0000  5.278803 12.913217  1.800003
3182  1  3 0.0000  4.717671 13.093716  5.414473
3183  1  3 0.0000  1.776264 13.419732  4.806037
3184  1  3 0.0000  4.574838 17.531011  3.853237
3185  1  3 0.0000  4.202305 14.971063  3.040198
3186  1  3 0.0000  2.601840 17.129845  5.375661
3187  1  3 0.0000  2.992339 17.010673  1.896773
3188  1  3 0.0000  1.051270 18.327902  0.926780
3189  1  3 0.0000  3.050062 14.051938  0.927797
3190  1  3 0.0000  0.743792 15.202990  1.781847
3191  1  3 0.0000  5.499991 16.613571  1.474106
3192  1  3 0.0000  3.400935 19.211466  0.396541
3193  1  3 0.0000  7.327616 17.533229  3.396280
3194  1  3 0.0000  6.808208 15.057034  4.374980
3195  1  3 0.0000  8.865444 15.478442  2.770644
3196  1  3 0.0000 10.828098 18.109718  5.251623
3197  1  3 0.0000  8.775308 16.456445  5.281634
3198  1  3 0.0000  8.005594 14.047989  0.795851
3199  1  3 0.0000  7.976298 16.779862  0.727425
3200  1  3 0.0000 11.679430 16.137756  3.659882
3201  1  3 0.0000 11.580386 19.065018  1.981418
3202  1  3 0.0000 10.180965 15.345236  0.415648
3203  1  3 0.0000  8.433863 19.167062  5.045812
3204  1  3 0.0000  6.646355 18.939765  0.328094
3205  1  3 0.0000 11.666651 13.417686  3.019233
3206  1  3 0.0000  8.920822 19.468763  2.410681
3207  1  3 0.0000  7.145088 13.251367  6.359512
3208  1  3 0.0000 13.079692 15.139118  1.633231
3209  1  3 0.0000 13.759861 14.729242  4.151373
3210  1  3 0.0000 13.369493 18.078284  4.556930
3211  1  3 0.0000 16.407793 14.947884  4.881972
3212  1  3 0.0000 15.757168 14.365900  2.495904
3213  1  3 0.0000 13.808402 18.016260  1.045938
3214  1  3 0.0000 12.410434 16.299753  6.146117
3215  1  3 0.0000 13.755759 13.053195  0.199884
3216  1  3 0.0000 17.906924 13.174228  2.931263
3217  1  3 0.0000 17.870346 14.414584  0.843541
3218  1  3 0.0000 17.266436  0.863387  0.040940
3219  1  3 0.0000  2.855117 19.483753  4.180622
3220  1  3 0.0000  2.860553 25.808880  3.416047
3221  1  3 0.0000  0.638667 19.931970  2.943313
3222  1  3 0.0000  4.893683 21.746677  2.081511
3223  1  3 0.0000  3.358723 23.918665  1.826136
3224  1  3 0.0000  2.515875 21.797068  3.146305
3225  1  3 0.0000  1.065574 21.167754  5.225295
3226  1  3 0.0000  3.414444 24.201206  5.491291
3227  1  3 0.0000  1.038199 24.074053  4.193284
3228  1  3 0.0000  2.861403 21.742685  0.493359
3229  1  3 0.0000  9.721313 25.610815  3.389653
3230  1  3 0.0000  6.286019 22.789615  4.057866
3231  1  3 0.0000  6.634366 20.212434  3.382787
3232  1  3 0.0000 10.474137 21.234528  1.007208
3233  1  3 0.0000  9.996355 23.592713  1.831179
3234  1  3 0.0000 10.659506 20.896188  3.604396
3235  1  3 0.0000  8.823929 23.390798  4.331684
3236  1  3 0.0000  7.390803 22.209118  1.809664
3237  1  3 0.0000 11.445666 23.597087  3.775816
3238  1  3 0.0000  6.812557 25.293974  4.661817
3239  1  3 0.0000 11.758913 21.775959  5.837097
3240  1  3 0.0000 13.128709 21.430652  3.650485
3241  1  3 0.0000 13.295496 23.673452  1.776890
3242  1  3 0.0000 13.753235 24.759211  4.124942
3243  1  3 0.0000  0.071325 11.751820 12.837660
3244  1  3 0.0000  1.272740  4.552589  7.077944
3245  1  3 0.0000  3.618131  3.450851  7.390970
3246  1  3 0.0000  5.412006  5.093737  8.262568
3247  1  3 0.0000  3.422740  4.031711  9.931116
3248  1  3 0.0000  1.670876  2.118600 10.589024
3249  1  3 0.0000  5.410700  2.629698  9.069389
3250  1  3 0.0000  1.661569  4.286181 12.062281
3251  1  3 0.0000  4.138739  0.141718  7.424070
3252  1  3 0.0000  0.130204  5.122235  9.212251
3253  1  3 0.0000 29.725602  4.977107 21.105403
3254  1  3 0.0000  7.667137  2.731870 10.506614
3255  1  3 0.0000 10.159226  1.992019  8.978579
3256  1  3 0.0000  7.823868  2.176238  7.968449
3257  1  3 0.0000  9.634170  3.854779  7.208605
3258  1  3 0.0000 11.160027  5.429186 11.727588
3259  1  3 0.0000  6.687485  0.457646  9.839341
3260  1  3 0.0000  8.016159  5.919742  8.051959
3261  1  3 0.0000 10.430848  5.411721  9.086227
3262  1  3 0.0000  9.874949  1.059976  6.701283
3263  1  3 0.0000 11.678576  0.034444  9.596656
3264  1  3 0.0000 12.340801  0.144348  6.135095
3265  1  3 0.0000 12.006997  2.321598 10.847056
3266  1  3 0.0000 14.420053  2.755137  6.333048
3267  1  3 0.0000 14.107259  4.371454  8.283165
3268  1  3 0.0000 12.640853  2.238247  8.252037
3269  1  3 0.0000 15.158427  1.927778  8.739843
3270  1  3 0.0000 16.427123  3.600942 11.434608
3271  1  3 0.0000 17.225781  2.791734  7.384212
3272  1  3 0.0000 16.518542  5.381290  7.694678
3273  1  3 0.0000 17.583675  1.848143  9.851327
3274  1  3 0.0000 17.093096  0.327584  7.822177
3275  1  3 0.0000 13.963344  3.044574 12.290923
3276  1  3 0.0000 14.361823  6.243927  6.488924
3277  1  3 0.0000 15.814666  1.292846 12.479399
3278  1  3 0.0000 19.471631  3.027451  6.321216
3279  1  3 0.0000 19.097522  5.593504  7.862045
3280  1  3 0.0000 18.750642  4.181350 10.039548
3281  1  3 0.0000 20.976935  1.102073  7.201667
3282  1  3 0.0000 21.134067  3.464352  8.343136
3283  1  3 0.0000 21.407723  1.584908  9.919552
3284  1  3 0.0000 21.604543  3.831752 11.008501
3285  1  3 0.0000 20.493358  6.186799 10.069380
3286  1  3 0.0000 23.473013  3.039232  9.182366
3287  1  3 0.0000 23.153540  6.066699 10.483231
3288  1  3 0.0000 18.752692  2.802665 12.225124
3289  1  3 0.0000 24.127557  4.735432  7.084990
3290  1  3 0.0000 23.978365  1.866893 11.823832
3291  1  3 0.0000 26.982056  0.751322  6.347689
3292  1  3 0.0000 24.703058  4.375836 11.785936
3293  1  3 0.0000 28.620482  1.232289 10.402921
3294  1  3 0.0000 25.725148  4.315814  8.943035
3295  1  3 0.0000 27.198885  4.169302  6.958176
3296  1  3 0.0000 28.187635  3.668499  9.379304
3297  1  3 0.0000 25.015660  2.267653  7.283803
3298  1  3 0.0000 26.465456  2.389993 11.142142
3299  1  3 0.0000 27.617908  6.226539  8.549596
3300  1  3 0.0000 28.761953  3.447311 11.951231
3301  1  3 0.0000  6.855662 25.657607 19.605465
3302  1  3 0.0000  2.142747  6.633908  8.551646
3303  1  3 0.0000  3.760545  7.953437 10.268185
3304  1  3 0.0000  3.852653 10.111957 11.708733
3305  1  3 0.0000  4.800711 11.020777  6.944376
3306  1  3 0.0000  3.171534  9.173874  8.222593
3307  1  3 0.0000  1.294460  8.421125 10.288143
3308  1  3 0.0000  3.518217 11.828277  9.641538
3309  1  3 0.0000  5.447257 12.088491 11.420647
3310  1  3 0.0000  3.097927 12.641258 12.004674
3311  1  3 0.0000  2.765432 12.513661  7.316086
3312  1  3 0.0000  0.314940  6.627636 11.928783
3313  1  3 0.0000  6.096185  7.162456  6.610920
3314  1  3 0.0000  5.933707  9.634495  8.833548
3315  1  3 0.0000 10.047000  6.664964  6.776389
3316  1  3 0.0000 10.093939  7.592975 10.447787
3317  1  3 0.0000  7.335625 11.579367  9.691672
3318  1  3 0.0000  7.720491 10.846086  7.267558
3319  1  3 0.0000  8.579335  9.317310  9.254941
3320  1  3 0.0000 10.939250 12.319114 11.880683
3321  1  3 0.0000 10.783685  8.745144  8.196524
3322  1  3 0.0000 10.871974 10.079385 10.473740
3323  1  3 0.0000  7.094824 10.284181 11.968234
3324  1  3 0.0000  7.909855 12.754280 11.981359
3325  1  3 0.0000  9.340689 12.997341  7.657681
3326  1  3 0.0000 12.333862  7.896782  6.244424
3327  1  3 0.0000 14.357428  6.610094 11.650257
3328  1  3 0.0000 12.473901  6.986324  9.901957
3329  1  3 0.0000 14.832428  6.825018  9.008397
3330  1  3 0.0000 15.793247  9.749647  8.337728
3331  1  3 0.0000 14.433741  8.911256 10.461100
3332  1  3 0.0000 15.566504 11.282624 10.441776
3333  1  3 0.0000 16.695815 12.250226  7.775671
3334  1  3 0.0000 17.040828  9.074446 10.583583
3335  1  3 0.0000 12.935103 11.756663 10.583080
3336  1  3 0.0000 17.888312 10.172492  6.817484
3337  1  3 0.0000 22.252053  6.318089  8.023680
3338  1  3 0.0000 17.901142  7.541109  6.746281
3339  1  3 0.0000 18.094189  6.759157 10.006205
3340  1  3 0.0000 18.940671  8.834681  8.677208
3341  1  3 0.0000 22.526505  9.096698  6.964405
3342  1  3 0.0000 19.603044  8.716485 11.086854
3343  1  3 0.0000 20.675633 10.656848  9.834430
3344  1  3 0.0000 21.861020  8.274131  9.752049
3345  1  3 0.0000 21.678528  9.630202 12.073284
3346  1  3 0.0000 19.008542 12.619413  8.977710
3347  1  3 0.0000 24.224219  7.188603  6.538483
3348  1  3 0.0000 28.886856  7.940597  7.055833
3349  1  3 0.0000 24.804672  8.933502  8.406715
3350  1  3 0.0000 24.806295  6.853347 12.222566
3351  1  3 0.0000  4.416302 18.858061  6.215264
3352  1  3 0.0000  1.212987 15.342144  6.683049
3353  1  3 0.0000  1.105174 17.971220  7.224004
3354  1  3 0.0000  4.656946 14.750794 11.349721
3355  1  3 0.0000  1.663073 13.876379  9.539973
3356  1  3 0.0000  3.277900 16.472745  7.751688
3357  1  3 0.0000  4.048862 14.108904  8.626489
3358  1  3 0.0000  1.285875 18.397621 12.130918
3359  1  3 0.0000  2.103674 14.949974 11.936116
3360  1  3 0.0000  5.453915 16.151025  9.204001
3361  1  3 0.0000  5.380745 15.235814  6.695159
3362  1  3 0.0000  0.907912 18.821249  9.748096
3363  1  3 0.0000  0.800948 16.285869 10.305455
3364  1  3 0.0000  5.288249 19.046482 10.585456
3365  1  3 0.0000  6.322628 16.884216 11.539666
3366  1  3 0.0000 10.901420 13.805337  9.701278
3367  1  3 0.0000  9.108440 18.130475  7.310657
3368  1  3 0.0000  9.607712 15.603545  8.270080
3369  1  3 0.0000  8.694625 17.609895  9.817131
3370  1  3 0.0000  7.246569 14.761443 10.643800
3371  1  3 0.0000 11.143602 17.681170  8.852734
3372  1  3 0.0000  9.625030 14.654506 11.750207
3373  1  3 0.0000 10.089230 18.873645 11.547285
3374  1  3 0.0000  7.570651 19.195127 11.624372
3375  1  3 0.0000 11.546438 14.182647  7.215400
3376  1  3 0.0000 12.091590 14.775509 11.964354
3377  1  3 0.0000 15.074928 18.023979  6.468380
3378  1  3 0.0000 12.512707 17.163659 11.057292
3379  1  3 0.0000 14.214996 14.510003  7.005946
3380  1  3 0.0000 17.118569 14.538603  8.878031
3381  1  3 0.0000 14.708367 13.664225  9.810705
3382  1  3 0.0000 12.772616 15.866606  8.725364
3383  1  3 0.0000 15.304687 16.236644 10.080858
3384  1  3 0.0000 13.883333 18.156566  9.240300
3385  1  3 0.0000 16.643192 14.457090 11.290062
3386  1  3 0.0000 18.520824 13.864920  6.832185
3387  1  3 0.0000  3.588765 19.638716  8.683897
3388  1  3 0.0000  5.128413 25.765632  6.569169
3389  1  3 0.0000  3.066456 21.132005  6.662417
3390  1  3 0.0000  1.421738 23.023882  7.295873
3391  1  3 0.0000  2.104418 25.151186  8.719219
3392  1  3 0.0000  3.026082 20.106669 11.319788
3393  1  3 0.0000  4.663374 23.460081  7.987943
3394  1  3 0.0000  4.826751 21.564644  9.958254
3395  1  3 0.0000  5.478098 20.987046  7.598221
3396  1  3 0.0000  1.127902 22.982125  9.899228
3397  1  3 0.0000  0.680279 21.082381 11.742810
3398  1  3 0.0000  0.660986 20.568538  7.744814
3399  1  3 0.0000  7.196067 23.497151  6.418147
3400  1  3 0.0000  8.472722 24.603239 10.461161
3401  1  3 0.0000  8.858527 20.156608  9.537936
3402  1  3 0.0000 10.633003 23.174117 10.031840
3403  1  3 0.0000 10.942002 20.312057  7.889520
3404  1  3 0.0000  8.734180 21.564113  7.249355
3405  1  3 0.0000  9.228134 23.972402  8.130179
3406  1  3 0.0000  6.995760 22.714831  8.822948
3407  1  3 0.0000  6.269040 24.256637 11.920513
3408  1  3 0.0000 11.704684 21.329068 11.680417
3409  1  3 0.0000 11.507487 23.888554 12.347241
3410  1  3 0.0000 12.285275 24.658884  6.279099
3411  1  3 0.0000 13.205146 23.051197 10.416333
3412  1  3 0.0000 29.713733  0.281049  1.846169
3413  1  3 0.0000 29.695858  7.928768 21.732637
3414  1  3 0.0000  3.761493  2.733052 12.156099
3415  1  3 0.0000  4.227043  1.621102 14.470838
3416  1  3 0.0000  3.045158  1.457400 16.832969
3417  1  3 0.0000  5.078673  3.883960 17.211613
3418  1  3 0.0000  5.416188  3.996379 13.869047
3419  1  3 0.0000  0.528970  1.760907 16.425833
3420  1  3 0.0000  0.301372  6.283672 17.451625
3421  1  3 0.0000  1.675417  3.060480 18.445710
3422  1  3 0.0000  8.788274  1.418122 12.459523
3423  1  3 0.0000  6.164473  1.948327 12.637673
3424  1  3 0.0000  6.339593  1.594534 17.255320
3425  1  3 0.0000  7.743477  3.939740 12.776085
3426  1  3 0.0000  7.570507  4.712896 15.325433
3427  1  3 0.0000 10.447792  2.592728 15.748964
3428  1  3 0.0000 10.742108  4.766370 14.154547
3429  1  3 0.0000  9.313062  5.721318 17.068100
3430  1  3 0.0000  9.442783  0.603348 17.049713
3431  1  3 0.0000 11.605641  2.408184 13.430459
3432  1  3 0.0000  7.601510  3.847557 17.757347
3433  1  3 0.0000  6.719990  6.192849 17.306716
3434  1  3 0.0000  6.745785  6.249252 13.402863
3435  1  3 0.0000 10.933464  2.432492 18.326288
3436  1  3 0.0000 13.035984  0.526428 12.523493
3437  1  3 0.0000 12.145984  0.813166 16.660990
3438  1  3 0.0000 17.134075  0.504474 15.749042
3439  1  3 0.0000 12.926861  3.677922 15.246590
3440  1  3 0.0000 16.005058  3.419476 13.992978
3441  1  3 0.0000 15.263704  4.876307 15.893320
3442  1  3 0.0000 13.223681  4.913720 17.465359
3443  1  3 0.0000 14.491670  2.646514 17.000686
3444  1  3 0.0000 13.038883  5.856387 13.610263
3445  1  3 0.0000 16.258718  1.142206 18.207282
3446  1  3 0.0000 15.740117  6.077477 13.760143
3447  1  3 0.0000 17.803822  5.088441 15.120684
3448  1  3 0.0000 18.200008  2.436948 17.119611
3449  1  3 0.0000 20.896959  1.398714 12.506547
3450  1  3 0.0000 19.175158  4.798403 17.394867
3451  1  3 0.0000 22.775135  2.073671 15.111434
3452  1  3 0.0000 19.094537  1.417932 14.332664
3453  1  3 0.0000 20.643839  3.408376 14.110299
3454  1  3 0.0000 22.375574  4.623963 15.553731
3455  1  3 0.0000 20.839310  2.803653 16.696715
3456  1  3 0.0000 22.914595  5.640249 13.238161
3457  1  3 0.0000 23.530645  0.878980 17.541205
3458  1  3 0.0000 29.742552  5.306645 13.745458
3459  1  3 0.0000 29.447035  4.987937 16.261582
3460  1  3 0.0000 28.319492  2.091508 17.759054
3461  1  3 0.0000 25.036079  2.618299 16.151503
3462  1  3 0.0000 24.779568  5.015278 14.968760
3463  1  3 0.0000 25.668879  2.951932 13.631330
3464  1  3 0.0000 27.138363  4.034731 15.531841
3465  1  3 0.0000 27.547486  4.484750 18.110148
3466  1  3 0.0000 27.407223  6.423105 16.537312
3467  1  3 0.0000 24.736116  0.192358 15.233730
3468  1  3 0.0000  5.052204  7.889523 12.362306
3469  1  3 0.0000  2.427368  8.167641 12.506595
3470  1  3 0.0000  0.611184  8.934032 17.260673
3471  1  3 0.0000  4.659411  7.137527 14.740576
3472  1  3 0.0000  2.176587  7.265698 15.766209
3473  1  3 0.0000  3.455936  9.481342 15.655559
3474  1  3 0.0000  3.408750 11.867304 14.902375
3475  1  3 0.0000  2.187686 11.403399 17.141266
3476  1  3 0.0000  1.209625 10.335133 14.800335
3477  1  3 0.0000  4.400304  7.598206 17.186446
3478  1  3 0.0000  5.867219 12.589018 14.314910
3479  1  3 0.0000  0.053419  9.128105 12.725303
3480  1  3 0.0000 11.572422  6.784350 16.599609
3481  1  3 0.0000  6.751741  8.788873 17.092109
3482  1  3 0.0000  6.440363 11.269360 16.433223
3483  1  3 0.0000  6.567201  8.806794 14.092881
3484  1  3 0.0000  8.888687  8.782620 12.969012
3485  1  3 0.0000  9.400064  7.573857 15.156494
3486  1  3 0.0000  7.980631 10.917685 14.379491
3487  1  3 0.0000 11.217958 10.394600 16.998134
3488  1  3 0.0000  9.766609  8.250954 17.645630
3489  1  3 0.0000 11.219448  7.504220 13.334226
3490  1  3 0.0000 10.582211  9.782232 14.531334
3491  1  3 0.0000  8.648035 10.559459 17.667026
3492  1  3 0.0000 11.509467 12.268135 15.307997
3493  1  3 0.0000 14.654801 12.751928 12.268940
3494  1  3 0.0000 17.268397  6.633642 17.031539
3495  1  3 0.0000 12.630994 10.061492 12.406854
3496  1  3 0.0000 14.082625  8.208773 13.688222
3497  1  3 0.0000 16.333075 10.855156 16.506313
3498  1  3 0.0000 15.066730 10.649850 13.550276
3499  1  3 0.0000 13.009279 10.234116 15.037051
3500  1  3 0.0000 17.278022 11.907339 12.937494
3501  1  3 0.0000 14.242998 10.328185 17.799281
3502  1  3 0.0000 14.528413 12.822610 17.217048
3503  1  3 0.0000 13.830563  7.644694 17.609316
3504  1  3 0.0000 18.439581 11.263914 17.949483
3505  1  3 0.0000 18.373184 11.777896 15.370865
3506  1  3 0.0000 18.467037  9.303521 15.995455
3507  1  3 0.0000 23.389182  7.190212 15.289526
3508  1  3 0.0000 19.672484  6.925188 15.995374
3509  1  3 0.0000 23.241523  9.300508 16.978696
3510  1  3 0.0000 23.996878  6.777585 17.747512
3511  1  3 0.0000 26.773929  7.073703 14.142679
3512  1  3 0.0000 25.611970  8.302409 16.250015
3513  1  3 0.0000 28.167005  8.751577 15.664316
3514  1  3 0.0000  0.587665 12.971856 16.281047
3515  1  3 0.0000  4.853019 13.668526 16.310950
3516  1  3 0.0000  3.730871 14.122875 13.942939
3517  1  3 0.0000  3.308426 17.291746 14.056933
3518  1  3 0.0000  2.379438 16.117933 16.204324
3519  1  3 0.0000  0.692632 17.121626 14.559954
3520  1  3 0.0000  2.262297 18.779762 15.871752
3521  1  3 0.0000  5.115968 18.015235 15.771189
3522  1  3 0.0000  5.409657 18.617675 13.156530
3523  1  3 0.0000  3.620058 17.386679 17.971140
3524  1  3 0.0000  3.604684 14.810419 18.203770
3525  1  3 0.0000  5.652183 16.128100 14.394763
3526  1  3 0.0000  8.212654 13.068234 15.762786
3527  1  3 0.0000 11.048501 17.002818 13.115556
3528  1  3 0.0000  7.615514 14.958754 13.300167
3529  1  3 0.0000  7.773546 17.506169 14.166335
3530  1  3 0.0000  8.599925 18.606285 16.433556
3531  1  3 0.0000  7.863289 15.580958 15.869787
3532  1  3 0.0000 10.312547 14.595844 15.606079
3533  1  3 0.0000  9.047972 14.308692 17.883112
3534  1  3 0.0000  9.932318 16.988594 18.065249
3535  1  3 0.0000  6.247474 17.740223 18.179009
3536  1  3 0.0000  9.620009 19.268515 14.106263
3537  1  3 0.0000 10.758659 19.342792 17.728869
3538  1  3 0.0000  6.122699 14.272495 18.552529
3539  1  3 0.0000 12.019747 19.316101 13.351407
3540  1  3 0.0000 15.919384 13.160068 14.566077
3541  1  3 0.0000 12.192035 13.918576 17.368295
3542  1  3 0.0000 12.858050 14.474486 14.981340
3543  1  3 0.0000 13.640443 16.244946 13.296502
3544  1  3 0.0000 14.187564 17.911679 17.743558
3545  1  3 0.0000 15.202364 15.485724 15.301118
3546  1  3 0.0000 13.010578 16.933369 15.679688
3547  1  3 0.0000 14.498549 15.238674 18.120248
3548  1  3 0.0000 17.727261 13.704249 18.354975
3549  1  3 0.0000 29.669450  0.112365  6.432869
3550  1  3 0.0000  2.794950 25.819901 17.639488
3551  1  3 0.0000  4.817746 19.717667 17.612827
3552  1  3 0.0000  1.462899 25.115715 13.221880
3553  1  3 0.0000  1.226218 23.719044 17.179858
3554  1  3 0.0000  3.484903 21.191949 15.900561
3555  1  3 0.0000  2.086418 20.277155 13.842148
3556  1  3 0.0000  1.013315 21.123343 16.224941
3557  1  3 0.0000  4.025849 24.132455 13.155809
3558  1  3 0.0000  2.769423 24.639690 15.352124
3559  1  3 0.0000  0.463393 23.183199 14.720636
3560  1  3 0.0000  5.840298 21.845735 16.514968
3561  1  3 0.0000  3.616870 21.657416 18.475623
3562  1  3 0.0000  5.974839 24.828752 14.527424
3563  1  3 0.0000  6.039577 22.376524 13.928932
3564  1  3 0.0000  7.095766 20.137102 14.945250
3565  1  3 0.0000 11.009648 24.724090 14.723186
3566  1  3 0.0000  8.211300 22.299124 15.474738
3567  1  3 0.0000 10.554823 21.276846 16.098117
3568  1  3 0.0000  9.893603 23.738791 16.874846
3569  1  3 0.0000  8.879341 21.687870 17.995952
3570  1  3 0.0000  8.514609 25.302675 15.282070
3571  1  3 0.0000  6.672744 25.123704 17.054307
3572  1  3 0.0000 14.096465 20.342938 12.242588
3573  1  3 0.0000 12.224126 21.397091 18.055144
3574  1  3 0.0000 12.758597 19.542999 16.205667
3575  1  3 0.0000  2.196956  0.182197 22.312000
3576  1  3 0.0000  1.289287  0.462174 18.581215
3577  1  3 0.0000  4.844861  0.766936 21.430476
3578  1  3 0.0000  1.125614  2.716241 21.044810
3579  1  3 0.0000  0.944292  4.871185 22.667759
3580  1  3 0.0000  1.918421  5.021478 20.339048
3581  1  3 0.0000  3.590640  3.086827 20.287839
3582  1  3 0.0000  5.464915  3.767294 22.084080
3583  1  3 0.0000  3.555490  1.901922 23.447950
3584  1  3 0.0000  5.118108  5.387404 20.028183
3585  1  3 0.0000  3.230892  5.973676 22.417287
3586  1  3 0.0000  5.958182  3.044331 19.558689
3587  1  3 0.0000  8.516757  0.177781 22.502810
3588  1  3 0.0000  7.713558  2.555204 22.111517
3589  1  3 0.0000  9.636735  1.891143 20.560440
3590  1  3 0.0000 10.493030  4.424504 19.921510
3591  1  3 0.0000  7.504453  4.943162 23.383560
3592  1  3 0.0000 10.002863  4.109965 23.474086
3593  1  3 0.0000  7.250918  0.673513 20.309150
3594  1  3 0.0000 11.858088  5.964673 21.677574
3595  1  3 0.0000  7.526536  6.363164 20.595259
3596  1  3 0.0000 12.206778  2.635610 20.689856
3597  1  3 0.0000 12.239754  6.330444 19.163033
3598  1  3 0.0000 15.235153  0.100021 23.826972
3599  1  3 0.0000 12.376607  2.808726 23.303106
3600  1  3 0.0000 13.889845  0.960565 19.068610
3601  1  3 0.0000 16.984110  1.108038 22.271948
3602  1  3 0.0000 15.213870  3.198901 19.503456
3603  1  3 0.0000 14.448436  1.903273 22.022727
3604  1  3 0.0000 15.395910  4.971316 21.510904
3605  1  3 0.0000 16.151795  5.663017 19.131339
3606  1  3 0.0000 15.748050  2.623873 24.169705
3607  1  3 0.0000 17.575273  3.793075 20.352265
3608  1  3 0.0000 12.328477  0.463958 22.191633
3609  1  3 0.0000 13.918535  6.329011 23.223052
3610  1  3 0.0000 16.684145  6.470390 23.218975
3611  1  3 0.0000 18.063312  4.339395 23.418170
3612  1  3 0.0000 19.514366  2.475283 24.415257
3613  1  3 0.0000 18.245473  1.094637 20.188553
3614  1  3 0.0000 23.095060  2.604883 23.847432
3615  1  3 0.0000 19.783570  2.931505 19.142980
3616  1  3 0.0000 19.500240  2.659560 21.755736
3617  1  3 0.0000 20.506728  4.600281 23.014605
3618  1  3 0.0000 21.901207  4.614921 20.851034
3619  1  3 0.0000 19.645073  6.144448 21.139917
3620  1  3 0.0000 23.918093  2.575521 20.880510
3621  1  3 0.0000 23.907344  4.677968 22.354667
3622  1  3 0.0000 24.095605  4.842361 19.656787
3623  1  3 0.0000 26.206439  1.459460 21.782102
3624  1  3 0.0000 26.062249  2.433321 19.275329
3625  1  3 0.0000 29.150920  3.173043 22.776642
3626  1  3 0.0000 28.345736  3.058296 20.152422
3627  1  3 0.0000 27.169608  4.619366 21.889370
3628  1  3 0.0000 28.159120  0.912802 23.489139
3629  1  3 0.0000 24.706598  0.371150 19.926456
3630  1  3 0.0000  0.202365  9.330447 22.540455
3631  1  3 0.0000  4.575364  6.924581 24.430671
3632  1  3 0.0000  4.627765 12.328748 18.713386
3633  1  3 0.0000  1.006995  7.225971 21.353384
3634  1  3 0.0000  4.535066 10.649417 20.860011
3635  1  3 0.0000  3.299275  8.470734 22.744402
3636  1  3 0.0000  5.432729  7.270664 21.857476
3637  1  3 0.0000  2.219844 11.106244 22.150781
3638  1  3 0.0000  4.770004 10.483203 23.482603
3639  1  3 0.0000  4.174764 12.687113 22.360715
3640  1  3 0.0000  5.796671  7.741624 19.265748
3641  1  3 0.0000  0.972518 11.077671 24.391338
3642  1  3 0.0000  9.188532  6.623430 22.525108
3643  1  3 0.0000  6.357519 12.570023 20.519652
3644  1  3 0.0000  6.512462 10.598853 19.057614
3645  1  3 0.0000  9.964740  7.021648 20.189197
3646  1  3 0.0000 10.506644 10.039992 19.418638
3647  1  3 0.0000 11.454026  7.406415 23.969619
3648  1  3 0.0000  9.703363  9.459547 23.637243
3649  1  3 0.0000  7.375407 10.512492 22.854727
3650  1  3 0.0000  9.707854 11.144175 21.707981
3651  1  3 0.0000  8.481144  8.816998 21.344247
3652  1  3 0.0000 10.034751 12.669125 19.590024
3653  1  3 0.0000 15.982397  8.390484 18.585630
3654  1  3 0.0000 13.976710 11.500421 24.564221
3655  1  3 0.0000 12.138064 11.464973 20.717122
3656  1  3 0.0000 16.060948 11.749768 18.966820
3657  1  3 0.0000 17.149165  9.141212 23.993041
3658  1  3 0.0000 16.236879 12.139326 23.369631
3659  1  3 0.0000 12.878572  8.392019 22.155018
3660  1  3 0.0000 13.787293  9.042223 19.894473
3661  1  3 0.0000 15.270872  7.704139 21.549710
3662  1  3 0.0000 14.702186 10.298877 22.200741
3663  1  3 0.0000 14.158168 12.748108 22.086881
3664  1  3 0.0000 18.245508  7.251176 19.318982
3665  1  3 0.0000 23.061687  9.499583 24.249434
3666  1  3 0.0000 21.899899  6.829871 22.225890
3667  1  3 0.0000 18.427524  8.462920 21.655288
3668  1  3 0.0000 22.474855  9.244450 21.488539
3669  1  3 0.0000 21.279979 11.221954 23.266239
3670  1  3 0.0000 20.461065 10.929925 20.841129
3671  1  3 0.0000 20.482593  8.462786 20.028404
3672  1  3 0.0000 18.800935 10.757648 22.869079
3673  1  3 0.0000 23.761047  7.346660 20.360856
3674  1  3 0.0000 19.634305  8.538446 23.957488
3675  1  3 0.0000 26.099523  6.571425 19.469979
3676  1  3 0.0000 24.317987  7.770141 22.871224
3677  1  3 0.0000 26.262327  9.088816 19.394064
3678  1  3 0.0000 28.356327  7.768041 19.153889
3679  1  3 0.0000 28.643589  6.941065 23.930917
3680  1  3 0.0000 27.152115  7.715444 21.563679
3681  1  3 0.0000  3.339823 17.641476 24.577177
3682  1  3 0.0000  1.112498 13.295750 18.763918
3683  1  3 0.0000  5.615838 19.013304 24.323713
3684  1  3 0.0000  1.377514 15.962493 18.672740
3685  1  3 0.0000  1.176907 15.620090 23.390411
3686  1  3 0.0000  1.616699 14.747095 20.940019
3687  1  3 0.0000  2.353656 17.173290 21.633536
3688  1  3 0.0000  3.549387 15.047314 22.891465
3689  1  3 0.0000  4.683480 17.495564 20.774318
3690  1  3 0.0000  3.767661 19.208052 22.454809
3691  1  3 0.0000  5.808353 15.093196 20.953094
3692  1  3 0.0000  2.934460 19.540218 20.048767
3693  1  3 0.0000  0.125140  6.821787  7.050092
3694  1  3 0.0000  6.004750 14.346777 23.514662
3695  1  3 0.0000  8.241968 18.937599 24.602552
3696  1  3 0.0000  6.298879 16.784832 22.886539
3697  1  3 0.0000  8.454160 18.900775 18.923003
3698  1  3 0.0000  8.175592 14.308992 20.242675
3699  1  3 0.0000  9.584350 14.843369 22.741810
3700  1  3 0.0000  7.156975 17.293475 20.535180
3701  1  3 0.0000 10.456477 15.339944 20.062868
3702  1  3 0.0000 11.016567 17.923778 20.277841
3703  1  3 0.0000  9.664907 18.044087 22.501649
3704  1  3 0.0000 11.544848 16.353181 22.155225
3705  1  3 0.0000 11.742523 13.718566 21.743898
3706  1  3 0.0000 13.424355 13.312491 19.537055
3707  1  3 0.0000 12.438732 16.425007 18.814850
3708  1  3 0.0000 14.361425 17.603315 23.949088
3709  1  3 0.0000 12.465277 18.645512 22.331667
3710  1  3 0.0000 17.439936 14.242779 22.451029
3711  1  3 0.0000 14.654555 16.983048 20.175794
3712  1  3 0.0000  0.076750 19.494865 20.872298
3713  1  3 0.0000  4.758930 24.468577 18.652868
3714  1  3 0.0000  4.742507 25.084907 24.106873
3715  1  3 0.0000  1.252068 24.263904 22.350273
3716  1  3 0.0000  2.444576 24.727391 19.972719
3717  1  3 0.0000  1.204672 21.382122 19.481935
3718  1  3 0.0000  3.219342 21.980132 21.092771
3719  1  3 0.0000  3.985230 22.706752 23.502475
3720  1  3 0.0000  4.915719 24.005984 21.638940
3721  1  3 0.0000  5.684938 21.513586 21.892273
3722  1  3 0.0000 11.028359  3.979224  0.203184
3723  1  3 0.0000  7.041088 23.189120 18.966715
3724  1  3 0.0000  9.306887 25.015398 24.297931
3725  1  3 0.0000  6.287321 19.739081 20.078786
3726  1  3 0.0000  7.508133 19.571257 22.320098
3727  1  3 0.0000  8.306746 25.324107 21.828023
3728  1  3 0.0000  9.902575 23.369976 22.321356
3729  1  3 0.0000  9.817478 20.434858 23.325534
3730  1  3 0.0000  8.048244 21.520948 20.623256
3731  1  3 0.0000  9.650581 23.384801 19.715029
3732  1  3 0.0000 11.539184 21.833339 20.571391
3733  1  3 0.0000  7.553874 23.392364 23.508900
3734  1  3 0.0000 11.885206 24.289030 20.834308
3735  1  3 0.0000 11.805517 22.011573 23.927593
3736  1  3 0.0000 27.293479  3.148201 24.539129
3737  1  3 0.0000  0.036947  9.227676 19.871492
3738  1  3 0.0000  6.606573  2.895523 24.437174
3739  1  3 0.0000 24.571253  0.462219  0.029544
3740  1  3 0.0000 23.454636  0.034027 23.485089
3741  1  3 0.0000 25.268782  1.519672 24.612345
3742  1  3 0.0000  6.562986 23.921028  0.036356
3743  1  3 0.0000 11.962557  9.829423 24.634797
3744  1  3 0.0000  2.754116  1.776085 29.612782
3745  1  3 0.0000  3.774498  3.472329 27.914185
3746  1  3 0.0000  3.848832  5.898756 26.749735
3747  1  3 0.0000  5.278177  2.425970 29.782649
3748  1  3 0.0000  3.441780  4.287333 30.303595
3749  1  3 0.0000  3.716670  3.676805 25.375465
3750  1  3 0.0000  3.886093  0.958955 25.801877
3751  1  3 0.0000  1.677078  2.173965 25.392981
3752  1  3 0.0000  0.539926  2.132420 27.764404
3753  1  3 0.0000  0.479546  4.355562 26.294378
3754  1  3 0.0000  5.660210  5.681063 30.207642
3755  1  3 0.0000  5.885849  4.255177 26.446609
3756  1  3 0.0000  1.038827  6.569467 30.513733
3757  1  3 0.0000  8.443244  3.880770 26.490740
3758  1  3 0.0000  6.910101  1.899582 26.779046
3759  1  3 0.0000  9.839987  3.902251 28.854767
3760  1  3 0.0000 10.774488  1.840418 27.791207
3761  1  3 0.0000  7.609046  5.176916 28.681870
3762  1  3 0.0000 10.069227  1.714115 30.364305
3763  1  3 0.0000  9.695019  6.074947 27.404687
3764  1  3 0.0000 10.823529  2.319460 25.311490
3765  1  3 0.0000  7.083262  0.569263 30.269755
3766  1  3 0.0000  8.565068  0.641428 25.185268
3767  1  3 0.0000  9.296238  6.094085 24.910444
3768  1  3 0.0000 11.967406  4.753400 25.014838
3769  1  3 0.0000 12.160892  3.121350 29.480366
3770  1  3 0.0000 15.441294  0.457615 26.429693
3771  1  3 0.0000 12.331599  5.830956 29.951609
3772  1  3 0.0000 12.604274  4.782827 27.545159
3773  1  3 0.0000 14.387661  4.186215 29.326967
3774  1  3 0.0000 14.929478  3.058690 26.531104
3775  1  3 0.0000 12.941844  1.424075 26.245816
3776  1  3 0.0000 14.263972  1.268255 28.530836
3777  1  3 0.0000 16.321128  5.043544 25.222382
3778  1  3 0.0000 17.452125  2.987170 26.056552
3779  1  3 0.0000 16.551673  2.634868 30.490720
3780  1  3 0.0000 17.597330  0.634034 25.040424
3781  1  3 0.0000 16.452874  5.113529 30.569076
3782  1  3 0.0000 20.858805  4.257951 28.788311
3783  1  3 0.0000 22.354960  2.983985 27.086818
3784  1  3 0.0000 22.431929  5.608952 27.140444
3785  1  3 0.0000 19.300726  1.347090 26.708150
3786  1  3 0.0000 18.922942  5.632065 29.910983
3787  1  3 0.0000 23.460392  4.183297 29.079532
3788  1  3 0.0000 21.510225  0.616539 27.742533
3789  1  3 0.0000 23.344203  0.847697 25.988764
3790  1  3 0.0000 18.648703  6.357177 25.060031
3791  1  3 0.0000 19.246013  3.241440 30.581517
3792  1  3 0.0000 23.831587  1.462457 28.571477
3793  1  3 0.0000 22.621739  5.028089 24.642374
3794  1  3 0.0000 26.051720  4.005794 29.138855
3795  1  3 0.0000 27.080835  1.551104 28.953898
3796  1  3 0.0000 26.023857  2.730365 26.818050
3797  1  3 0.0000 28.339006  3.338649 27.670442
3798  1  3 0.0000 28.213700  5.327992 30.191628
3799  1  3 0.0000 29.083700  5.215207 25.853019
3800  1  3 0.0000 29.485586  2.672700 25.410911
3801  1  3 0.0000 24.916098  6.279709 28.572125
3802  1  3 0.0000 24.914394  4.048998 24.815099
3803  1  3 0.0000  0.277995 11.875644 26.889729
3804  1  3 0.0000  3.467843  6.905602 29.793239
3805  1  3 0.0000  3.582999 10.880117 29.087350
3806  1  3 0.0000  1.420587  7.460236 28.044634
3807  1  3 0.0000  4.809315 11.845008 27.050493
3808  1  3 0.0000  2.561016 10.897529 26.621984
3809  1  3 0.0000  2.572639  7.946536 25.821862
3810  1  3 0.0000  5.020980  8.236361 26.706691
3811  1  3 0.0000  0.525193  9.383189 26.382707
3812  1  3 0.0000  2.001074  9.052704 30.129144
3813  1  3 0.0000  1.621760 11.631811 30.489836
3814  1  3 0.0000  5.343011 12.763850 30.434090
3815  1  3 0.0000  0.040662  4.192152 31.302550
3816  1  3 0.0000  7.247947  9.740949 27.178460
3817  1  3 0.0000  7.600541  7.288951 26.427401
3818  1  3 0.0000 10.036760  7.423513 29.926752
3819  1  3 0.0000  7.200893 11.605594 28.784635
3820  1  3 0.0000  9.005090 11.728912 26.957964
3821  1  3 0.0000  9.137124  9.795762 28.888964
3822  1  3 0.0000  7.576263  7.692840 29.562835
3823  1  3 0.0000 10.058642  8.348507 25.958672
3824  1  3 0.0000  6.450419 11.811463 24.918403
3825  1  3 0.0000 11.274326 12.968394 26.709776
3826  1  3 0.0000  6.452904 10.411469 30.975973
3827  1  3 0.0000  0.055085  1.247175 48.281727
3828  1  3 0.0000 29.720427  5.442720 32.241660
3829  1  3 0.0000 16.992780  6.626236 28.515005
3830  1  3 0.0000 12.059632  8.163303 28.606427
3831  1  3 0.0000 12.746140  7.124979 26.291283
3832  1  3 0.0000 13.342228  9.646173 26.791891
3833  1  3 0.0000 16.492373  9.021541 29.012555
3834  1  3 0.0000 14.565873  7.599711 27.962678
3835  1  3 0.0000 16.468413  8.300805 26.483791
3836  1  3 0.0000 16.741292 10.842601 25.887472
3837  1  3 0.0000 14.473730 10.458027 29.771699
3838  1  3 0.0000 16.182904 11.537275 28.301004
3839  1  3 0.0000 13.015031 12.190767 28.502560
3840  1  3 0.0000 14.686809  9.221507 24.861208
3841  1  3 0.0000 16.765572 10.948980 30.896046
3842  1  3 0.0000 18.518640 10.596072 27.818646
3843  1  3 0.0000 19.703065  8.571035 29.047696
3844  1  3 0.0000 19.235961  8.332321 26.558748
3845  1  3 0.0000 20.969144 10.161331 27.384206
3846  1  3 0.0000 22.745951  8.859411 28.799236
3847  1  3 0.0000 21.206543  7.029365 25.400646
3848  1  3 0.0000 23.739654  7.181520 25.383844
3849  1  3 0.0000 27.362597  7.148246 28.571146
3850  1  3 0.0000 25.618494  8.363346 29.936985
3851  1  3 0.0000 28.601411  7.860226 30.763310
3852  1  3 0.0000 11.793599  0.432951 31.680630
3853  1  3 0.0000  5.255142 16.105799 25.168027
3854  1  3 0.0000  0.445080 17.468562 30.097465
3855  1  3 0.0000  2.728603 13.208232 27.862649
3856  1  3 0.0000  4.534357 15.067136 28.358082
3857  1  3 0.0000  2.974063 17.880644 29.524405
3858  1  3 0.0000  2.012798 15.608849 28.822442
3859  1  3 0.0000  3.002018 15.486477 26.329957
3860  1  3 0.0000  4.294593 17.721880 26.878885
3861  1  3 0.0000  5.530837 18.336584 29.033953
3862  1  3 0.0000  4.306167 13.247232 24.844193
3863  1  3 0.0000  1.321954 19.343415 26.391382
3864  1  3 0.0000  6.254951 13.880911 26.591392
3865  1  3 0.0000  9.454212 13.360997 29.744164
3866  1  3 0.0000  7.108537 14.504589 28.972634
3867  1  3 0.0000  9.139208 14.322159 27.385548
3868  1  3 0.0000 11.280498 16.993389 29.396304
3869  1  3 0.0000  6.507212 16.467785 27.399408
3870  1  3 0.0000 10.147550 18.041312 26.717218
3871  1  3 0.0000  9.062858 15.982336 29.494893
3872  1  3 0.0000  9.275681 18.620744 30.043661
3873  1  3 0.0000  6.629614 19.048524 26.710723
3874  1  3 0.0000  9.367776 13.529223 24.985141
3875  1  3 0.0000 10.511976 15.802181 25.072973
3876  1  3 0.0000 11.977484 18.056421 24.821325
3877  1  3 0.0000 15.994264 14.197065 25.052593
3878  1  3 0.0000 12.288513 16.572607 26.948503
3879  1  3 0.0000 12.160031 14.605700 28.588194
3880  1  3 0.0000 14.932300 16.182482 26.094543
3881  1  3 0.0000 13.764766 16.805582 29.100983
3882  1  3 0.0000 13.697053 13.923897 26.607155
3883  1  3 0.0000 15.541234 15.645479 30.422199
3884  1  3 0.0000 15.771945 14.546028 27.887460
3885  1  3 0.0000 17.556890 14.043814 29.973565
3886  1  3 0.0000 29.759212  3.767201 35.327864
3887  1  3 0.0000  0.045612  6.972035 25.880043
3888  1  3 0.0000  0.031705  1.400928 35.566611
3889  1  3 0.0000  0.841884 25.041075 29.464831
3890  1  3 0.0000  3.238160 22.770586 29.082673
3891  1  3 0.0000  4.059141 20.325621 29.709687
3892  1  3 0.0000  3.286715 20.970063 27.295467
3893  1  3 0.0000  3.767931 25.349595 28.960624
3894  1  3 0.0000  1.626598 20.641136 29.061601
3895  1  3 0.0000  2.560679 24.255919 25.244801
3896  1  3 0.0000  4.669812 23.059479 26.035713
3897  1  3 0.0000  5.611120 23.787480 28.374745
3898  1  3 0.0000  1.544932 21.886226 25.553079
3899  1  3 0.0000  0.881741 23.718120 27.228802
3900  1  3 0.0000  3.279547 20.195102 24.819541
3901  1  3 0.0000 22.426383  0.280255 35.717462
3902  1  3 0.0000  6.586433  9.107793 24.818651
3903  1  3 0.0000 11.327223 19.995277 28.186432
3904  1  3 0.0000  7.129725 23.539837 26.085104
3905  1  3 0.0000 10.812302 20.353880 25.731184
3906  1  3 0.0000 10.342667 24.146837 27.830342
3907  1  3 0.0000  6.362086 21.525553 27.509902
3908  1  3 0.0000  8.432573 22.510689 28.581992
3909  1  3 0.0000  8.842690 20.229368 27.474599
3910  1  3 0.0000  7.395450 20.470896 29.753371
3911  1  3 0.0000  9.307492 22.294943 24.993778
3912  1  3 0.0000  8.147091 25.235385 28.806940
3913  1  3 0.0000  9.634183 23.863039 30.410371
3914  1  3 0.0000  6.979130 21.115352 24.920596
3915  1  3 0.0000 12.107801 24.316232 30.574972
3916  1  3 0.0000 13.671295 19.974789 26.906778
3917  1  3 0.0000 12.524764 22.168631 27.110625
3918  1  3 0.0000 12.441536 25.606336 28.437506
3919  1  3 0.0000  0.092670 23.077833 41.845589
3920  1  3 0.0000  9.576536 25.692980 40.530910
3921  1  3 0.0000  3.901600  5.902269 32.222577
3922  1  3 0.0000  2.925964  5.706203 34.745081
3923  1  3 0.0000  4.093957  3.564628 33.545270
3924  1  3 0.0000  4.039417  0.926866 34.057054
3925  1  3 0.0000  0.695809  3.836955 36.548382
3926  1  3 0.0000  5.441048  5.734871 34.223416
3927  1  3 0.0000  5.763131  1.782582 32.311291
3928  1  3 0.0000  1.618269  6.230828 36.989451
3929  1  3 0.0000 28.434787  1.635377 49.130388
3930  1  3 0.0000  6.134492  2.367225 34.903556
3931  1  3 0.0000  7.515254  3.162671 30.997105
3932  1  3 0.0000  8.082039  5.681992 31.138704
3933  1  3 0.0000  7.193796  4.584830 35.793621
3934  1  3 0.0000  9.666064  0.841013 33.069728
3935  1  3 0.0000  9.190624  1.181902 35.595844
3936  1  3 0.0000 10.714006  2.829228 34.407189
3937  1  3 0.0000  9.623071  3.893332 32.234090
3938  1  3 0.0000 10.800988  5.352757 34.211753
3939  1  3 0.0000  7.303538  4.376276 33.290842
3940  1  3 0.0000 11.637896  4.835118 36.761365
3941  1  3 0.0000 11.578206  0.361008 34.837150
3942  1  3 0.0000  9.635911  6.327031 36.362837
3943  1  3 0.0000 13.781505  0.635813 33.405442
3944  1  3 0.0000 12.160393  3.872085 32.486944
3945  1  3 0.0000 14.659010  3.908042 31.925231
3946  1  3 0.0000 13.578124  1.929560 35.656920
3947  1  3 0.0000 13.822347  4.305954 34.400944
3948  1  3 0.0000 15.820877  2.755607 34.461689
3949  1  3 0.0000 13.328382  6.167262 32.575137
3950  1  3 0.0000 15.728977  6.221488 35.934780
3951  1  3 0.0000 15.092162  3.848100 36.669794
3952  1  3 0.0000 17.431160  4.935733 34.591648
3953  1  3 0.0000 17.808557  3.140845 32.730055
3954  1  3 0.0000 17.442258  0.289652 36.870211
3955  1  3 0.0000 18.128686  2.437494 35.306026
3956  1  3 0.0000 18.270922  0.903069 31.517278
3957  1  3 0.0000 20.880658  1.160359 33.798429
3958  1  3 0.0000 19.817375  0.703679 36.101649
3959  1  3 0.0000 21.232363  5.367169 31.160379
3960  1  3 0.0000 22.537164  3.408047 35.108518
3961  1  3 0.0000 21.655725  5.717708 35.897261
3962  1  3 0.0000  0.172695 17.658263 24.874938
3963  1  3 0.0000 12.180452  0.228194 45.217231
3964  1  3 0.0000 23.967048  1.831417 33.276616
3965  1  3 0.0000 24.599118  0.547225 31.004238
3966  1  3 0.0000 24.921676  5.247238 31.069884
3967  1  3 0.0000 28.816418  3.066419 31.708012
3968  1  3 0.0000 25.666498  2.918434 31.731748
3969  1  3 0.0000 27.095404  4.851093 32.576668
3970  1  3 0.0000 24.506615  4.349810 33.540635
3971  1  3 0.0000 24.961153  2.523345 35.499349
3972  1  3 0.0000 27.364101  2.842232 34.783156
3973  1  3 0.0000 26.440106  0.723965 32.841741
3974  1  3 0.0000 26.000990  4.863060 35.800184
3975  1  3 0.0000 28.391799  5.910423 35.488277
3976  1  3 0.0000 28.585457  1.313624 36.244992
3977  1  3 0.0000  0.290545 10.076176 36.350917
3978  1  3 0.0000  3.643637 10.460492 31.661593
3979  1  3 0.0000  2.902596  8.193206 35.630455
3980  1  3 0.0000  2.808932 11.901256 33.836582
3981  1  3 0.0000  3.046087 10.885121 36.079989
3982  1  3 0.0000  4.249135  9.915991 34.124437
3983  1  3 0.0000  5.132754 12.174319 32.860165
3984  1  3 0.0000  5.168920  9.048123 36.456559
3985  1  3 0.0000  7.852563  6.769162 34.242312
3986  1  3 0.0000  8.742212  9.248018 31.420733
3987  1  3 0.0000  7.497080 10.386439 33.455792
3988  1  3 0.0000  9.350030 10.582728 35.268199
3989  1  3 0.0000  8.609605 11.805242 31.555231
3990  1  3 0.0000 11.198655 10.582716 33.360811
3991  1  3 0.0000  6.983578 10.791010 36.021909
3992  1  3 0.0000 11.318125 12.210223 35.475011
3993  1  3 0.0000  7.977355 12.724898 34.630473
3994  1  3 0.0000 11.780537  9.627224 35.591377
3995  1  3 0.0000  7.890676  8.340858 36.819193
3996  1  3 0.0000 10.987695 12.797394 31.942966
3997  1  3 0.0000 12.205438 11.063400 30.740823
3998  1  3 0.0000 14.210441 12.794420 30.774054
3999  1  3 0.0000 16.022059  6.642378 33.231975
4000  1  3 0.0000 12.089154  7.085644 35.503253
4001  1  3 0.0000 12.154643  7.976259 31.265544
4002  1  3 0.0000 17.377190  7.399487 31.019311
4003  1  3 0.0000 14.759714  8.050146 31.516031
4004  1  3 0.0000 13.279399  8.538593 33.654760
4005  1  3 0.0000 16.832465  9.116344 32.705832
4006  1  3 0.0000 14.041002  8.864853 36.221602
4007  1  3 0.0000 15.297860 11.066359 35.473421
4008  1  3 0.0000 13.358725 11.847738 32.851958
4009  1  3 0.0000 17.628529  7.510988 34.948884
4010  1  3 0.0000 16.485598  9.142932 36.840182
4011  1  3 0.0000 18.000697 11.446231 33.107950
4012  1  3 0.0000 21.841541  6.524025 33.469935
4013  1  3 0.0000 19.005702  9.880389 31.355676
4014  1  3 0.0000 20.286926  7.676682 31.684906
4015  1  3 0.0000 22.847372  7.604410 31.403164
4016  1  3 0.0000 22.462194  9.635411 33.028044
4017  1  3 0.0000 20.942737 10.710027 34.791475
4018  1  3 0.0000 20.996186  8.181238 35.293599
4019  1  3 0.0000 18.914974  9.532162 35.801804
4020  1  3 0.0000 23.587123  7.491531 35.273628
4021  1  3 0.0000 26.197078  7.297203 34.944011
4022  1  3 0.0000 24.704583  8.245913 33.105915
4023  1  3 0.0000  0.195643 15.609244 35.170438
4024  1  3 0.0000  1.464460 13.210521 35.534027
4025  1  3 0.0000  4.137545 13.256464 35.857660
4026  1  3 0.0000  2.270731 16.238773 31.477774
4027  1  3 0.0000  4.555668 18.392812 31.447948
4028  1  3 0.0000  3.650912 14.055021 31.863150
4029  1  3 0.0000  1.205592 17.723436 33.832920
4030  1  3 0.0000  3.217845 15.599616 33.982651
4031  1  3 0.0000  1.249677 14.384069 33.109749
4032  1  3 0.0000  2.004613 17.061921 36.440628
4033  1  3 0.0000  3.991962 18.468354 35.689923
4034  1  3 0.0000  4.235308 15.837802 36.706287
4035  1  3 0.0000  5.799950 16.873606 33.188898
4036  1  3 0.0000  1.034792 19.251975 31.740030
4037  1  3 0.0000  5.931681 14.817452 34.877236
4038  1  3 0.0000  6.208113 14.491022 32.308989
4039  1  3 0.0000  7.139590 18.331588 31.442371
4040  1  3 0.0000  9.005842 14.378760 31.945173
4041  1  3 0.0000  9.979333 16.762390 31.773330
4042  1  3 0.0000  8.135470 16.053699 33.624708
4043  1  3 0.0000 10.661768 15.228427 33.748173
4044  1  3 0.0000 10.567508 16.973577 35.691917
4045  1  3 0.0000 11.540336 14.653701 36.218581
4046  1  3 0.0000  7.018907 17.508834 36.247996
4047  1  3 0.0000  8.320443 19.112441 34.509346
4048  1  3 0.0000 11.710213 18.894829 33.585743
4049  1  3 0.0000 15.915993 12.995199 32.912506
4050  1  3 0.0000 14.818286 14.560106 35.699954
4051  1  3 0.0000 13.967086 18.770908 35.751938
4052  1  3 0.0000 13.767860 14.285786 33.102495
4053  1  3 0.0000 13.370303 17.024983 31.641590
4054  1  3 0.0000 12.953712 16.136112 34.722424
4055  1  3 0.0000 15.513750 16.216550 33.771076
4056  1  3 0.0000  0.150512 20.251432 33.871853
4057  1  3 0.0000  0.296930 22.799205 33.419001
4058  1  3 0.0000  4.824656 23.748869 30.848227
4059  1  3 0.0000  2.807116 19.733027 33.595470
4060  1  3 0.0000  1.386019 25.149243 33.141484
4061  1  3 0.0000  2.842775 23.125185 32.460206
4062  1  3 0.0000  2.369417 20.502954 36.043254
4063  1  3 0.0000  2.316233 23.450694 35.065609
4064  1  3 0.0000  4.733338 20.956877 34.985171
4065  1  3 0.0000  5.204837 21.755067 32.483164
4066  1  3 0.0000  5.059232 24.293185 33.344595
4067  1  3 0.0000  0.503708 24.885459 36.160413
4068  1  3 0.0000  5.925244 19.439787 33.450988
4069  1  3 0.0000 11.410708 21.843440 30.856285
4070  1  3 0.0000 10.963910 19.486157 36.096317
4071  1  3 0.0000  8.659285 20.286608 32.054295
4072  1  3 0.0000  7.324317 21.427301 34.014374
4073  1  3 0.0000 10.049664 20.963898 34.126789
4074  1  3 0.0000 10.744828 23.538338 32.809966
4075  1  3 0.0000  9.283457 24.258526 34.995939
4076  1  3 0.0000  7.804439 22.693066 36.484797
4077  1  3 0.0000 11.914892 23.675109 35.161724
4078  1  3 0.0000 12.575533 19.487520 31.190013
4079  1  3 0.0000 29.776040  1.821773 33.774468
4080  1  3 0.0000  5.077855  3.303593 36.978535
4081  1  3 0.0000  2.499990  0.477295 37.093146
4082  1  3 0.0000  2.512493  0.435109 39.570125
4083  1  3 0.0000  4.647757  0.504631 41.633159
4084  1  3 0.0000  2.935776  2.759428 38.257969
4085  1  3 0.0000  4.643060  4.748062 39.068803
4086  1  3 0.0000  2.551931  5.195042 41.422765
4087  1  3 0.0000  1.448859  4.842676 39.074127
4088  1  3 0.0000  3.984649  3.004125 41.825157
4089  1  3 0.0000  5.052238  2.189075 39.508897
4090  1  3 0.0000  0.563335  1.836796 38.115821
4091  1  3 0.0000  1.418106  3.070103 42.459283
4092  1  3 0.0000  0.588180  0.785529 41.015928
4093  1  3 0.0000  5.649554  5.273234 42.945651
4094  1  3 0.0000  4.149926  6.332712 37.132271
4095  1  3 0.0000  7.478838  2.454935 37.213968
4096  1  3 0.0000 10.043380  2.933886 37.672245
4097  1  3 0.0000  6.507400  2.106950 41.695097
4098  1  3 0.0000  9.175479  1.867040 41.627751
4099  1  3 0.0000 10.832763  4.879131 39.284741
4100  1  3 0.0000  7.457890  5.756630 41.086013
4101  1  3 0.0000 11.114667  3.892191 41.742860
4102  1  3 0.0000  9.033215  0.603129 38.082521
4103  1  3 0.0000 11.338493  1.453538 42.967938
4104  1  3 0.0000 10.560080  6.330151 41.657511
4105  1  3 0.0000 11.653853  1.869641 40.456942
4106  1  3 0.0000 16.448680  0.488094 40.818828
4107  1  3 0.0000 13.566358  0.734059 38.987946
4108  1  3 0.0000 12.547034  3.148262 38.523232
4109  1  3 0.0000 16.833163  5.198877 38.025666
4110  1  3 0.0000 14.109497  2.999582 40.579151
4111  1  3 0.0000 15.690273  5.610775 40.219105
4112  1  3 0.0000 14.236296  5.838068 38.183619
4113  1  3 0.0000 16.343481  2.701258 42.234336
4114  1  3 0.0000 15.067577  4.882414 42.639394
4115  1  3 0.0000 12.917403  5.639069 40.605441
4116  1  3 0.0000 17.744507  4.056765 40.332708
4117  1  3 0.0000 23.413635  4.447855 37.306911
4118  1  3 0.0000 20.953724  3.502959 37.219514
4119  1  3 0.0000 18.747168  2.313991 37.747208
4120  1  3 0.0000 19.438063  4.045930 42.322750
4121  1  3 0.0000 21.069945  1.189766 38.532129
4122  1  3 0.0000 20.095422  3.260570 39.749198
4123  1  3 0.0000 18.588707  1.784059 41.248568
4124  1  3 0.0000 22.995948  4.137681 39.840908
4125  1  3 0.0000 22.487353  4.784359 42.267711
4126  1  3 0.0000 22.353359  2.069234 41.421717
4127  1  3 0.0000 24.213314  0.107615 37.749357
4128  1  3 0.0000 24.572183  3.304135 41.639352
4129  1  3 0.0000 26.953775  2.835987 37.331069
4130  1  3 0.0000 25.053999  1.542745 39.675274
4131  1  3 0.0000 29.222749  4.166710 41.405294
4132  1  3 0.0000 29.084944  1.673389 38.666667
4133  1  3 0.0000 27.703069  5.435832 39.582836
4134  1  3 0.0000 26.995205  3.031720 40.524244
4135  1  3 0.0000 26.789381  5.232618 41.900765
4136  1  3 0.0000 26.080870  1.373557 42.209855
4137  1  3 0.0000 25.189891  5.455311 39.046570
4138  1  3 0.0000 26.736349  0.404482 38.079493
4139  1  3 0.0000 26.856801  6.570217 37.399266
4140  1  3 0.0000  0.486747  6.811314 40.410496
4141  1  3 0.0000  3.034005  6.796918 39.450148
4142  1  3 0.0000  1.971174  9.970503 38.566061
4143  1  3 0.0000  1.786702  9.709563 41.168409
4144  1  3 0.0000  4.242948 10.013758 39.919960
4145  1  3 0.0000  2.531290 11.936332 40.183183
4146  1  3 0.0000  5.572196 12.159463 38.981718
4147  1  3 0.0000  0.576933 12.176852 37.968411
4148  1  3 0.0000  5.736840  7.066945 39.340612
4149  1  3 0.0000  3.983414 12.040252 43.095510
4150  1  3 0.0000  8.229173  6.660658 38.659585
4151  1  3 0.0000  6.526127  9.843555 38.441009
4152  1  3 0.0000  6.575867 10.605741 40.840149
4153  1  3 0.0000  7.713952  8.258969 40.776366
4154  1  3 0.0000 10.484374  9.545863 40.309132
4155  1  3 0.0000 10.363508  8.033808 38.106592
4156  1  3 0.0000  8.794207 10.137051 42.091872
4157  1  3 0.0000  9.776350 10.564940 38.069760
4158  1  3 0.0000 11.290925 11.544036 41.633375
4159  1  3 0.0000  9.340770 11.831769 40.108672
4160  1  3 0.0000  6.408168  9.287339 43.003910
4161  1  3 0.0000  7.980887 12.639285 38.030796
4162  1  3 0.0000 14.684797 10.713020 38.007200
4163  1  3 0.0000 12.365147  9.807934 38.596094
4164  1  3 0.0000 13.000186 12.145865 39.741466
4165  1  3 0.0000 14.403739  7.712779 39.815212
4166  1  3 0.0000 14.889175  8.314894 42.291118
4167  1  3 0.0000 14.317841 10.123054 40.461957
4168  1  3 0.0000 16.653946  8.956518 40.582809
4169  1  3 0.0000 12.281955  7.892949 42.850849
4170  1  3 0.0000 18.241388  6.507000 39.721083
4171  1  3 0.0000 22.906293  6.595581 38.830857
4172  1  3 0.0000 18.264493  7.459358 37.318555
4173  1  3 0.0000 21.293498  6.709231 40.919647
4174  1  3 0.0000 20.902474  9.992753 37.301953
4175  1  3 0.0000 20.490579  7.187693 38.596490
4176  1  3 0.0000 18.952230  9.678592 41.730134
4177  1  3 0.0000 18.772318  9.106999 39.265764
4178  1  3 0.0000 21.993477  9.057912 39.585528
4179  1  3 0.0000 23.369497 10.160462 37.753013
4180  1  3 0.0000 23.327353  7.351798 42.338324
4181  1  3 0.0000 26.372072  7.823517 39.503648
4182  1  3 0.0000 28.516010  6.830274 42.855640
4183  1  3 0.0000  4.289439  4.545272 49.033453
4184  1  3 0.0000  5.291595 13.912389 42.008371
4185  1  3 0.0000  2.710848 18.537267 40.538209
4186  1  3 0.0000  3.840029 18.061584 38.213609
4187  1  3 0.0000  2.669731 13.948182 41.764071
4188  1  3 0.0000  2.974947 14.300741 39.088512
4189  1  3 0.0000  5.169625 17.618030 40.570232
4190  1  3 0.0000  0.570366 13.681772 39.969737
4191  1  3 0.0000  0.944745 16.604502 41.531344
4192  1  3 0.0000  1.297577 18.882071 42.744175
4193  1  3 0.0000  6.059564 14.248691 37.459444
4194  1  3 0.0000 10.637500 12.908173 37.916345
4195  1  3 0.0000  6.854313 14.243470 39.939685
4196  1  3 0.0000  6.953597 16.107088 41.729675
4197  1  3 0.0000  7.827990 13.619738 42.306096
4198  1  3 0.0000  9.719583 15.899528 39.595970
4199  1  3 0.0000  7.612782 17.469798 39.534449
4200  1  3 0.0000  9.597059 18.047039 37.892388
4201  1  3 0.0000 10.447271 15.615880 42.183802
4202  1  3 0.0000  7.278357 18.749839 41.762157
4203  1  3 0.0000  9.851908 18.286128 40.431119
4204  1  3 0.0000 11.265536 13.910474 40.481653
4205  1  3 0.0000 13.345579 13.073769 42.045520
4206  1  3 0.0000 13.267578 12.980377 37.053355
4207  1  3 0.0000 15.952505 13.342675 41.583749
4208  1  3 0.0000 12.249195 17.896743 37.613066
4209  1  3 0.0000 15.911805 13.526598 37.896145
4210  1  3 0.0000 12.085339 16.407612 40.420837
4211  1  3 0.0000 14.172679 15.148174 38.224701
4212  1  3 0.0000 13.365705 16.097339 42.595238
4213  1  3 0.0000 14.664515 16.430588 40.300736
4214  1  3 0.0000 13.417530 18.445467 41.548925
4215  1  3 0.0000  1.093175 22.437298 37.106311
4216  1  3 0.0000  2.726890 24.347956 37.526745
4217  1  3 0.0000  4.945382 24.874218 41.971581
4218  1  3 0.0000  1.775413 21.758500 40.474726
4219  1  3 0.0000  3.304720 21.605160 38.232597
4220  1  3 0.0000  2.492845 23.937802 41.560859
4221  1  3 0.0000  4.725335 20.026295 39.734028
4222  1  3 0.0000  4.590076 22.626346 40.451787
4223  1  3 0.0000  1.155330 19.927076 38.228796
4224  1  3 0.0000  0.645979 24.183397 39.702506
4225  1  3 0.0000  5.161105 25.299969 37.829922
4226  1  3 0.0000  5.938695 20.812122 42.843645
4227  1  3 0.0000  5.807372 21.896115 38.177763
4228  1  3 0.0000  4.253392 22.711827 43.128739
4229  1  3 0.0000  7.519581 25.368588 36.663399
4230  1  3 0.0000  7.158704 20.070552 36.824363
4231  1  3 0.0000  7.467568 25.567162 41.898507
4232  1  3 0.0000  9.664603 24.176396 37.538275
4233  1  3 0.0000 11.147968 20.117442 39.254109
4234  1  3 0.0000  9.201552 20.852960 40.924334
4235  1  3 0.0000  8.204809 21.632822 38.722684
4236  1  3 0.0000  8.180156 23.301705 40.776457
4237  1  3 0.0000 10.307507 22.941091 39.668400
4238  1  3 0.0000 11.360693 22.042512 37.481244
4239  1  3 0.0000  7.334712 25.249952 39.321681
4240  1  3 0.0000 11.454140 19.977086 41.832923
4241  1  3 0.0000 13.424474 20.113292 37.908936
4242  1  3 0.0000 12.842139 22.123792 39.405785
4243  1  3 0.0000 13.845437 21.069432 41.501188
4244  1  3 0.0000  5.412871  0.580535 44.579514
4245  1  3 0.0000  1.180186  0.786495 43.482676
4246  1  3 0.0000  3.324800  4.643877 43.842258
4247  1  3 0.0000  2.676957  1.386306 47.945336
4248  1  3 0.0000  2.104029  2.084267 45.574399
4249  1  3 0.0000  4.428180  2.736770 46.470271
4250  1  3 0.0000  2.309446  3.922522 47.509229
4251  1  3 0.0000  5.284687  4.957073 45.573781
4252  1  3 0.0000  3.029036  6.509284 47.859570
4253  1  3 0.0000  8.014240  4.268624 43.141729
4254  1  3 0.0000  7.313868  0.552851 46.451162
4255  1  3 0.0000  6.396107  3.910369 47.732148
4256  1  3 0.0000  6.833803  2.795500 45.447979
4257  1  3 0.0000  7.738655  0.943051 43.707610
4258  1  3 0.0000  9.416574  5.686580 48.229533
4259  1  3 0.0000 10.000976  1.656395 45.123725
4260  1  3 0.0000  9.755583  2.668471 47.487148
4261  1  3 0.0000 10.305538  4.275564 45.526071
4262  1  3 0.0000 11.762223  5.679893 44.033276
4263  1  3 0.0000 14.050563  2.720180 43.214649
4264  1  3 0.0000 17.270039  0.484668 43.288514
4265  1  3 0.0000 12.400403  5.548246 46.607387
4266  1  3 0.0000 12.314423  2.208853 48.113971
4267  1  3 0.0000 14.937532  1.640200 48.247337
4268  1  3 0.0000 15.556896  3.618794 45.249271
4269  1  3 0.0000 12.864701  3.503103 45.220894
4270  1  3 0.0000 14.125551  4.197308 47.881010
4271  1  3 0.0000 14.497992  1.255778 45.158232
4272  1  3 0.0000 17.099116  1.856822 46.754456
4273  1  3 0.0000 16.912800  5.941682 44.296293
4274  1  3 0.0000 17.466808  4.304973 46.942831
4275  1  3 0.0000 14.916139  6.487782 46.919706
4276  1  3 0.0000 22.337743  0.550134 44.864120
4277  1  3 0.0000 20.539591  0.465170 48.282477
4278  1  3 0.0000 18.099067  3.269541 44.577001
4279  1  3 0.0000 22.008826  2.562085 48.498750
4280  1  3 0.0000 19.326416  2.982445 48.341373
4281  1  3 0.0000 19.272827  5.519204 48.244920
4282  1  3 0.0000 21.779012  4.988688 48.432523
4283  1  3 0.0000 20.218557  1.952068 43.862757
4284  1  3 0.0000 20.468221  4.542391 44.668886
4285  1  3 0.0000 20.751209  2.125422 46.341004
4286  1  3 0.0000 25.807608  5.427880 48.920319
4287  1  3 0.0000 24.144019  3.830563 47.692177
4288  1  3 0.0000 24.820229  0.713480 44.635890
4289  1  3 0.0000 26.655742  4.147353 46.548057
4290  1  3 0.0000 26.383392  2.854013 44.336594
4291  1  3 0.0000 28.727989  3.689289 44.949652
4292  1  3 0.0000 26.814615  5.477380 44.329282
4293  1  3 0.0000 24.826434  5.994543 46.526722
4294  1  3 0.0000 27.289982  0.137751 44.057783
4295  1  3 0.0000  1.458236 11.186100 43.276825
4296  1  3 0.0000  4.317777  7.117722 44.404875
4297  1  3 0.0000  0.755064 11.623770 47.646647
4298  1  3 0.0000  3.247957  9.503879 43.733169
4299  1  3 0.0000  1.931386  7.354318 43.610829
4300  1  3 0.0000  0.970630  8.029628 48.229974
4301  1  3 0.0000  2.555567  8.335539 46.023446
4302  1  3 0.0000  3.209533  9.111434 48.470858
4303  1  3 0.0000  3.248292 11.321449 45.459290
4304  1  3 0.0000  4.820418 10.937648 47.697718
4305  1  3 0.0000  5.495293 10.073201 45.402131
4306  1  3 0.0000  5.432918 12.723387 45.990069
4307  1  3 0.0000  5.786796  8.608691 48.725788
4308  1  3 0.0000  7.589573  6.872414 43.497720
4309  1  3 0.0000  9.588662 12.445257 48.875510
4310  1  3 0.0000  8.233456  7.942487 48.733880
4311  1  3 0.0000  8.382332  6.950101 46.171142
4312  1  3 0.0000  9.917607  7.598713 44.045649
4313  1  3 0.0000  7.855833 12.201013 46.944201
4314  1  3 0.0000  8.034276  9.178447 44.977077
4315  1  3 0.0000  7.049343 11.500049 43.931756
4316  1  3 0.0000  9.611422 10.342604 47.280208
4317  1  3 0.0000 10.495413  7.881080 47.450092
4318  1  3 0.0000  9.536153 12.453362 43.883970
4319  1  3 0.0000 10.412708 12.714029 46.320119
4320  1  3 0.0000 11.645145  9.535480 45.937151
4321  1  3 0.0000 13.351015  6.562822 48.930262
4322  1  3 0.0000 11.905003  9.857776 48.526008
4323  1  3 0.0000 11.976095 11.648669 44.435830
4324  1  3 0.0000 15.127705 11.778506 43.460575
4325  1  3 0.0000 14.442852  6.858720 44.225827
4326  1  3 0.0000 13.712675  9.382243 44.336410
4327  1  3 0.0000 16.915841  7.885111 45.979379
4328  1  3 0.0000 13.714884 11.121852 46.208148
4329  1  3 0.0000 16.163008 10.802466 45.690028
4330  1  3 0.0000 15.038422  9.118655 47.353609
4331  1  3 0.0000 15.469667 11.645227 48.040216
4332  1  3 0.0000 16.596918  7.413126 48.640293
4333  1  3 0.0000 17.475769 10.596167 43.557017
4334  1  3 0.0000 19.201381  6.677824 45.387343
4335  1  3 0.0000 17.997886  8.151187 43.584753
4336  1  3 0.0000 21.658663  6.656588 46.006735
4337  1  3 0.0000 21.148018  6.793071 43.548112
4338  1  3 0.0000 19.814293  9.942647 44.304429
4339  1  3 0.0000 21.185519  7.437945 48.451153
4340  1  3 0.0000 20.986838  9.137031 46.538583
4341  1  3 0.0000 23.473275  8.097949 47.106252
4342  1  3 0.0000 18.465948 11.805278 48.986026
4343  1  3 0.0000 24.094797  7.785238 44.696052
4344  1  3 0.0000 26.260533  8.128742 46.211732
4345  1  3 0.0000 28.918415  8.320309 46.536330
4346  1  3 0.0000  0.164437 12.718882 45.175095
4347  1  3 0.0000  3.561591 14.500225 44.072705
4348  1  3 0.0000  1.377040 15.835348 43.934466
4349  1  3 0.0000  1.317775 14.857388 48.386726
4350  1  3 0.0000  4.401603 18.786800 45.967125
4351  1  3 0.0000  2.682557 15.710237 46.215741
4352  1  3 0.0000  2.562047 17.091539 48.485845
4353  1  3 0.0000  3.738088 17.041471 44.185159
4354  1  3 0.0000  0.517186 16.879985 46.846984
4355  1  3 0.0000  5.791543 16.525133 45.661096
4356  1  3 0.0000  5.991744 16.958116 48.223916
4357  1  3 0.0000  6.249951 18.515800 44.075435
4358  1  3 0.0000 11.506111 17.502904 49.174174
4359  1  3 0.0000  6.875512 14.660959 47.258385
4360  1  3 0.0000  7.545696 13.823554 44.933176
4361  1  3 0.0000  9.809183 18.768733 46.051806
4362  1  3 0.0000  8.102174 16.923019 46.621185
4363  1  3 0.0000 10.484271 16.312121 47.126426
4364  1  3 0.0000  9.797656 16.494595 44.593106
4365  1  3 0.0000 11.310327 14.257308 44.409984
4366  1  3 0.0000 17.046952 13.028570 44.819242
4367  1  3 0.0000 15.016785 15.203195 49.054588
4368  1  3 0.0000 12.488027 15.094066 48.473286
4369  1  3 0.0000 13.719158 16.350502 45.149642
4370  1  3 0.0000 14.740729 17.142399 47.353120
4371  1  3 0.0000 12.748732 18.590830 46.421932
4372  1  3 0.0000 29.809980  7.662397 26.270906
4373  1  3 0.0000  0.053358 25.662116 43.347856
4374  1  3 0.0000  3.423480 20.260610 43.308810
4375  1  3 0.0000  1.654164 19.833457 45.200328
4376  1  3 0.0000  1.054441 21.381158 43.399750
4377  1  3 0.0000  2.890465 24.908633 45.793277
4378  1  3 0.0000  4.307536 20.787770 47.724511
4379  1  3 0.0000  4.966076 21.156672 45.165881
4380  1  3 0.0000  1.529875 24.128417 47.850736
4381  1  3 0.0000  4.186989 23.799266 47.756243
4382  1  3 0.0000  1.829773 20.276829 47.825494
4383  1  3 0.0000  2.362139 22.306081 46.281893
4384  1  3 0.0000  8.800166 19.726151 48.214422
4385  1  3 0.0000  6.544495 19.699625 46.972516
4386  1  3 0.0000  8.983286 22.927241 48.925804
4387  1  3 0.0000  6.305457 25.122853 44.225080
4388  1  3 0.0000  8.701332 25.139067 45.433147
4389  1  3 0.0000  8.232783 20.347941 43.826645
4390  1  3 0.0000 11.132739 20.620183 47.101275
4391  1  3 0.0000  6.601004 24.104714 46.638543
4392  1  3 0.0000 10.996097 23.846346 45.671414
4393  1  3 0.0000  8.901011 21.268838 46.124187
4394  1  3 0.0000 10.203097 22.165622 43.950468
4395  1  3 0.0000  7.692668 22.929839 44.477007
4396  1  3 0.0000  6.924360 21.416140 48.765844
4397  1  3 0.0000 12.766860 19.771856 48.791186
4398  1  3 0.0000  0.023977 23.862440 24.777218
4399  1  3 0.0000  0.101591 19.006075 40.496118
4400  1  3 0.0000  0.100220  8.988432 43.104529
4401  1  3 0.0000  5.257688  2.143428 49.269582
4402  1  3 0.0000  7.908390 15.711253 24.680756
4403  1  3 0.0000  2.910974 28.329719  5.046339
4404  1  3 0.0000  4.441098 29.056743  3.195591
4405  1  3 0.0000  2.380487 30.580865  4.168110
4406  1  3 0.0000  1.817824 28.523879  2.600739
4407  1  3 0.0000  2.715565 31.485379  1.487406
4408  1  3 0.0000  5.607267 27.584292  4.940843
4409  1  3 0.0000  0.435859 30.324324  1.310250
4410  1  3 0.0000  4.807223 26.044480  1.578168
4411  1  3 0.0000 29.762436 46.029358  2.531123
4412  1  3 0.0000  3.951972 27.899212  0.115790
4413  1  3 0.0000  5.059725 32.218871  2.339282
4414  1  3 0.0000  1.050439 32.384513  5.608118
4415  1  3 0.0000  1.678457 26.111650  5.679439
4416  1  3 0.0000  4.896328 32.500078  5.290817
4417  1  3 0.0000  2.423481 26.136496  0.756389
4418  1  3 0.0000  6.060542 30.146768  4.985572
4419  1  3 0.0000  7.240369 28.634227  3.366620
4420  1  3 0.0000  7.058298 30.717879  2.074739
4421  1  3 0.0000  8.708774 28.964174  1.269791
4422  1  3 0.0000 10.801517 28.037193  3.124241
4423  1  3 0.0000  9.033635 30.573266  3.544835
4424  1  3 0.0000  9.639240 28.369888  5.478841
4425  1  3 0.0000 10.077126 26.317462  0.907419
4426  1  3 0.0000  6.491878 27.892079  0.599976
4427  1  3 0.0000 11.809777 26.976187  5.224261
4428  1  3 0.0000 12.223605 31.956301  2.493372
4429  1  3 0.0000  2.818165 51.597259  5.110000
4430  1  3 0.0000 22.187513 51.558381  1.033104
4431  1  3 0.0000  0.234466 36.725935  6.005409
4432  1  3 0.0000  0.799575 32.786748  2.594858
4433  1  3 0.0000  2.965252 33.824883  3.829653
4434  1  3 0.0000  4.945719 35.063858  4.886811
4435  1  3 0.0000  2.239266 37.870447  0.757983
4436  1  3 0.0000  1.511457 35.320762  2.227364
4437  1  3 0.0000  0.592477 34.696375  4.475612
4438  1  3 0.0000  3.856449 33.537153  0.409775
4439  1  3 0.0000  1.468957 38.641382  4.532089
4440  1  3 0.0000 18.662149 51.527187 17.645765
4441  1  3 0.0000  0.031367 47.049268 12.241192
4442  1  3 0.0000  9.374393 32.340695  5.486276
4443  1  3 0.0000  7.453063 32.620515  3.710143
4444  1  3 0.0000  9.768994 32.961317  2.812268
4445  1  3 0.0000  7.288350 33.177630  1.279036
4446  1  3 0.0000  7.350281 36.322370  4.929658
4447  1  3 0.0000  7.414739 38.160085  2.453219
4448  1  3 0.0000  9.820659 35.268178  5.412000
4449  1  3 0.0000  9.641921 37.312078  3.902546
4450  1  3 0.0000  9.826048 37.603210  1.340400
4451  1  3 0.0000  8.139398 35.598284  1.797518
4452  1  3 0.0000 11.388099 34.355551  1.490823
4453  1  3 0.0000 11.776121 33.962338  4.174705
4454  1  3 0.0000 25.410674 45.703433 24.498936
4455  1  3 0.0000 11.941022 37.892759  2.821822
4456  1  3 0.0000 12.341026 36.154993  5.512762
4457  1  3 0.0000 14.659796 37.328711  5.171941
4458  1  3 0.0000 15.239194 35.347756  3.468295
4459  1  3 0.0000 14.579280 37.697304  2.537201
4460  1  3 0.0000  0.360704 43.585952  5.215330
4461  1  3 0.0000  5.812274 39.136646  0.876305
4462  1  3 0.0000  2.558132 42.576961  1.114319
4463  1  3 0.0000  4.328996 42.398017  2.858805
4464  1  3 0.0000  4.067884 40.957048  5.034087
4465  1  3 0.0000  3.026999 40.107227  2.899305
4466  1  3 0.0000  2.324642 43.865085  3.464041
4467  1  3 0.0000  3.904121 44.727591  1.587889
4468  1  3 0.0000  1.148596 41.181019  4.660390
4469  1  3 0.0000  0.483823 40.070911  2.374180
4470  1  3 0.0000  5.699708 40.096364  3.321265
4471  1  3 0.0000  5.284123 43.013944  5.985831
4472  1  3 0.0000 26.316511 48.366986 21.597890
4473  1  3 0.0000 10.793969 44.395810  0.958187
4474  1  3 0.0000  7.765326 40.597912  1.800699
4475  1  3 0.0000  9.996543 39.743900  2.837147
4476  1  3 0.0000  9.387685 42.265913  3.213020
4477  1  3 0.0000  7.137073 43.289239  4.071175
4478  1  3 0.0000  9.384634 44.698865  4.355513
4479  1  3 0.0000  8.551757 44.522638  2.035546
4480  1  3 0.0000 10.007572 41.515480  0.837767
4481  1  3 0.0000 11.625100 42.489105  5.393336
4482  1  3 0.0000 13.155386 39.582948  1.348505
4483  1  3 0.0000 16.063441 40.000501  4.371069
4484  1  3 0.0000 12.397710 43.775619  3.107629
4485  1  3 0.0000 14.749242 41.797371  2.991441
4486  1  3 0.0000 13.508510 39.686367  3.815372
4487  1  3 0.0000 17.214925 41.751570  2.086306
4488  1  3 0.0000 15.841518 43.976386  2.120874
4489  1  3 0.0000 13.927845 44.086696  5.230827
4490  1  3 0.0000 14.215698 41.354235  5.533899
4491  1  3 0.0000 16.414135 43.157344  5.401125
4492  1  3 0.0000 15.264308 41.844991  0.442792
4493  1  3 0.0000 17.896129 41.186795  5.834059
4494  1  3 0.0000 18.579597 40.051425  3.630890
4495  1  3 0.0000 18.950956 40.216589  0.931252
4496  1  3 0.0000 19.682780 42.245369  2.624812
4497  1  3 0.0000 21.244490 44.276653  3.588070
4498  1  3 0.0000 19.040053 43.349970  4.858808
4499  1  3 0.0000 21.302545 41.914293  4.736093
4500  1  3 0.0000 22.689163 42.737989  0.947045
4501  1  3 0.0000 23.924378 43.026657  3.178783
4502  1  3 0.0000 28.754310 43.243909  2.017662
4503  1  3 0.0000 26.252069 43.789715  2.237127
4504  1  3 0.0000 25.246545 44.623461  4.582971
4505  1  3 0.0000 27.962143 44.688352  4.470739
4506  1  3 0.0000  5.640081 45.223782  4.579052
4507  1  3 0.0000  1.381663 46.024043  4.829827
4508  1  3 0.0000  2.623075 48.145772  5.822617
4509  1  3 0.0000  5.444691 49.127346  2.156765
4510  1  3 0.0000  4.667025 47.608681  4.363445
4511  1  3 0.0000  1.130233 51.008221  3.297302
4512  1  3 0.0000  0.960135 49.225321  1.101089
4513  1  3 0.0000  1.434973 48.355562  3.496203
4514  1  3 0.0000  3.631645 50.778883  2.852258
4515  1  3 0.0000  4.879585 47.025521  0.606366
4516  1  3 0.0000  4.699323 49.907022  5.772240
4517  1  3 0.0000  5.266064 51.354561  0.819182
4518  1  3 0.0000  3.463397 49.514670  0.511483
4519  1  3 0.0000  0.020514 38.307131 17.916790
4520  1  3 0.0000 11.561371 45.342568  5.730625
4521  1  3 0.0000  6.437567 46.780544  2.695594
4522  1  3 0.0000  7.143699 47.462475  5.068119
4523  1  3 0.0000  9.749913 47.198564  5.032972
4524  1  3 0.0000 11.234909 45.967120  3.156263
4525  1  3 0.0000  9.541126 46.546561  0.685483
4526  1  3 0.0000  8.650243 49.511433  5.986082
4527  1  3 0.0000 11.023195 48.813698  0.643503
4528  1  3 0.0000  7.168439 48.151231  0.571234
4529  1  3 0.0000  9.197175 51.300999  1.835472
4530  1  3 0.0000 13.164096 45.595406  1.341519
4531  1  3 0.0000 12.978447 49.436251  5.539347
4532  1  3 0.0000 16.206131 45.931401  4.045259
4533  1  3 0.0000 12.381435 48.710368  2.995434
4534  1  3 0.0000 14.217669 50.429284  3.557475
4535  1  3 0.0000 12.849230 50.597997  1.478772
4536  1  3 0.0000 15.518964 46.606557  1.677846
4537  1  3 0.0000 14.572088 47.921491  4.145477
4538  1  3 0.0000 17.418421 50.036460  1.202270
4539  1  3 0.0000 17.119336 48.507123  4.286883
4540  1  3 0.0000 13.601287 48.185634  0.714506
4541  1  3 0.0000 15.393318 51.326930  1.472909
4542  1  3 0.0000 23.223162 45.360898  5.781839
4543  1  3 0.0000 17.964987 45.597960  2.167655
4544  1  3 0.0000 19.805072 50.267637  0.613927
4545  1  3 0.0000 22.199587 46.775192  3.229389
4546  1  3 0.0000 18.822502 50.647488  4.428386
4547  1  3 0.0000 19.472434 48.307922  5.407082
4548  1  3 0.0000 20.508668 45.734811  1.456442
4549  1  3 0.0000 18.925225 47.814481  1.005387
4550  1  3 0.0000 22.452475 49.200506  4.128862
4551  1  3 0.0000 22.791211 48.773994  1.476160
4552  1  3 0.0000 22.083760 50.747974  6.122546
4553  1  3 0.0000 28.024810 46.384457 21.834053
4554  1  3 0.0000 27.911701 45.359942  0.792178
4555  1  3 0.0000 26.829706 46.556080  2.897434
4556  1  3 0.0000 28.309487 47.488127  4.847744
4557  1  3 0.0000 24.543261 47.924009  3.284877
4558  1  3 0.0000 24.682308 46.335347  1.342768
4559  1  3 0.0000 26.318178 48.512725  1.402459
4560  1  3 0.0000 28.423566 49.767568  2.488419
4561  1  3 0.0000 26.070151 50.528455  4.352031
4562  1  3 0.0000 28.800209 47.883476  0.774990
4563  1  3 0.0000 24.347523 49.143825  5.939144
4564  1  3 0.0000 24.418214 51.235478  2.552424
4565  1  3 0.0000  1.008331 29.938211  6.259241
4566  1  3 0.0000  1.195755 27.299815 10.017579
4567  1  3 0.0000  5.364958 28.799851  9.332842
4568  1  3 0.0000  3.691603 30.807023  9.562792
4569  1  3 0.0000  3.804548 26.724728 10.025217
4570  1  3 0.0000  2.433480 27.540218  7.680185
4571  1  3 0.0000  4.818329 30.660937  7.283421
4572  1  3 0.0000  5.268867 28.089642 11.771359
4573  1  3 0.0000  0.619424 29.466023  8.874610
4574  1  3 0.0000  5.420122 30.641096 11.975009
4575  1  3 0.0000  6.100315 31.292912  9.577559
4576  1  3 0.0000 24.166755 49.260320 23.012969
4577  1  3 0.0000  1.863219 32.217606  8.144633
4578  1  3 0.0000  0.496245 51.572874  9.331019
4579  1  3 0.0000  7.474712 27.133956  6.594117
4580  1  3 0.0000  9.921950 26.250371  6.735919
4581  1  3 0.0000  6.508389 26.334524 10.242284
4582  1  3 0.0000  9.424397 31.112572  7.676909
4583  1  3 0.0000 10.032031 30.078835 10.022978
4584  1  3 0.0000  9.315916 28.102301 11.517024
4585  1  3 0.0000  9.325814 28.492903  7.990973
4586  1  3 0.0000  7.115040 31.747371  6.759467
4587  1  3 0.0000  7.677450 30.015106 11.129020
4588  1  3 0.0000 11.714666 29.759966  8.100994
4589  1  3 0.0000 11.504065 32.089703 11.954796
4590  1  3 0.0000 12.158584 28.146158  9.960383
4591  1  3 0.0000 12.231492 26.713794  7.835538
4592  1  3 0.0000 13.292077 30.724126  9.934538
4593  1  3 0.0000  1.696367 38.363467 24.569156
4594  1  3 0.0000  0.009752 51.161211 23.678978
4595  1  3 0.0000  3.078765 33.850534  6.415878
4596  1  3 0.0000  0.670207 34.371716  7.082414
4597  1  3 0.0000  1.126904 36.824432  9.018309
4598  1  3 0.0000  3.893938 33.371222  9.320896
4599  1  3 0.0000  4.852934 34.495638 11.350427
4600  1  3 0.0000  4.666140 35.814995  9.065028
4601  1  3 0.0000  3.176576 37.413853  7.663032
4602  1  3 0.0000  5.488596 36.939130  6.689668
4603  1  3 0.0000  0.574549 32.863883 10.691279
4604  1  3 0.0000  0.736623 36.640992 11.542081
4605  1  3 0.0000  3.650687 38.546221 11.978979
4606  1  3 0.0000  5.207496 38.503279  8.782524
4607  1  3 0.0000  9.054137 37.531910  6.513047
4608  1  3 0.0000  6.526116 34.119005  9.357330
4609  1  3 0.0000  8.604705 33.610494  7.765941
4610  1  3 0.0000  6.577315 34.658092  6.830946
4611  1  3 0.0000  9.528726 33.629223 11.353185
4612  1  3 0.0000  7.874576 36.227825  8.423246
4613  1  3 0.0000 11.031470 37.478569 11.160834
4614  1  3 0.0000  9.640189 37.894460  9.040821
4615  1  3 0.0000 11.405925 33.409555  9.560631
4616  1  3 0.0000  7.183041 32.641807 11.727954
4617  1  3 0.0000 11.377807 35.887733  8.861527
4618  1  3 0.0000 11.610100 34.041320  6.875657
4619  1  3 0.0000  8.574020 37.776785 12.201717
4620  1  3 0.0000  7.575391 35.222555 12.279517
4621  1  3 0.0000 11.874638 34.683823 11.760514
4622  1  3 0.0000 12.065801 38.510508  8.975187
4623  1  3 0.0000 14.279321 32.754122 11.449135
4624  1  3 0.0000 14.103490 36.746408  7.515250
4625  1  3 0.0000 13.579979 34.385759  8.421506
4626  1  3 0.0000 14.651745 36.074208 10.142941
4627  1  3 0.0000 12.550124 38.605040  6.500031
4628  1  3 0.0000 15.443758 37.007547 12.610402
4629  1  3 0.0000 26.720085 46.431387 19.679528
4630  1  3 0.0000  1.178962 38.855974  7.142797
4631  1  3 0.0000  2.335771 38.969177  9.720275
4632  1  3 0.0000  0.244537 42.653424 11.875767
4633  1  3 0.0000  1.979728 44.333668  8.216877
4634  1  3 0.0000  1.591539 41.964608  9.143299
4635  1  3 0.0000  3.173886 42.072892  7.145374
4636  1  3 0.0000  4.040823 43.265721  9.248973
4637  1  3 0.0000  3.877128 40.685148 10.721815
4638  1  3 0.0000  1.638797 40.380059 11.934067
4639  1  3 0.0000  5.462638 40.558728  7.061098
4640  1  3 0.0000  5.608497 42.346112 11.811465
4641  1  3 0.0000  5.615665 44.660894 10.688230
4642  1  3 0.0000  5.896174 39.785370 11.818411
4643  1  3 0.0000  7.401918 44.293804  6.389720
4644  1  3 0.0000  6.235172 40.807284  9.585526
4645  1  3 0.0000  7.561039 39.064552  7.997121
4646  1  3 0.0000  6.746015 43.380826  8.733173
4647  1  3 0.0000 10.690106 40.346654  7.740989
4648  1  3 0.0000  8.939504 42.357781  7.685180
4649  1  3 0.0000  9.268191 40.875921  9.976778
4650  1  3 0.0000  8.851555 43.096153 11.312830
4651  1  3 0.0000 11.066007 42.559428  9.241693
4652  1  3 0.0000  9.017344 44.803938  8.277723
4653  1  3 0.0000 10.927763 45.093406 10.402879
4654  1  3 0.0000 10.669117 41.231326 12.155414
4655  1  3 0.0000 13.792554 38.759245 12.060720
4656  1  3 0.0000 14.989138 39.069042  9.683170
4657  1  3 0.0000 12.449338 44.593763  8.204952
4658  1  3 0.0000 12.994082 43.616423 10.662396
4659  1  3 0.0000 13.097356 40.780300  7.957255
4660  1  3 0.0000 13.766181 41.053045 10.908712
4661  1  3 0.0000 15.458689 40.162587  7.337512
4662  1  3 0.0000 15.536434 42.879276 10.719781
4663  1  3 0.0000 14.808499 42.705198  7.434625
4664  1  3 0.0000 15.995570 40.183385 11.688653
4665  1  3 0.0000 17.053277 40.471904  9.369463
4666  1  3 0.0000 17.511206 44.212060  9.947386
4667  1  3 0.0000 15.535544 45.029011  7.130660
4668  1  3 0.0000 17.951379 41.897087 11.093043
4669  1  3 0.0000 18.121248 38.934329 11.074006
4670  1  3 0.0000 18.043626 43.379395  7.331190
4671  1  3 0.0000 21.675814 43.609518  7.346607
4672  1  3 0.0000 20.887150 41.680662  9.168024
4673  1  3 0.0000 19.871491 44.115861  9.000295
4674  1  3 0.0000 22.325570 43.830823  9.867310
4675  1  3 0.0000 20.472030 40.897840 11.644165
4676  1  3 0.0000 19.866469 44.976682 11.933226
4677  1  3 0.0000 29.274481 44.753353  7.208170
4678  1  3 0.0000 24.742032 43.700182  7.121175
4679  1  3 0.0000 25.464813 42.624708  9.475501
4680  1  3 0.0000 28.150504 42.929106 11.160936
4681  1  3 0.0000 27.206345 44.948576  8.719770
4682  1  3 0.0000 29.534671 43.323910  9.215478
4683  1  3 0.0000 29.223460 45.303310 11.932602
4684  1  3 0.0000  0.202329 51.308150  6.802548
4685  1  3 0.0000  5.060112 45.299124  8.238495
4686  1  3 0.0000  2.219333 50.156885  8.081327
4687  1  3 0.0000  1.255524 45.965280 10.192325
4688  1  3 0.0000  4.863111 47.569143  6.985612
4689  1  3 0.0000  2.932580 46.731442  8.526435
4690  1  3 0.0000  4.622075 49.275138 11.459337
4691  1  3 0.0000  4.681581 49.879391  8.973800
4692  1  3 0.0000  5.238002 47.466576  9.586720
4693  1  3 0.0000  0.465743 46.520513  7.773568
4694  1  3 0.0000  2.643733 47.614514 11.734450
4695  1  3 0.0000  8.845156 51.153846 10.711378
4696  1  3 0.0000  8.997571 45.676949 11.908010
4697  1  3 0.0000  6.945830 49.445670 10.186842
4698  1  3 0.0000  8.091174 50.723516  8.188327
4699  1  3 0.0000  9.434443 46.985158  9.724287
4700  1  3 0.0000  8.450222 47.252355  7.283021
4701  1  3 0.0000 10.940612 46.639112  7.817143
4702  1  3 0.0000 11.136187 47.400390 11.720028
4703  1  3 0.0000 10.610875 50.028416  7.748120
4704  1  3 0.0000 11.582978 49.146986  9.911824
4705  1  3 0.0000 15.024292 51.038031  6.382578
4706  1  3 0.0000 15.956841 47.447966  6.301761
4707  1  3 0.0000 17.500215 49.866916  6.450627
4708  1  3 0.0000 16.375973 50.835206 11.049380
4709  1  3 0.0000 13.480801 46.682015  6.980616
4710  1  3 0.0000 13.523494 47.623701 10.536951
4711  1  3 0.0000 15.429846 46.922038  8.845514
4712  1  3 0.0000 16.119105 48.309815 10.751019
4713  1  3 0.0000 15.124094 45.955184 11.504043
4714  1  3 0.0000 15.999670 49.870929  8.668487
4715  1  3 0.0000 13.119528 50.209445  7.990330
4716  1  3 0.0000 12.700295 49.490858 12.366348
4717  1  3 0.0000 21.851024 48.322810  6.602453
4718  1  3 0.0000 18.095027 45.938199  8.255186
4719  1  3 0.0000 20.761164 45.986163  6.404246
4720  1  3 0.0000 22.382210 51.262546 11.326776
4721  1  3 0.0000 22.682755 51.161694  8.537886
4722  1  3 0.0000 22.780503 45.662717  8.265273
4723  1  3 0.0000 19.676874 47.880650  7.919367
4724  1  3 0.0000 20.204375 50.617104  8.283306
4725  1  3 0.0000 19.146937 46.966038 10.431905
4726  1  3 0.0000 21.047342 49.268330 10.284148
4727  1  3 0.0000 18.301459 49.382474  9.783510
4728  1  3 0.0000 21.707037 46.222579 10.520775
4729  1  3 0.0000 23.150844 48.692976 11.972464
4730  1  3 0.0000 19.847959 51.389484 10.635445
4731  1  3 0.0000 26.553456 45.058963 11.786832
4732  1  3 0.0000 12.084828 25.860426  2.459732
4733  1  3 0.0000 27.141030 49.223468  6.356598
4734  1  3 0.0000 24.273689 45.446567 10.470701
4735  1  3 0.0000 29.135532 50.610552 11.994667
4736  1  3 0.0000 29.093908 47.880217 11.479993
4737  1  3 0.0000 25.570819 46.072884  6.845347
4738  1  3 0.0000 24.561899 49.291971  9.187675
4739  1  3 0.0000 26.063153 47.291483  9.249978
4740  1  3 0.0000 27.882364 47.078598  7.408055
4741  1  3 0.0000 25.762271 48.648319 11.517313
4742  1  3 0.0000 27.040140 49.842235  9.530079
4743  1  3 0.0000 29.472734 45.899273  9.503882
4744  1  3 0.0000 24.922197 51.282116  7.306947
4745  1  3 0.0000 10.340616 51.573817  4.402481
4746  1  3 0.0000  1.575015 31.236262 12.456590
4747  1  3 0.0000  1.116338 27.970280 17.908887
4748  1  3 0.0000  1.804160 30.511846 17.487771
4749  1  3 0.0000  1.790246 28.648284 13.082634
4750  1  3 0.0000  4.058456 29.305561 13.738621
4751  1  3 0.0000  2.479195 28.594486 15.694623
4752  1  3 0.0000  4.596691 31.113982 15.749727
4753  1  3 0.0000  3.365352 26.726378 13.934399
4754  1  3 0.0000  3.999854 31.452330 18.293565
4755  1  3 0.0000  3.573821 28.692862 18.111569
4756  1  3 0.0000  0.639319 26.078597 16.203595
4757  1  3 0.0000  7.985699 26.110969 12.412385
4758  1  3 0.0000  9.702904 30.356714 12.599062
4759  1  3 0.0000  6.636090 29.188248 13.789970
4760  1  3 0.0000  8.853871 27.900383 14.053435
4761  1  3 0.0000  8.057186 29.248299 16.056211
4762  1  3 0.0000  6.523851 30.831034 17.497142
4763  1  3 0.0000  6.670878 27.150295 15.359026
4764  1  3 0.0000 11.727027 31.249220 18.199215
4765  1  3 0.0000  8.469598 31.805741 16.036446
4766  1  3 0.0000 10.606775 26.348696 12.793134
4767  1  3 0.0000 10.570453 31.852293 14.490608
4768  1  3 0.0000  9.144600 30.468447 18.209599
4769  1  3 0.0000 11.934914 27.878458 15.113357
4770  1  3 0.0000 12.152501 29.985237 13.450634
4771  1  3 0.0000 12.264461 28.078515 17.712186
4772  1  3 0.0000  2.392347 33.773183 12.323889
4773  1  3 0.0000  2.395159 32.405354 15.093454
4774  1  3 0.0000  4.392130 32.685440 13.435901
4775  1  3 0.0000  2.091760 36.927535 13.911864
4776  1  3 0.0000  1.945661 33.064363 17.570587
4777  1  3 0.0000  2.487788 34.955089 15.703543
4778  1  3 0.0000  4.133844 35.270041 13.784221
4779  1  3 0.0000  4.074588 36.958472 15.702523
4780  1  3 0.0000  2.486046 37.692810 17.533634
4781  1  3 0.0000  5.249405 33.223459 16.887201
4782  1  3 0.0000  0.213103 33.870719 15.730723
4783  1  3 0.0000  4.912495 37.493012 18.287383
4784  1  3 0.0000 13.641597 44.558998 24.607101
4785  1  3 0.0000  5.972550 37.335773 12.460876
4786  1  3 0.0000 10.457728 36.292144 13.247256
4787  1  3 0.0000  7.458130 37.823437 16.750741
4788  1  3 0.0000  7.689862 36.724848 14.408908
4789  1  3 0.0000  8.644473 33.450648 13.822843
4790  1  3 0.0000 10.235984 33.888970 16.000354
4791  1  3 0.0000  6.509096 35.365956 16.291318
4792  1  3 0.0000  8.976001 35.886453 16.706519
4793  1  3 0.0000 11.272250 35.011204 18.101270
4794  1  3 0.0000 11.256035 36.524989 16.086690
4795  1  3 0.0000  7.677648 33.699297 17.937146
4796  1  3 0.0000  9.873667 38.729698 16.653398
4797  1  3 0.0000 12.028176 37.795288 18.169498
4798  1  3 0.0000 12.089417 34.453088 14.302092
4799  1  3 0.0000 12.837199 32.944939 16.394868
4800  1  3 0.0000 14.178592 33.164538 14.025642
4801  1  3 0.0000 13.017719 36.636037 13.223619
4802  1  3 0.0000 16.398098 36.794790 15.693557
4803  1  3 0.0000 14.258927 35.055624 15.748527
4804  1  3 0.0000 14.347099 37.812751 17.323604
4805  1  3 0.0000 14.425392 38.349683 14.615299
4806  1  3 0.0000 27.921245 51.458363 20.809077
4807  1  3 0.0000  0.784105 39.842342 16.121524
4808  1  3 0.0000  5.143776 39.225675 14.091081
4809  1  3 0.0000  2.675537 42.673342 12.805081
4810  1  3 0.0000  4.475353 44.395091 13.001476
4811  1  3 0.0000  4.347323 39.382229 16.665843
4812  1  3 0.0000  0.817965 41.611466 14.215616
4813  1  3 0.0000  5.147009 41.559418 15.335501
4814  1  3 0.0000  2.887481 40.279580 14.646479
4815  1  3 0.0000  2.240262 41.968131 16.493263
4816  1  3 0.0000  2.540923 44.268429 14.853527
4817  1  3 0.0000  1.671725 44.476897 17.148096
4818  1  3 0.0000  3.866363 43.795408 17.994771
4819  1  3 0.0000  5.796566 44.121037 15.754383
4820  1  3 0.0000 10.761020 38.874290 13.305963
4821  1  3 0.0000  7.078873 44.250232 12.834850
4822  1  3 0.0000  8.297132 41.026789 12.786092
4823  1  3 0.0000  6.471164 42.374052 17.582802
4824  1  3 0.0000  9.602331 43.779792 13.664608
4825  1  3 0.0000  7.827076 39.886074 15.400807
4826  1  3 0.0000  7.586755 42.312403 15.115009
4827  1  3 0.0000  9.983868 41.019382 14.678124
4828  1  3 0.0000 10.795019 44.267452 16.035418
4829  1  3 0.0000  8.381889 40.006362 18.147440
4830  1  3 0.0000 10.883644 42.871257 18.218826
4831  1  3 0.0000 12.424764 38.924524 15.997766
4832  1  3 0.0000 12.187243 43.666483 13.857689
4833  1  3 0.0000 17.028867 39.399507 15.415662
4834  1  3 0.0000 14.293350 42.614656 12.902263
4835  1  3 0.0000 17.171717 43.875745 12.622364
4836  1  3 0.0000 12.486617 40.980372 13.943188
4837  1  3 0.0000 13.761534 42.495187 15.595693
4838  1  3 0.0000 14.584274 40.210928 16.566848
4839  1  3 0.0000 15.652515 42.347673 17.565960
4840  1  3 0.0000 16.561351 42.144818 14.494284
4841  1  3 0.0000 12.471570 45.044740 17.900544
4842  1  3 0.0000 15.316383 44.791715 13.978015
4843  1  3 0.0000 13.089896 41.734360 18.044846
4844  1  3 0.0000 17.500323 44.358551 15.342737
4845  1  3 0.0000 18.395182 40.458825 13.459066
4846  1  3 0.0000 20.823827 40.816582 14.330363
4847  1  3 0.0000 21.069823 42.350995 16.275886
4848  1  3 0.0000 19.652021 42.764144 13.322039
4849  1  3 0.0000 18.721594 41.245856 15.776736
4850  1  3 0.0000 21.886553 43.972714 13.010103
4851  1  3 0.0000 23.149700 43.557902 15.080390
4852  1  3 0.0000 21.724060 44.716240 17.111297
4853  1  3 0.0000 23.385789 41.729297 13.169352
4854  1  3 0.0000 23.276207 42.540826 17.487473
4855  1  3 0.0000 19.923445 45.019681 14.598710
4856  1  3 0.0000 24.446458 44.083318 12.771286
4857  1  3 0.0000 27.971442 43.629095 13.534620
4858  1  3 0.0000 27.659290 42.553664 15.785081
4859  1  3 0.0000 26.262670 44.661980 15.118021
4860  1  3 0.0000 28.874141 45.060360 15.471370
4861  1  3 0.0000 26.311879 48.541419 24.275229
4862  1  3 0.0000  2.015875 45.206248 12.584972
4863  1  3 0.0000  0.416801 45.922697 15.372569
4864  1  3 0.0000  5.323403 45.960341 17.496461
4865  1  3 0.0000  0.530100 49.885201 13.883360
4866  1  3 0.0000  2.995746 49.473410 13.517966
4867  1  3 0.0000  2.076767 49.081327 15.980344
4868  1  3 0.0000  2.942311 46.531962 16.119896
4869  1  3 0.0000  4.659673 48.503948 15.998908
4870  1  3 0.0000  4.676677 47.625649 13.480321
4871  1  3 0.0000  3.176914 48.009262 18.244960
4872  1  3 0.0000  2.357401 51.432417 14.991208
4873  1  3 0.0000  7.848653 45.318947 16.769391
4874  1  3 0.0000 10.025179 45.474784 18.202004
4875  1  3 0.0000 10.643035 51.044281 12.626283
4876  1  3 0.0000  6.401909 46.653770 15.219547
4877  1  3 0.0000  7.127024 50.779350 17.395667
4878  1  3 0.0000  8.163483 50.637793 13.223588
4879  1  3 0.0000  6.665640 49.204855 14.568667
4880  1  3 0.0000  8.933772 50.086396 15.757614
4881  1  3 0.0000 10.673888 45.942442 14.122449
4882  1  3 0.0000  9.082514 48.234598 13.891293
4883  1  3 0.0000  9.709298 47.170333 16.137887
4884  1  3 0.0000 11.578620 48.207365 14.622245
4885  1  3 0.0000  8.381488 47.380632 18.230111
4886  1  3 0.0000  9.391996 50.264211 18.583560
4887  1  3 0.0000 12.338750 50.966267 14.654492
4888  1  3 0.0000 12.204734 49.925652 17.166630
4889  1  3 0.0000 14.479860 50.782392 16.117520
4890  1  3 0.0000 14.926981 45.670138 17.231792
4891  1  3 0.0000 12.901567 46.363832 15.748013
4892  1  3 0.0000 13.708784 46.899020 13.365763
4893  1  3 0.0000 14.158598 48.555526 15.116411
4894  1  3 0.0000 16.316306 47.175921 13.483781
4895  1  3 0.0000 16.611798 49.071470 15.282800
4896  1  3 0.0000 13.331368 47.597913 18.033804
4897  1  3 0.0000 15.285129 50.506080 13.558471
4898  1  3 0.0000 17.018982 47.040506 18.143973
4899  1  3 0.0000 17.609830 51.244036 13.289055
4900  1  3 0.0000 16.339663 49.516224 18.532538
4901  1  3 0.0000 19.159412 45.276845 17.130360
4902  1  3 0.0000 18.184956 46.805492 15.253620
4903  1  3 0.0000 20.639296 47.257209 12.660342
4904  1  3 0.0000 19.086624 50.639617 15.345272
4905  1  3 0.0000 20.797264 49.740908 12.688729
4906  1  3 0.0000 18.572157 48.488619 13.495524
4907  1  3 0.0000 20.977055 50.274003 16.814711
4908  1  3 0.0000 18.698163 48.937049 17.444487
4909  1  3 0.0000 22.969385 48.588982 16.537604
4910  1  3 0.0000 20.966883 48.521773 14.941045
4911  1  3 0.0000 22.670944 50.458480 14.665160
4912  1  3 0.0000 23.450201 46.703373 18.400805
4913  1  3 0.0000 28.806732 48.790697 23.863867
4914  1  3 0.0000 29.120561 51.520525 18.345603
4915  1  3 0.0000 24.618018 46.660491 12.702664
4916  1  3 0.0000 24.496132 51.209816 12.752945
4917  1  3 0.0000 25.496320 50.853812 17.798803
4918  1  3 0.0000 25.391259 48.320327 17.730407
4919  1  3 0.0000 24.504138 46.498542 16.020009
4920  1  3 0.0000 24.734397 49.070494 13.974386
4921  1  3 0.0000 26.841423 46.104298 17.136701
4922  1  3 0.0000 26.754219 47.231130 14.869414
4923  1  3 0.0000 28.177219 48.918735 13.687820
4924  1  3 0.0000 27.119319 49.434359 16.203410
4925  1  3 0.0000 29.067358 47.663122 15.830385
4926  1  3 0.0000  2.990610 29.850645 24.148185
4927  1  3 0.0000  4.739163 30.013710 22.309464
4928  1  3 0.0000  4.087007 26.654468 19.673281
4929  1  3 0.0000  5.241880 29.124000 19.934382
4930  1  3 0.0000  2.823240 28.628259 20.674956
4931  1  3 0.0000  1.057845 28.402040 22.755088
4932  1  3 0.0000  1.119967 26.647817 20.987602
4933  1  3 0.0000  2.011703 31.777355 19.868240
4934  1  3 0.0000  2.732211 31.733172 22.328011
4935  1  3 0.0000  4.652817 31.799906 24.074742
4936  1  3 0.0000  5.452495 31.868196 20.701612
4937  1  3 0.0000  0.393585 29.207636 20.351945
4938  1  3 0.0000  0.120861 48.127998  5.809922
4939  1  3 0.0000  5.881636 26.334577 21.986384
4940  1  3 0.0000 11.371731 26.314831 23.703111
4941  1  3 0.0000 11.375091 30.519967 23.421326
4942  1  3 0.0000  7.193324 30.161021 21.253847
4943  1  3 0.0000  7.218428 28.541350 23.312293
4944  1  3 0.0000 10.758633 30.792737 20.528078
4945  1  3 0.0000 10.868385 27.482294 19.828938
4946  1  3 0.0000  9.377794 29.456951 22.228858
4947  1  3 0.0000  7.802160 27.660329 20.920117
4948  1  3 0.0000  9.687968 32.160952 22.420920
4949  1  3 0.0000 27.470041 49.600298 18.912570
4950  1  3 0.0000 13.090992 28.897047 20.196171
4951  1  3 0.0000 14.005264 30.176249 22.248415
4952  1  3 0.0000  5.690616 35.050671 18.746771
4953  1  3 0.0000  0.394219 38.330611 22.374239
4954  1  3 0.0000  0.909973 35.831843 21.836954
4955  1  3 0.0000  0.987381 34.239236 24.032057
4956  1  3 0.0000  0.782577 33.350049 21.544183
4957  1  3 0.0000  1.478540 37.623523 19.980912
4958  1  3 0.0000  3.838817 35.174683 22.973747
4959  1  3 0.0000  3.171246 34.012087 20.838886
4960  1  3 0.0000  4.506032 36.414433 20.626854
4961  1  3 0.0000  5.705285 34.345237 21.412211
4962  1  3 0.0000  5.981967 38.620032 23.270143
4963  1  3 0.0000 25.438835 45.985886 21.886587
4964  1  3 0.0000  6.828685 32.489567 22.821942
4965  1  3 0.0000  9.877505 32.857532 19.117101
4966  1  3 0.0000  9.309692 37.958168 19.269433
4967  1  3 0.0000  8.854710 35.323356 19.595452
4968  1  3 0.0000  7.757684 33.047612 20.430856
4969  1  3 0.0000  6.897622 37.058655 19.810226
4970  1  3 0.0000 11.256346 33.956296 23.093884
4971  1  3 0.0000  7.062675 36.377436 23.279480
4972  1  3 0.0000  8.795877 37.097070 21.539391
4973  1  3 0.0000  8.848472 34.632240 22.473454
4974  1  3 0.0000  9.631759 36.773501 23.839386
4975  1  3 0.0000 11.759735 37.733736 22.530779
4976  1  3 0.0000 11.988084 34.775131 20.776011
4977  1  3 0.0000 13.140022 33.390641 18.907845
4978  1  3 0.0000 13.563038 35.965483 19.091877
4979  1  3 0.0000 13.156062 32.717029 21.859788
4980  1  3 0.0000 13.581596 35.099958 22.978156
4981  1  3 0.0000 15.735849 38.111177 22.033564
4982  1  3 0.0000 13.950689 38.297140 19.957432
4983  1  3 0.0000 14.750621 37.020308 24.193383
4984  1  3 0.0000  2.001424 39.860417 18.798466
4985  1  3 0.0000  1.920155 42.432764 19.017517
4986  1  3 0.0000  0.796059 40.801366 20.809780
4987  1  3 0.0000  3.114402 43.009696 24.076180
4988  1  3 0.0000  3.485273 41.075741 20.598032
4989  1  3 0.0000  1.757954 43.616299 21.753237
4990  1  3 0.0000  4.342876 43.300875 21.659871
4991  1  3 0.0000  5.132835 41.013258 22.537863
4992  1  3 0.0000  5.874863 44.269691 19.329799
4993  1  3 0.0000  4.830402 51.440928 16.158586
4994  1  3 0.0000  5.955201 41.826414 20.124310
4995  1  3 0.0000 10.856484 40.382383 18.909037
4996  1  3 0.0000  9.877461 39.318732 23.327410
4997  1  3 0.0000  9.175470 40.089286 20.806748
4998  1  3 0.0000  8.159755 43.209980 19.652776
4999  1  3 0.0000  7.679153 40.624226 22.787939
5000  1  3 0.0000 10.139158 44.003532 21.181236
5001  1  3 0.0000 10.277058 41.747208 22.442941
5002  1  3 0.0000  7.658045 43.992343 22.113018
5003  1  3 0.0000 11.958789 42.167428 20.434169
5004  1  3 0.0000 12.242758 43.461550 22.723771
5005  1  3 0.0000 16.755172 44.470239 18.730328
5006  1  3 0.0000 16.271914 39.086453 19.678375
5007  1  3 0.0000 16.980558 41.369728 22.228960
5008  1  3 0.0000 15.814370 42.606137 20.243503
5009  1  3 0.0000 14.826473 42.852459 22.776508
5010  1  3 0.0000 14.722798 40.430946 21.342954
5011  1  3 0.0000  9.156884 27.506388 24.566895
5012  1  3 0.0000 17.884215 43.375904 23.521265
5013  1  3 0.0000 18.009035 42.318629 18.775462
5014  1  3 0.0000 18.954972 42.762330 21.077648
5015  1  3 0.0000 19.491761 41.391720 23.263086
5016  1  3 0.0000 20.146915 43.935790 19.078400
5017  1  3 0.0000 22.397985 43.096869 21.403358
5018  1  3 0.0000 23.348377 44.888850 23.087334
5019  1  3 0.0000 29.080464 44.746245 23.709806
5020  1  3 0.0000 26.381418 43.959003 18.525400
5021  1  3 0.0000 24.002118 41.043567 22.019931
5022  1  3 0.0000 28.369378 43.732796 21.336048
5023  1  3 0.0000 25.667310 43.607967 23.141085
5024  1  3 0.0000 24.825143 42.890540 20.381809
5025  1  3 0.0000 28.775347 45.184726 18.649498
5026  1  3 0.0000  0.328674 51.018696 20.818086
5027  1  3 0.0000  3.297338 45.276802 23.239566
5028  1  3 0.0000  2.813173 50.520635 19.933158
5029  1  3 0.0000  4.289105 51.179825 23.774438
5030  1  3 0.0000  0.634687 49.588717 18.749473
5031  1  3 0.0000  1.628643 47.097466 23.100482
5032  1  3 0.0000  1.352210 49.408877 22.407710
5033  1  3 0.0000  3.698149 45.872570 19.636633
5034  1  3 0.0000  1.739719 47.434133 20.472902
5035  1  3 0.0000  4.176199 48.070069 20.811319
5036  1  3 0.0000  4.285631 47.484561 24.105341
5037  1  3 0.0000  0.038543 29.428997 11.399733
5038  1  3 0.0000  5.953328 50.122047 20.839909
5039  1  3 0.0000  8.404295 49.914307 24.442878
5040  1  3 0.0000  6.318243 45.715857 23.649995
5041  1  3 0.0000  8.894263 45.643278 23.643716
5042  1  3 0.0000  6.222914 48.095824 22.417219
5043  1  3 0.0000 10.584163 51.094436 23.703859
5044  1  3 0.0000 11.404973 48.801189 19.333349
5045  1  3 0.0000 10.493500 50.543556 21.029016
5046  1  3 0.0000  8.358174 45.844634 20.438005
5047  1  3 0.0000  6.536188 47.669485 19.954773
5048  1  3 0.0000  9.095637 48.369504 20.416380
5049  1  3 0.0000 10.894890 47.194696 22.902137
5050  1  3 0.0000 26.438969 50.649550 22.753837
5051  1  3 0.0000 16.799101 45.505349 24.346553
5052  1  3 0.0000 12.303376 49.403610 22.574123
5053  1  3 0.0000 13.129231 47.172754 24.010367
5054  1  3 0.0000 17.122055 48.006460 23.478432
5055  1  3 0.0000 16.106261 50.999865 20.668656
5056  1  3 0.0000 13.879960 49.806633 19.221728
5057  1  3 0.0000 15.401878 48.525046 20.727984
5058  1  3 0.0000 15.632312 46.345334 22.208605
5059  1  3 0.0000 15.084350 46.148949 19.718933
5060  1  3 0.0000 13.280519 47.249967 21.399148
5061  1  3 0.0000 20.818691 45.282642 22.116077
5062  1  3 0.0000 19.069768 49.688056 24.354524
5063  1  3 0.0000 21.699749 49.645682 23.693202
5064  1  3 0.0000 22.450307 50.572909 21.432442
5065  1  3 0.0000 20.538236 49.737424 20.009076
5066  1  3 0.0000 19.834291 46.601752 24.176736
5067  1  3 0.0000 18.273928 46.072219 22.232531
5068  1  3 0.0000 18.186604 48.445046 19.971908
5069  1  3 0.0000 22.868745 45.562886 20.665806
5070  1  3 0.0000 22.482410 48.187642 20.324429
5071  1  3 0.0000 20.932705 46.426508 18.932162
5072  1  3 0.0000 18.594333 50.471039 21.502206
5073  1  3 0.0000 23.107362 50.322301 18.925773
5074  1  3 0.0000 19.973755 47.921242 21.881302
5075  1  3 0.0000  0.104722 42.139789 24.523675
5076  1  3 0.0000  0.923631 51.528793 11.857446
5077  1  3 0.0000  0.218395 44.887296 19.832786
5078  1  3 0.0000  3.247348 25.893955 22.179355
5079  1  3 0.0000  2.942649 51.653531  9.993237
5080  1  3 0.0000 24.628966 51.629531 10.061527
5081  1  3 0.0000  5.177572 51.610508 18.841443
5082  1  3 0.0000  7.635965 37.600049  0.042341
5083  1  3 0.0000 27.840188 50.128484  0.001061
5084  1  3 0.0000  1.393924 28.340451  0.081767
5085  1  3 0.0000  3.105781 30.519007 29.780743
5086  1  3 0.0000  4.077235 27.850661 28.179886
5087  1  3 0.0000  4.673254 29.838153 26.126623
5088  1  3 0.0000  5.501712 29.919254 29.273117
5089  1  3 0.0000  2.284723 28.740546 26.299466
5090  1  3 0.0000  0.492825 27.872437 27.962595
5091  1  3 0.0000  2.167358 27.210735 30.407331
5092  1  3 0.0000  0.588491 29.691535 29.736006
5093  1  3 0.0000  0.791899 27.243726 25.131073
5094  1  3 0.0000  2.288445 26.342837 27.086524
5095  1  3 0.0000  1.277146 32.083689 28.844818
5096  1  3 0.0000  4.223300 27.649801 24.797094
5097  1  3 0.0000  4.758576 27.842919 30.559907
5098  1  3 0.0000  6.577811 27.464569 28.693842
5099  1  3 0.0000  8.297744 30.912891 27.498832
5100  1  3 0.0000  9.162421 27.719376 28.726333
5101  1  3 0.0000  7.492856 28.996384 25.879698
5102  1  3 0.0000 11.035115 26.785135 30.281122
5103  1  3 0.0000 10.520362 29.351458 30.414119
5104  1  3 0.0000  9.521537 30.426273 25.258779
5105  1  3 0.0000  7.107587 31.509291 25.161155
5106  1  3 0.0000  6.661845 26.678182 24.976432
5107  1  3 0.0000 11.603301 31.788899 25.825411
5108  1  3 0.0000 10.712162 26.257841 26.285274
5109  1  3 0.0000  8.129556 32.441639 29.689208
5110  1  3 0.0000 11.880471 29.193668 25.734389
5111  1  3 0.0000  4.805921 32.514981 29.600352
5112  1  3 0.0000  3.571834 32.507836 27.491870
5113  1  3 0.0000  3.236828 34.487845 25.353785
5114  1  3 0.0000  4.952216 34.691907 28.001906
5115  1  3 0.0000  4.295238 37.068024 28.896329
5116  1  3 0.0000  1.750467 37.000451 29.138333
5117  1  3 0.0000  1.263236 33.138511 26.418833
5118  1  3 0.0000  2.233313 34.484395 28.446007
5119  1  3 0.0000  2.844660 37.925410 26.977613
5120  1  3 0.0000  1.178419 35.732529 26.147985
5121  1  3 0.0000  0.539317 34.945696 30.350897
5122  1  3 0.0000  0.031933 32.178011 35.946262
5123  1  3 0.0000 11.336544 37.807936 25.223304
5124  1  3 0.0000  6.382278 32.672484 27.649647
5125  1  3 0.0000  6.412460 35.656697 29.931815
5126  1  3 0.0000  6.556468 36.800196 27.627675
5127  1  3 0.0000 10.544696 35.322011 26.366931
5128  1  3 0.0000  8.983438 37.633969 27.164034
5129  1  3 0.0000  8.955555 33.429754 27.377263
5130  1  3 0.0000  8.041715 35.444156 26.084168
5131  1  3 0.0000  7.207763 37.795466 25.330711
5132  1  3 0.0000  9.349393 33.537848 24.761320
5133  1  3 0.0000 11.920319 37.062698 27.628159
5134  1  3 0.0000  9.875760 38.553820 29.499714
5135  1  3 0.0000 10.005129 33.800293 30.933114
5136  1  3 0.0000 13.671534 35.378469 28.544521
5137  1  3 0.0000 14.345037 37.586462 27.416500
5138  1  3 0.0000 12.453853 33.027077 28.053653
5139  1  3 0.0000 13.172170 37.514246 29.963853
5140  1  3 0.0000 12.859349 35.703324 25.511268
5141  1  3 0.0000 15.376434 38.439354 30.741497
5142  1  3 0.0000 17.256475 38.665407 28.846676
5143  1  3 0.0000 18.236050 38.011990 26.684203
5144  1  3 0.0000  2.923616 39.331705 29.193958
5145  1  3 0.0000  2.703103 41.786599 29.642060
5146  1  3 0.0000  1.937284 42.500551 26.393381
5147  1  3 0.0000  4.632790 43.470301 28.716397
5148  1  3 0.0000  3.594155 44.472535 26.125116
5149  1  3 0.0000  4.468014 42.031197 26.203864
5150  1  3 0.0000  3.626220 39.783882 25.422165
5151  1  3 0.0000  0.991084 39.735157 26.678443
5152  1  3 0.0000  2.205570 44.297086 29.136227
5153  1  3 0.0000  5.327799 39.842046 27.479478
5154  1  3 0.0000  5.711294 39.113542 30.090141
5155  1  3 0.0000  0.249105 44.465138 25.819272
5156  1  3 0.0000  0.214742 45.085858 30.566247
5157  1  3 0.0000  6.057154 40.472201 24.952331
5158  1  3 0.0000  6.301803 41.492740 29.199145
5159  1  3 0.0000  6.889230 43.212334 27.362137
5160  1  3 0.0000  7.721899 39.547238 28.237169
5161  1  3 0.0000  9.958266 40.141227 27.265837
5162  1  3 0.0000  7.027029 44.015365 29.889798
5163  1  3 0.0000 10.255480 44.623643 29.184810
5164  1  3 0.0000  9.277713 42.672868 26.581874
5165  1  3 0.0000 10.211235 42.075253 29.001137
5166  1  3 0.0000  7.531724 43.646592 24.798371
5167  1  3 0.0000 11.775210 41.977866 26.831433
5168  1  3 0.0000  8.378178 45.183776 26.577641
5169  1  3 0.0000 11.975728 43.286856 30.613775
5170  1  3 0.0000 16.008838 39.212084 26.194868
5171  1  3 0.0000 14.434728 42.097118 27.043271
5172  1  3 0.0000 14.906094 39.710877 28.587873
5173  1  3 0.0000 13.480584 39.908642 26.384393
5174  1  3 0.0000 15.301697 44.367031 27.962299
5175  1  3 0.0000 16.302099 43.224196 25.665672
5176  1  3 0.0000 16.946511 42.399780 28.047526
5177  1  3 0.0000 16.454499 40.770216 30.317009
5178  1  3 0.0000 16.936144 43.341636 30.505824
5179  1  3 0.0000 18.599750 44.312449 25.964513
5180  1  3 0.0000 19.621632 39.485335 28.553066
5181  1  3 0.0000 18.887890 41.687474 29.915395
5182  1  3 0.0000 21.255630 41.517660 28.876517
5183  1  3 0.0000 18.977296 43.961091 28.544513
5184  1  3 0.0000 21.672888 43.117379 25.347914
5185  1  3 0.0000 22.845826 41.294478 26.784681
5186  1  3 0.0000 21.794470 44.335575 27.690076
5187  1  3 0.0000 22.378553 44.187482 30.283241
5188  1  3 0.0000 23.924157 44.328858 26.165078
5189  1  3 0.0000 23.930629 42.184193 29.044732
5190  1  3 0.0000 26.410755 44.655231 26.715736
5191  1  3 0.0000 25.530182 43.735896 30.246128
5192  1  3 0.0000 28.980245 44.637876 26.276224
5193  1  3 0.0000 27.378953 42.886591 25.020209
5194  1  3 0.0000  0.990251 51.436302 28.715014
5195  1  3 0.0000  3.702464 51.147580 28.673146
5196  1  3 0.0000  2.247965 49.249992 27.983610
5197  1  3 0.0000  3.736455 46.532705 27.887507
5198  1  3 0.0000  4.952528 48.788684 28.280082
5199  1  3 0.0000  5.465378 46.764649 29.998277
5200  1  3 0.0000  3.863909 50.069562 26.242239
5201  1  3 0.0000  1.977454 46.864506 30.252936
5202  1  3 0.0000  0.727903 50.553642 26.193892
5203  1  3 0.0000  2.366656 46.547395 25.525541
5204  1  3 0.0000  0.796299 45.943147 28.000548
5205  1  3 0.0000  8.000254 51.298961 27.571755
5206  1  3 0.0000  9.395656 47.585058 25.168375
5207  1  3 0.0000 10.014674 49.875437 28.300937
5208  1  3 0.0000  8.738776 46.721862 28.640955
5209  1  3 0.0000  6.324193 46.551790 27.452449
5210  1  3 0.0000  8.144831 48.858456 26.974927
5211  1  3 0.0000  7.753044 49.733075 29.633757
5212  1  3 0.0000 11.342536 46.893715 28.484914
5213  1  3 0.0000  6.856388 47.839561 24.936639
5214  1  3 0.0000 10.976131 51.352429 26.462128
5215  1  3 0.0000  6.112290 51.191295 25.803654
5216  1  3 0.0000 11.219786 45.680102 24.900548
5217  1  3 0.0000 11.972299 48.996105 30.598858
5218  1  3 0.0000  2.994644 51.293472 45.026330
5219  1  3 0.0000 12.158077 48.999527 27.128540
5220  1  3 0.0000 12.335758 51.217041 28.666088
5221  1  3 0.0000 13.113287 46.509887 26.477762
5222  1  3 0.0000 13.836821 47.755833 28.626300
5223  1  3 0.0000 16.122691 48.156138 27.659847
5224  1  3 0.0000 14.774362 50.255809 28.573099
5225  1  3 0.0000 15.737842 48.479629 30.251198
5226  1  3 0.0000 17.708068 46.067135 27.687524
5227  1  3 0.0000 16.576833 49.962308 25.160588
5228  1  3 0.0000 15.852247 45.979933 30.743655
5229  1  3 0.0000  0.077192 43.420441 46.616154
5230  1  3 0.0000 18.015326 47.935671 25.937382
5231  1  3 0.0000 20.051604 46.198234 26.893894
5232  1  3 0.0000 18.502430 50.512851 29.946107
5233  1  3 0.0000 21.969258 45.864206 25.464340
5234  1  3 0.0000 18.589105 48.302965 28.495645
5235  1  3 0.0000 20.804326 51.128065 25.509379
5236  1  3 0.0000 20.967013 49.269645 29.286039
5237  1  3 0.0000 20.547243 45.983670 29.680544
5238  1  3 0.0000 22.986547 50.848670 29.576135
5239  1  3 0.0000 20.986808 48.413256 25.802687
5240  1  3 0.0000 23.046184 46.234277 28.898156
5241  1  3 0.0000 19.482741 50.544365 27.613042
5242  1  3 0.0000 23.382156 48.633772 28.265165
5243  1  3 0.0000 29.536959 50.705863 25.286770
5244  1  3 0.0000 28.104725 46.725633 25.090211
5245  1  3 0.0000 27.894291 50.827854 29.721491
5246  1  3 0.0000 25.502803 47.169790 29.121258
5247  1  3 0.0000 24.643868 46.731761 26.789934
5248  1  3 0.0000 27.909434 48.992603 26.292073
5249  1  3 0.0000 27.629420 48.274140 30.113271
5250  1  3 0.0000 25.543231 51.175968 28.792071
5251  1  3 0.0000 26.335978 49.442374 44.803175
5252  1  3 0.0000  2.695056 28.322643 35.061135
5253  1  3 0.0000  1.544109 30.294023 33.823706
5254  1  3 0.0000  2.956573 28.554850 32.451299
5255  1  3 0.0000  4.886375 28.515683 36.295863
5256  1  3 0.0000  1.416584 31.499163 31.493598
5257  1  3 0.0000  4.891677 30.946151 31.658068
5258  1  3 0.0000  5.347441 29.719854 34.063434
5259  1  3 0.0000  0.744960 27.684523 33.515674
5260  1  3 0.0000  4.393685 26.344056 34.839039
5261  1  3 0.0000  3.848034 26.230481 32.266500
5262  1  3 0.0000  5.992662 30.849970 36.352573
5263  1  3 0.0000 11.498381 31.753557 30.849565
5264  1  3 0.0000  7.878162 26.874980 30.833982
5265  1  3 0.0000  6.262918 26.777608 32.938020
5266  1  3 0.0000  6.858045 29.230710 31.894604
5267  1  3 0.0000  8.591303 27.952934 33.155408
5268  1  3 0.0000  9.953540 28.022738 35.307247
5269  1  3 0.0000  7.357570 28.775597 35.389353
5270  1  3 0.0000  6.996017 31.429249 33.373065
5271  1  3 0.0000  9.133289 30.268403 34.160073
5272  1  3 0.0000  9.045490 31.778531 32.025410
5273  1  3 0.0000 11.555314 30.667674 35.343595
5274  1  3 0.0000 11.541203 29.857164 32.791822
5275  1  3 0.0000 11.553564 26.384921 36.423056
5276  1  3 0.0000 12.346511 28.199646 34.534280
5277  1  3 0.0000 14.109881 32.382188 35.749333
5278  1  3 0.0000 29.715353 49.457065 31.164133
5279  1  3 0.0000 12.565376 32.865498 49.041692
5280  1  3 0.0000  3.017189 35.558173 30.829638
5281  1  3 0.0000  4.321423 37.799921 31.938467
5282  1  3 0.0000  4.414492 34.562463 35.028870
5283  1  3 0.0000  5.214119 35.303956 32.253637
5284  1  3 0.0000  1.846893 34.013814 34.965427
5285  1  3 0.0000  2.990402 35.941977 33.368448
5286  1  3 0.0000  2.743857 36.281845 35.967939
5287  1  3 0.0000  5.746321 36.815966 34.989785
5288  1  3 0.0000  0.152793 32.565427 33.426764
5289  1  3 0.0000 27.656357 51.420883 27.148797
5290  1  3 0.0000  8.931555 32.930404 34.481284
5291  1  3 0.0000 10.801339 32.908357 36.368942
5292  1  3 0.0000  7.541205 33.967165 31.721707
5293  1  3 0.0000  9.715323 37.932002 32.132581
5294  1  3 0.0000  7.440013 36.652105 32.085929
5295  1  3 0.0000  9.256669 35.606877 33.560866
5296  1  3 0.0000  7.087435 34.714752 34.486058
5297  1  3 0.0000  9.148186 35.228574 36.010366
5298  1  3 0.0000  8.086274 37.834613 34.341739
5299  1  3 0.0000 11.652215 33.234375 32.897037
5300  1  3 0.0000  7.050761 37.855100 36.903465
5301  1  3 0.0000  6.103863 35.108281 36.935631
5302  1  3 0.0000 12.263056 35.232098 35.959238
5303  1  3 0.0000 14.654419 35.654198 34.734999
5304  1  3 0.0000 13.161881 37.654681 35.516209
5305  1  3 0.0000 17.052587 37.883071 35.515228
5306  1  3 0.0000 17.003774 38.422035 33.090627
5307  1  3 0.0000  1.325392 39.849742 31.074485
5308  1  3 0.0000  3.829886 43.735127 31.088313
5309  1  3 0.0000  3.856859 40.306893 31.395892
5310  1  3 0.0000  2.937590 43.532262 34.003602
5311  1  3 0.0000  5.478912 44.130069 34.248626
5312  1  3 0.0000  4.643094 41.730106 34.887552
5313  1  3 0.0000  3.803987 43.924146 36.401908
5314  1  3 0.0000  1.371448 40.206160 36.204514
5315  1  3 0.0000  3.876573 39.525967 36.426365
5316  1  3 0.0000  1.338941 44.872228 36.720483
5317  1  3 0.0000  6.136120 39.496065 35.217455
5318  1  3 0.0000  6.146211 39.924787 32.483240
5319  1  3 0.0000  9.300136 43.301854 31.140950
5320  1  3 0.0000 10.352936 39.336600 36.211375
5321  1  3 0.0000  8.449972 40.038541 31.188366
5322  1  3 0.0000 11.103204 40.000612 31.179922
5323  1  3 0.0000  8.037512 41.532745 36.067017
5324  1  3 0.0000  7.055715 42.252447 31.728077
5325  1  3 0.0000  7.411696 44.810053 32.388258
5326  1  3 0.0000 10.509640 41.585494 35.097027
5327  1  3 0.0000  8.508252 41.131914 33.513821
5328  1  3 0.0000  8.891433 43.503214 34.637721
5329  1  3 0.0000 11.464523 44.093592 34.131216
5330  1  3 0.0000 11.405175 39.653809 33.693562
5331  1  3 0.0000 10.312317 45.120758 36.284577
5332  1  3 0.0000 14.514875 42.498455 30.956586
5333  1  3 0.0000 13.375787 39.146194 32.049817
5334  1  3 0.0000 14.998989 39.413133 34.876759
5335  1  3 0.0000 12.695823 41.581511 32.574600
5336  1  3 0.0000 12.743479 40.244639 35.763094
5337  1  3 0.0000 16.976470 42.948724 34.673914
5338  1  3 0.0000 13.513212 44.156341 32.672950
5339  1  3 0.0000 16.305486 41.591318 32.645742
5340  1  3 0.0000 13.886588 43.725372 35.319781
5341  1  3 0.0000 17.413836 40.389702 34.707185
5342  1  3 0.0000 16.510811 44.574167 32.686731
5343  1  3 0.0000 22.325930 41.954314 31.601157
5344  1  3 0.0000 20.490442 43.539281 31.952681
5345  1  3 0.0000 18.871379 42.107865 33.291215
5346  1  3 0.0000 18.740943 44.659920 33.790295
5347  1  3 0.0000 21.640548 40.291040 33.491778
5348  1  3 0.0000 20.784148 43.423845 34.517202
5349  1  3 0.0000 23.051032 44.163343 32.808496
5350  1  3 0.0000 19.455709 42.514239 36.517676
5351  1  3 0.0000 20.935064 44.868405 36.737289
5352  1  3 0.0000 24.189594 42.927970 34.641290
5353  1  3 0.0000 25.750343 44.412551 32.803808
5354  1  3 0.0000 27.927157 43.364128 35.212845
5355  1  3 0.0000 29.602440 45.174576 36.161454
5356  1  3 0.0000  0.235091 36.092551 49.251025
5357  1  3 0.0000  0.628587 47.915543 35.050910
5358  1  3 0.0000  2.253952 50.731811 33.528811
5359  1  3 0.0000  1.445590 49.016195 31.597440
5360  1  3 0.0000  3.858182 48.059114 31.494520
5361  1  3 0.0000  3.773378 50.389304 35.526483
5362  1  3 0.0000  2.005519 46.921472 32.977417
5363  1  3 0.0000  4.888086 50.080309 33.288198
5364  1  3 0.0000  5.276231 46.134088 32.613812
5365  1  3 0.0000  5.725135 47.907478 35.979971
5366  1  3 0.0000  0.236929 45.399214 34.406295
5367  1  3 0.0000 23.754638 51.536044 46.964332
5368  1  3 0.0000  9.351520 51.032251 31.148827
5369  1  3 0.0000 10.082192 46.509557 30.965804
5370  1  3 0.0000  6.431507 48.285066 31.928200
5371  1  3 0.0000  9.793641 45.948725 33.683435
5372  1  3 0.0000  6.980982 46.241804 34.498612
5373  1  3 0.0000  7.186437 50.698286 32.199518
5374  1  3 0.0000  8.434542 47.700454 36.123518
5375  1  3 0.0000 11.046009 48.173616 35.532953
5376  1  3 0.0000  7.221116 48.956996 34.180198
5377  1  3 0.0000 11.480957 47.851300 32.782146
5378  1  3 0.0000  9.484125 49.983472 36.915802
5379  1  3 0.0000 16.584190 45.471023 35.198606
5380  1  3 0.0000 12.869266 46.127677 34.723490
5381  1  3 0.0000 13.876052 47.561433 31.803767
5382  1  3 0.0000 13.252985 49.978768 32.546392
5383  1  3 0.0000 13.551643 48.623344 34.844295
5384  1  3 0.0000 16.319439 47.872467 32.763000
5385  1  3 0.0000 15.967190 49.802185 34.548312
5386  1  3 0.0000 13.953108 51.001464 35.662552
5387  1  3 0.0000 17.191124 50.255169 32.253664
5388  1  3 0.0000 15.027067 48.936652 36.890337
5389  1  3 0.0000 18.418071 45.302443 31.006321
5390  1  3 0.0000 23.115817 48.569873 30.788096
5391  1  3 0.0000 19.020851 47.852075 31.157060
5392  1  3 0.0000 18.493906 48.885983 33.989573
5393  1  3 0.0000 20.581732 50.345949 34.784721
5394  1  3 0.0000 19.713642 50.474702 32.314349
5395  1  3 0.0000 21.065366 48.492060 33.243372
5396  1  3 0.0000 23.115175 47.016812 32.827260
5397  1  3 0.0000 20.653641 46.166228 32.262224
5398  1  3 0.0000 21.438528 46.417833 34.727564
5399  1  3 0.0000 19.463638 47.141056 36.410500
5400  1  3 0.0000 10.993182 25.902492 34.001530
5401  1  3 0.0000 26.907661 45.871919 30.962833
5402  1  3 0.0000 24.065376 49.878704 35.736109
5403  1  3 0.0000 24.181564 49.413987 33.147975
5404  1  3 0.0000 26.250356 50.371212 34.403439
5405  1  3 0.0000 24.477001 45.463809 34.773550
5406  1  3 0.0000 25.422389 47.765980 31.592607
5407  1  3 0.0000 27.082851 45.833125 35.540344
5408  1  3 0.0000 25.481035 47.864231 34.722982
5409  1  3 0.0000 27.218456 49.997118 31.991206
5410  1  3 0.0000 28.742123 51.039154 33.535333
5411  1  3 0.0000  2.329430 51.247256 31.020945
5412  1  3 0.0000 24.909198 46.743180 36.924673
5413  1  3 0.0000  3.180707 26.798909 37.142887
5414  1  3 0.0000  0.397104 30.121004 41.337713
5415  1  3 0.0000  2.546410 26.974318 42.106653
5416  1  3 0.0000  4.440295 31.556034 38.365919
5417  1  3 0.0000  2.555174 31.282566 40.226165
5418  1  3 0.0000  4.625349 27.899839 40.605370
5419  1  3 0.0000  2.228649 28.613897 40.157104
5420  1  3 0.0000  2.660523 29.964616 42.471272
5421  1  3 0.0000  3.236987 26.075193 39.607232
5422  1  3 0.0000  0.448825 26.490788 40.847248
5423  1  3 0.0000  0.182750 29.959836 37.234582
5424  1  3 0.0000  1.815835 31.960463 37.852063
5425  1  3 0.0000  5.517284 29.907999 42.055751
5426  1  3 0.0000  0.362305 28.159593 42.954226
5427  1  3 0.0000  5.900883 27.298938 42.741500
5428  1  3 0.0000  9.406878 30.861243 36.949158
5429  1  3 0.0000  6.519460 30.062118 38.731174
5430  1  3 0.0000  6.618498 27.422630 38.191972
5431  1  3 0.0000  8.730720 28.782459 38.518052
5432  1  3 0.0000  7.153043 28.327577 40.639591
5433  1  3 0.0000 11.231185 29.520530 38.303124
5434  1  3 0.0000  9.459983 31.031989 39.588856
5435  1  3 0.0000  7.435629 31.437862 41.340064
5436  1  3 0.0000  9.330107 29.752407 41.949474
5437  1  3 0.0000 10.267535 27.400990 42.567694
5438  1  3 0.0000 11.102189 27.982340 40.202619
5439  1  3 0.0000 29.398345 50.174267 35.825732
5440  1  3 0.0000 12.951573 31.818753 40.373800
5441  1  3 0.0000  5.574159 32.383273 43.121148
5442  1  3 0.0000  0.801313 35.969546 37.792692
5443  1  3 0.0000  3.476743 36.058300 38.552741
5444  1  3 0.0000  3.239061 33.659800 39.338772
5445  1  3 0.0000  3.903249 35.480381 41.129437
5446  1  3 0.0000  0.978959 33.912256 42.095676
5447  1  3 0.0000  4.574690 37.883901 40.657914
5448  1  3 0.0000  2.258216 37.356997 41.676792
5449  1  3 0.0000  2.122974 38.163183 37.732950
5450  1  3 0.0000  5.727780 34.611218 39.408772
5451  1  3 0.0000  9.837481 32.356999 41.820078
5452  1  3 0.0000  6.804314 32.669544 38.054447
5453  1  3 0.0000  7.741174 37.172754 39.325236
5454  1  3 0.0000  7.965698 36.337277 41.831628
5455  1  3 0.0000  8.259472 34.828180 38.390005
5456  1  3 0.0000 10.057041 36.177106 40.262354
5457  1  3 0.0000 10.773486 34.974597 38.066689
5458  1  3 0.0000  9.802833 37.192094 37.675271
5459  1  3 0.0000  8.948767 38.530870 41.086039
5460  1  3 0.0000  9.977558 34.710789 42.809441
5461  1  3 0.0000 11.899331 34.244620 40.290773
5462  1  3 0.0000 12.128537 33.043040 42.533136
5463  1  3 0.0000 14.253453 36.035419 37.261863
5464  1  3 0.0000 12.927843 33.496667 37.745576
5465  1  3 0.0000 12.441238 36.533881 39.363293
5466  1  3 0.0000 14.360527 33.815211 41.180186
5467  1  3 0.0000 13.207930 36.489570 41.742371
5468  1  3 0.0000 15.593104 35.313667 39.595501
5469  1  3 0.0000 14.570000 38.028044 39.891110
5470  1  3 0.0000 15.287410 37.535931 42.507761
5471  1  3 0.0000 16.607867 38.357138 38.107320
5472  1  3 0.0000 12.149247 38.603201 40.911872
5473  1  3 0.0000 26.842375 46.108541 46.047275
5474  1  3 0.0000 24.750744 47.637817 43.869374
5475  1  3 0.0000  0.506873 38.791502 42.688600
5476  1  3 0.0000  4.462819 40.492876 40.526675
5477  1  3 0.0000  1.807084 40.424656 40.880393
5478  1  3 0.0000  2.810373 40.593724 38.490502
5479  1  3 0.0000  3.102607 42.637521 40.088560
5480  1  3 0.0000  5.257737 43.889502 39.103859
5481  1  3 0.0000  1.323711 44.676466 41.367654
5482  1  3 0.0000  3.009487 44.887255 38.706660
5483  1  3 0.0000  5.690366 41.143864 37.166117
5484  1  3 0.0000  0.327416 43.055403 39.388544
5485  1  3 0.0000  4.083010 45.100497 40.995970
5486  1  3 0.0000  6.725962 43.501733 37.035784
5487  1  3 0.0000  6.124527 39.170058 39.070592
5488  1  3 0.0000  6.236069 42.937583 41.619517
5489  1  3 0.0000  6.556281 39.178151 41.604779
5490  1  3 0.0000  7.949659 41.945404 38.576158
5491  1  3 0.0000 10.104550 43.381415 38.191146
5492  1  3 0.0000  7.818005 44.522659 38.867400
5493  1  3 0.0000  9.283452 43.053108 40.590965
5494  1  3 0.0000  8.642995 39.313374 38.257869
5495  1  3 0.0000  8.287969 41.003308 41.952465
5496  1  3 0.0000 11.268664 39.420729 38.742183
5497  1  3 0.0000 10.620730 40.834406 40.958665
5498  1  3 0.0000 10.104727 42.466921 42.999746
5499  1  3 0.0000 14.263642 38.923693 37.448411
5500  1  3 0.0000 12.549829 44.182405 37.510281
5501  1  3 0.0000 15.448744 40.439770 39.105359
5502  1  3 0.0000 16.120192 42.703128 39.767893
5503  1  3 0.0000 13.107121 40.811393 40.520985
5504  1  3 0.0000 14.314162 42.741229 41.713958
5505  1  3 0.0000 15.121891 40.209724 42.177551
5506  1  3 0.0000 14.479348 42.412375 37.651982
5507  1  3 0.0000 16.962022 41.673515 37.474823
5508  1  3 0.0000 16.695351 43.435759 42.229533
5509  1  3 0.0000 15.125268 44.926798 40.463107
5510  1  3 0.0000 15.123497 44.947203 37.227214
5511  1  3 0.0000 17.658208 44.716094 37.552164
5512  1  3 0.0000 19.098902 40.141381 37.601299
5513  1  3 0.0000 19.048203 42.208122 39.010605
5514  1  3 0.0000 20.868967 43.521080 40.087495
5515  1  3 0.0000 19.403983 41.709922 41.427159
5516  1  3 0.0000 20.233761 44.718934 42.312505
5517  1  3 0.0000 23.532308 43.349538 42.152769
5518  1  3 0.0000 24.317585 43.454748 37.263051
5519  1  3 0.0000 24.453268 42.760663 39.819503
5520  1  3 0.0000 25.839433 42.328074 41.969673
5521  1  3 0.0000 26.140623 44.709273 38.608965
5522  1  3 0.0000 28.827082 44.711717 38.558779
5523  1  3 0.0000 27.459405 44.928190 40.806053
5524  1  3 0.0000  3.571968 46.425110 36.783153
5525  1  3 0.0000  2.254609 49.499708 37.575917
5526  1  3 0.0000  0.696316 50.165956 39.571002
5527  1  3 0.0000  4.643449 47.406181 42.298172
5528  1  3 0.0000  4.534034 50.726756 37.937489
5529  1  3 0.0000  4.616689 49.796491 40.481459
5530  1  3 0.0000  4.838394 48.290911 38.380365
5531  1  3 0.0000  2.397806 50.559333 41.616791
5532  1  3 0.0000  0.612911 47.659158 39.082761
5533  1  3 0.0000 28.867138 50.267057 46.624440
5534  1  3 0.0000  5.966829 46.041156 37.637723
5535  1  3 0.0000 11.409215 51.139415 38.318417
5536  1  3 0.0000 11.042309 45.637089 38.927162
5537  1  3 0.0000  6.392986 46.402118 40.841602
5538  1  3 0.0000  8.910938 46.774786 40.026577
5539  1  3 0.0000  9.316097 50.226004 39.518601
5540  1  3 0.0000  6.788952 50.072568 39.087829
5541  1  3 0.0000 11.230103 47.833910 40.469887
5542  1  3 0.0000  7.712707 48.847944 41.113212
5543  1  3 0.0000 10.240226 47.808252 37.988772
5544  1  3 0.0000  8.186732 46.770925 42.539588
5545  1  3 0.0000 11.416885 47.107802 42.963530
5546  1  3 0.0000  7.690950 51.439931 41.309905
5547  1  3 0.0000 13.007006 47.419828 37.018798
5548  1  3 0.0000 16.973567 47.104559 37.205977
5549  1  3 0.0000 12.506937 50.919370 40.675673
5550  1  3 0.0000 12.876929 48.978099 42.275165
5551  1  3 0.0000 14.642836 47.239151 39.101775
5552  1  3 0.0000 13.268030 49.497364 38.670576
5553  1  3 0.0000 15.964617 47.153169 41.262678
5554  1  3 0.0000 13.341645 46.621149 41.258718
5555  1  3 0.0000 14.938676 49.956657 41.050308
5556  1  3 0.0000 16.608786 50.415069 38.909753
5557  1  3 0.0000 17.668638 49.982623 41.283009
5558  1  3 0.0000 17.389022 48.285746 43.124546
5559  1  3 0.0000 18.158433 49.470300 37.071552
5560  1  3 0.0000 21.856317 47.489750 37.037247
5561  1  3 0.0000 22.260570 45.414424 41.042401
5562  1  3 0.0000 18.027667 46.011050 42.238794
5563  1  3 0.0000 21.278443 51.319873 40.455255
5564  1  3 0.0000 19.977834 46.047477 40.085036
5565  1  3 0.0000 18.897784 48.023804 38.883669
5566  1  3 0.0000 19.602795 48.256975 41.491778
5567  1  3 0.0000 21.521564 50.166481 38.033406
5568  1  3 0.0000 21.435788 48.146075 39.564530
5569  1  3 0.0000 19.148286 51.097824 38.789666
5570  1  3 0.0000 23.482198 51.231744 41.723219
5571  1  3 0.0000 23.673052 48.751469 38.277223
5572  1  3 0.0000 25.113569 47.094111 39.536214
5573  1  3 0.0000 24.251457 48.716879 41.326287
5574  1  3 0.0000 24.661139 45.816064 41.686911
5575  1  3 0.0000 25.331237 50.664163 39.918496
5576  1  3 0.0000 29.064718 48.981818 38.032953
5577  1  3 0.0000 26.713363 47.350208 41.655103
5578  1  3 0.0000 25.919811 50.362925 42.379808
5579  1  3 0.0000 27.862896 49.358421 40.170004
5580  1  3 0.0000 26.352907 48.721122 37.987123
5581  1  3 0.0000 27.780231 46.897239 38.984454
5582  1  3 0.0000 29.238567 46.223009 41.977069
5583  1  3 0.0000 28.231688 49.438446 42.889910
5584  1  3 0.0000  5.437868 25.999226 48.286686
5585  1  3 0.0000  0.518823 31.899142 46.655920
5586  1  3 0.0000  2.542140 27.024277 47.376638
5587  1  3 0.0000  1.485458 29.768221 44.747008
5588  1  3 0.0000  1.736918 27.165857 44.852681
5589  1  3 0.0000  2.689826 30.996404 47.769717
5590  1  3 0.0000  4.656385 29.313098 47.193110
5591  1  3 0.0000  4.158258 27.404534 45.380913
5592  1  3 0.0000  4.119949 29.939906 44.744176
5593  1  3 0.0000  5.010856 31.732729 46.762804
5594  1  3 0.0000  2.399748 32.098142 43.835648
5595  1  3 0.0000 11.317372 29.724325 43.597127
5596  1  3 0.0000  8.601597 27.399704 48.496854
5597  1  3 0.0000 11.085163 28.028484 48.626686
5598  1  3 0.0000 11.095236 26.470142 45.201096
5599  1  3 0.0000  7.454247 29.857256 48.446913
5600  1  3 0.0000  7.310176 30.741635 43.810523
5601  1  3 0.0000  8.515729 30.595451 46.233064
5602  1  3 0.0000  6.469247 28.886044 45.420447
5603  1  3 0.0000  8.977182 28.884930 44.391981
5604  1  3 0.0000  9.599745 31.326610 48.614823
5605  1  3 0.0000  7.379792 32.395719 47.796387
5606  1  3 0.0000 27.334574 48.366106 47.437621
5607  1  3 0.0000 12.995603 27.941110 44.128182
5608  1  3 0.0000 13.495850 30.306860 45.197812
5609  1  3 0.0000 14.118861 31.912540 47.200950
5610  1  3 0.0000  0.136554 36.811961 33.865110
5611  1  3 0.0000  4.377940 37.158967 43.237829
5612  1  3 0.0000  0.530012 36.061773 46.741707
5613  1  3 0.0000  5.498542 37.449684 47.993342
5614  1  3 0.0000  1.358990 36.671910 44.160179
5615  1  3 0.0000  2.645878 33.480748 47.370331
5616  1  3 0.0000  3.931616 36.575006 45.880656
5617  1  3 0.0000  3.492684 35.850531 48.287573
5618  1  3 0.0000  4.924544 34.763827 44.162174
5619  1  3 0.0000  0.999291 34.203522 44.754946
5620  1  3 0.0000  5.244156 34.073672 47.572313
5621  1  3 0.0000  3.308360 38.454047 47.786062
5622  1  3 0.0000  0.743587 38.361922 47.849767
5623  1  3 0.0000 11.713507 32.280366 46.723212
5624  1  3 0.0000  7.370857 34.213192 43.267175
5625  1  3 0.0000  9.148269 34.445168 49.003750
5626  1  3 0.0000  6.321717 36.842437 44.960247
5627  1  3 0.0000  6.531541 33.143703 45.399240
5628  1  3 0.0000 10.390132 32.733499 44.476562
5629  1  3 0.0000  8.672416 36.147532 44.511194
5630  1  3 0.0000 10.011698 34.273505 46.589932
5631  1  3 0.0000  7.923517 35.793451 46.950887
5632  1  3 0.0000 10.055875 36.703191 48.061578
5633  1  3 0.0000  8.127260 38.234267 45.998842
5634  1  3 0.0000 12.022235 38.167507 49.034274
5635  1  3 0.0000 12.112201 34.421115 45.159292
5636  1  3 0.0000 13.293218 37.300714 46.697540
5637  1  3 0.0000 13.250927 37.615174 44.151613
5638  1  3 0.0000 14.248830 35.279568 43.874174
5639  1  3 0.0000 14.112191 32.828960 44.831916
5640  1  3 0.0000 14.925762 36.436229 48.445784
5641  1  3 0.0000 14.262667 34.953720 46.479706
5642  1  3 0.0000 17.010804 36.863268 47.041087
5643  1  3 0.0000 15.506838 38.101614 45.333537
5644  1  3 0.0000 12.510995 35.355291 48.457406
5645  1  3 0.0000 16.996661 35.952819 44.639884
5646  1  3 0.0000  2.204916 40.297754 49.163969
5647  1  3 0.0000  5.846414 44.636110 49.267492
5648  1  3 0.0000  5.783087 45.079639 43.031220
5649  1  3 0.0000  2.930204 43.120767 43.007930
5650  1  3 0.0000  0.395611 40.726646 46.784144
5651  1  3 0.0000  1.375477 41.121544 43.261431
5652  1  3 0.0000  4.495004 41.524956 48.887235
5653  1  3 0.0000  1.723144 39.087217 45.418913
5654  1  3 0.0000  0.628067 44.124093 43.655355
5655  1  3 0.0000  2.146037 42.440807 47.843815
5656  1  3 0.0000  4.022755 41.040571 44.015160
5657  1  3 0.0000  2.100450 42.325729 45.347593
5658  1  3 0.0000  5.040745 41.467078 46.371733
5659  1  3 0.0000  6.092754 42.689314 44.308022
5660  1  3 0.0000  8.101479 44.001879 43.218516
5661  1  3 0.0000 10.587441 44.929210 43.665983
5662  1  3 0.0000  6.478731 39.827239 47.882706
5663  1  3 0.0000  8.376105 39.199555 43.514308
5664  1  3 0.0000  6.318484 40.008034 44.751919
5665  1  3 0.0000  9.868372 39.408790 48.648155
5666  1  3 0.0000  6.826357 42.488152 48.017184
5667  1  3 0.0000  9.942379 41.776749 47.441022
5668  1  3 0.0000  8.617551 40.816107 45.514484
5669  1  3 0.0000 11.199485 41.150641 45.247075
5670  1  3 0.0000  9.566228 43.229444 45.315702
5671  1  3 0.0000  6.691687 44.807729 46.865522
5672  1  3 0.0000  8.457139 44.425130 48.691154
5673  1  3 0.0000 12.000798 40.777145 48.579077
5674  1  3 0.0000 12.989321 41.054317 43.308804
5675  1  3 0.0000 16.881315 39.926656 48.772921
5676  1  3 0.0000 13.351564 39.734067 45.612388
5677  1  3 0.0000 15.724450 41.395656 46.988198
5678  1  3 0.0000 13.618067 42.359357 45.606156
5679  1  3 0.0000 16.065945 43.053986 44.874719
5680  1  3 0.0000 15.114208 43.849887 47.268648
5681  1  3 0.0000 14.368666 39.689872 48.390501
5682  1  3 0.0000 18.048336 41.728879 43.695894
5683  1  3 0.0000 18.361945 44.263817 44.091470
5684  1  3 0.0000 18.630388 43.942561 46.987059
5685  1  3 0.0000 18.607916 41.588979 48.091186
5686  1  3 0.0000 20.388726 42.098416 46.205600
5687  1  3 0.0000 20.636972 42.167203 43.663616
5688  1  3 0.0000 21.427490 44.095063 45.212364
5689  1  3 0.0000 22.871427 41.895828 45.029324
5690  1  3 0.0000 23.174772 42.669498 47.568631
5691  1  3 0.0000 23.770518 44.709372 45.993253
5692  1  3 0.0000 24.103739 44.703175 48.614261
5693  1  3 0.0000 25.691182 43.221755 47.025308
5694  1  3 0.0000 28.638552 44.348784 45.121122
5695  1  3 0.0000  0.097989 27.578224 36.222943
5696  1  3 0.0000 26.221404 50.866539 47.355525
5697  1  3 0.0000  4.571743 49.977605 43.227893
5698  1  3 0.0000  3.394846 45.541982 48.331146
5699  1  3 0.0000  2.732829 45.679282 43.545344
5700  1  3 0.0000  0.759144 45.646365 47.950443
5701  1  3 0.0000  2.118228 47.933316 48.266526
5702  1  3 0.0000  1.007083 47.509179 44.059020
5703  1  3 0.0000  3.652093 47.871481 44.505782
5704  1  3 0.0000  5.105155 50.003826 45.857661
5705  1  3 0.0000  2.250447 46.350750 46.069034
5706  1  3 0.0000  1.554622 50.613087 48.301907
5707  1  3 0.0000  6.337480 48.048637 44.027413
5708  1  3 0.0000  9.168050 51.350509 48.291158
5709  1  3 0.0000  8.943050 48.263831 48.139044
5710  1  3 0.0000 10.197557 50.887466 43.921010
5711  1  3 0.0000  8.723981 50.207625 45.971258
5712  1  3 0.0000  6.723021 47.385275 47.353659
5713  1  3 0.0000  7.068195 49.927751 47.915890
5714  1  3 0.0000  9.044057 48.590072 44.046198
5715  1  3 0.0000  7.933371 46.461966 45.173225
5716  1  3 0.0000 10.956311 49.000265 45.828367
5717  1  3 0.0000 11.250173 47.238185 47.977335
5718  1  3 0.0000 11.568536 46.506129 45.511616
5719  1  3 0.0000 13.705489 51.432158 43.029158
5720  1  3 0.0000 15.906298 46.047353 43.682021
5721  1  3 0.0000 16.788752 45.832095 47.056541
5722  1  3 0.0000 13.196072 45.473056 43.945665
5723  1  3 0.0000 14.354431 47.868425 44.474462
5724  1  3 0.0000 16.291444 51.029753 47.456900
5725  1  3 0.0000 14.332100 50.329802 45.325228
5726  1  3 0.0000 15.838983 48.583890 46.515583
5727  1  3 0.0000 14.602522 46.110939 48.584006
5728  1  3 0.0000 13.134325 48.471735 46.703926
5729  1  3 0.0000 14.515306 45.838994 46.003304
5730  1  3 0.0000  1.064029 32.490496 49.137132
5731  1  3 0.0000 23.779946 49.992729 44.900972
5732  1  3 0.0000 17.922532 49.922528 45.698246
5733  1  3 0.0000 18.067393 49.099357 48.159296
5734  1  3 0.0000 21.808723 46.521335 45.749330
5735  1  3 0.0000 19.362182 50.027645 43.462419
5736  1  3 0.0000 23.218088 47.267947 48.711708
5737  1  3 0.0000 19.984699 51.482169 45.546315
5738  1  3 0.0000 22.840194 45.427401 43.527170
5739  1  3 0.0000 21.782808 49.651704 48.491415
5740  1  3 0.0000 19.785169 46.548503 44.175354
5741  1  3 0.0000 20.199875 48.752123 45.619517
5742  1  3 0.0000 19.342117 46.471797 46.707659
5743  1  3 0.0000 18.435389 45.491601 49.010368
5744  1  3 0.0000 27.147681 45.528981 43.441258
5745  1  3 0.0000 25.759882 46.665828 48.390856
5746  1  3 0.0000 24.974579 47.967659 46.343670
5747  1  3 0.0000 24.378230 49.630703 48.660244
5748  1  3 0.0000 28.938790 46.853507 44.838539
5749  1  3 0.0000  4.968204 36.527737 24.836902
5750  1  3 0.0000  0.060678 47.584313 41.577526
5751  1  3 0.0000 13.224415 41.938581 24.676901
5752  1  3 0.0000 29.656393 50.895984 41.368110
5753  1  3 0.0000 14.168577 51.521995 30.721587
5754  1  3 0.0000  4.795534 25.907580 26.654168
5755  1  3 0.0000  0.459290 51.645612 45.816419
5756  1  3 0.0000 27.182574 43.057309 49.204275
5757  1  3 0.0000  4.806724 31.239475 49.226382
5758  1  3 0.0000  5.704859 34.039973 24.640283
5759  1  3 0.0000 31.829689  4.107692  4.455907
5760  1  3 0.0000 32.256851  2.131939  2.730316
5761  1  3 0.0000 31.417624  1.629167  5.103963
5762  1  3 0.0000 33.893791  2.542208  4.629590
5763  1  3 0.0000 35.192626  4.467318  2.279968
5764  1  3 0.0000 32.755618  4.248737  1.419515
5765  1  3 0.0000 30.694104  2.605262  0.767950
5766  1  3 0.0000 33.318425  5.925274  3.422154
5767  1  3 0.0000 33.196975  1.800239  0.243258
5768  1  3 0.0000 30.308378  5.449400  0.244479
5769  1  3 0.0000 33.002545  5.819253  6.056689
5770  1  3 0.0000 36.140261  5.934287  5.267645
5771  1  3 0.0000 36.264160  1.104448  4.642718
5772  1  3 0.0000 37.142302  2.986483  3.316615
5773  1  3 0.0000 38.695890  2.081491  5.289499
5774  1  3 0.0000 37.709188  5.215517  2.597583
5775  1  3 0.0000 40.776401  1.727415  3.775071
5776  1  3 0.0000 36.881692  3.440297  0.677170
5777  1  3 0.0000 40.916694  2.941468  1.464831
5778  1  3 0.0000 36.453005  3.392981  5.890834
5779  1  3 0.0000 40.860814  0.550013  0.268782
5780  1  3 0.0000 40.762728  6.329672  5.407680
5781  1  3 0.0000 57.756487  0.188411  8.132444
5782  1  3 0.0000 45.539735  2.212329  0.274696
5783  1  3 0.0000 42.235628  3.969641  3.549409
5784  1  3 0.0000 42.959550  1.674579  2.387512
5785  1  3 0.0000 46.766014  3.023994  2.505472
5786  1  3 0.0000 46.394048  1.271109  4.505555
5787  1  3 0.0000 44.483758  3.665318  4.752062
5788  1  3 0.0000 44.330436  4.009869  2.125429
5789  1  3 0.0000 44.231392  5.948991  3.956650
5790  1  3 0.0000 45.968439  4.685556  0.541182
5791  1  3 0.0000 47.470473  3.598676  5.001966
5792  1  3 0.0000 47.838430  0.405824  1.267212
5793  1  3 0.0000 49.854121  2.118810  1.288669
5794  1  3 0.0000 48.802341  1.865849  3.646450
5795  1  3 0.0000 51.481715  2.212673  3.279234
5796  1  3 0.0000 52.015535  5.034951  4.482214
5797  1  3 0.0000 49.517761  4.228083  2.698965
5798  1  3 0.0000 49.389072  5.386093  5.345002
5799  1  3 0.0000 53.142256  2.045797  1.263756
5800  1  3 0.0000 53.258814  2.979539  5.576530
5801  1  3 0.0000 48.441929  5.896997  0.746193
5802  1  3 0.0000 50.992709  5.965193  1.353891
5803  1  3 0.0000 53.265551  0.188366  5.969377
5804  1  3 0.0000 57.479009  1.467110  0.437840
5805  1  3 0.0000 59.223220  5.469688  1.914683
5806  1  3 0.0000 53.995968  1.229696  3.785219
5807  1  3 0.0000 55.040771  3.836722  0.901786
5808  1  3 0.0000 54.305643  4.112732  3.377670
5809  1  3 0.0000 56.691430  3.856055  5.598444
5810  1  3 0.0000 56.851323  4.606055  2.655707
5811  1  3 0.0000 56.629167  1.722678  3.800052
5812  1  3 0.0000 54.469014  5.316848  5.614501
5813  1  3 0.0000 55.406490  1.615810  5.931226
5814  1  3 0.0000 54.993438  6.203939  1.980548
5815  1  3 0.0000 55.436560  0.505705  1.760474
5816  1  3 0.0000 58.055592  1.598179  5.878889
5817  1  3 0.0000 59.282307  3.343326  0.508506
5818  1  3 0.0000 34.034022  6.491883  0.937711
5819  1  3 0.0000 30.989670  6.530432  4.606340
5820  1  3 0.0000 32.522597  9.139019  4.125304
5821  1  3 0.0000 34.613342  9.111071  2.562795
5822  1  3 0.0000 34.856478  8.161915  4.865700
5823  1  3 0.0000 35.269714  8.852207  0.234453
5824  1  3 0.0000 29.957584  7.725336  1.537179
5825  1  3 0.0000 36.537473  6.754485  0.958595
5826  1  3 0.0000 37.020436  7.566533  3.395899
5827  1  3 0.0000 38.987524  7.283152  1.432649
5828  1  3 0.0000 39.873222  8.456485  3.910460
5829  1  3 0.0000 40.470126 10.881766  4.719368
5830  1  3 0.0000 41.634811  6.781917  2.920298
5831  1  3 0.0000 37.100802  8.252570  5.972137
5832  1  3 0.0000 46.692672  6.815570  4.497783
5833  1  3 0.0000 42.193997  8.383351  4.991328
5834  1  3 0.0000 42.734198  9.548566  2.809813
5835  1  3 0.0000 44.663395  8.538518  4.226577
5836  1  3 0.0000 44.769879 10.178356  1.218337
5837  1  3 0.0000 46.562594 11.500775  2.537988
5838  1  3 0.0000 43.730812 10.845832  4.742990
5839  1  3 0.0000 43.988938 12.194101  2.531701
5840  1  3 0.0000 46.731168  7.382660  1.965406
5841  1  3 0.0000 46.601849 11.009750  5.055430
5842  1  3 0.0000 43.378442  7.958227  0.765625
5843  1  3 0.0000 45.484293 12.537628  0.367800
5844  1  3 0.0000 42.383326 10.502462  0.373877
5845  1  3 0.0000 47.603147  9.144788  3.594203
5846  1  3 0.0000 42.130810 12.796536  4.583593
5847  1  3 0.0000 48.969836  6.798593  2.979875
5848  1  3 0.0000 52.364967  7.724339  2.594560
5849  1  3 0.0000 48.937426 11.339615  3.568217
5850  1  3 0.0000 50.089135 11.097750  1.282319
5851  1  3 0.0000 50.730026  9.466205  3.358321
5852  1  3 0.0000 51.297547  7.479118  5.039134
5853  1  3 0.0000 51.372517 11.978245  3.413753
5854  1  3 0.0000 53.221815  9.156070  4.516234
5855  1  3 0.0000 51.019882  8.374766  0.361794
5856  1  3 0.0000 53.276135  7.036104  0.287273
5857  1  3 0.0000 53.545476 10.846736  1.141135
5858  1  3 0.0000 58.367215  8.223757  0.258889
5859  1  3 0.0000 57.721118  6.941622  3.650740
5860  1  3 0.0000 55.847793  8.546787  4.627396
5861  1  3 0.0000 58.059901  9.623321  3.373685
5862  1  3 0.0000 57.923021 11.553871  5.123855
5863  1  3 0.0000 54.947471 10.611439  3.356718
5864  1  3 0.0000 54.969543  8.692174  1.461086
5865  1  3 0.0000 58.323373  8.566683  5.699818
5866  1  3 0.0000 58.040246 12.087331  2.531367
5867  1  3 0.0000 56.124042 10.897199  1.027120
5868  1  3 0.0000 54.780006 10.556439  6.088250
5869  1  3 0.0000 44.641572 13.358983  4.633617
5870  1  3 0.0000 45.537566 14.765744  2.666072
5871  1  3 0.0000 46.171412 17.260158  2.002982
5872  1  3 0.0000 46.065227 15.488835  5.124631
5873  1  3 0.0000 45.247575 15.690079  0.249379
5874  1  3 0.0000 47.552421 13.290138  5.424565
5875  1  3 0.0000 47.792035 15.217810  1.530817
5876  1  3 0.0000 58.445333 19.529689 23.239538
5877  1  3 0.0000 47.918331 18.503714  3.626329
5878  1  3 0.0000 51.189843 13.660826  5.375592
5879  1  3 0.0000 52.879582 13.378071  0.831602
5880  1  3 0.0000 48.449399 15.617099  4.196721
5881  1  3 0.0000 52.104428 14.438223  3.264635
5882  1  3 0.0000 50.041467 18.659627  5.067357
5883  1  3 0.0000 51.626782 16.823172  4.208561
5884  1  3 0.0000 49.699648 13.982583  2.890099
5885  1  3 0.0000 52.604742 16.084533  1.566245
5886  1  3 0.0000 49.836286 16.643894  2.115384
5887  1  3 0.0000 51.903455 18.629957  1.988079
5888  1  3 0.0000 49.695669 19.002181  0.706429
5889  1  3 0.0000 52.586503 18.704967  5.749092
5890  1  3 0.0000 53.878042 13.666459  5.156773
5891  1  3 0.0000 59.534324 15.017379  4.337610
5892  1  3 0.0000 56.948633 17.435988  0.320910
5893  1  3 0.0000 54.446970 18.088783  0.882730
5894  1  3 0.0000 53.999558 16.010356  3.828143
5895  1  3 0.0000 56.670513 13.420217  0.867793
5896  1  3 0.0000 55.765053 14.054015  3.315214
5897  1  3 0.0000 57.855645 15.286460  2.328755
5898  1  3 0.0000 55.740575 15.517280  5.631745
5899  1  3 0.0000 55.437879 15.596986  1.174982
5900  1  3 0.0000 56.291402 18.890529  3.734233
5901  1  3 0.0000 59.254579 17.416620  2.908097
5902  1  3 0.0000 57.229206 18.225828  6.021267
5903  1  3 0.0000 55.315323  5.297489 24.426172
5904  1  3 0.0000 48.402925  8.370387  0.187268
5905  1  3 0.0000 46.824071 19.739273  1.555539
5906  1  3 0.0000 47.885122 22.946032  4.046068
5907  1  3 0.0000 48.485445 21.738021  0.772104
5908  1  3 0.0000 48.797468 24.398169  1.240411
5909  1  3 0.0000 52.712793 22.133339  3.202576
5910  1  3 0.0000 50.258027 21.799400  4.384261
5911  1  3 0.0000 51.106838 24.035481  4.019645
5912  1  3 0.0000 50.589357 22.512898  1.935278
5913  1  3 0.0000 53.470672 24.636203  4.904006
5914  1  3 0.0000 53.703495 19.900733  3.821285
5915  1  3 0.0000 53.626173 20.602188  1.247378
5916  1  3 0.0000 52.941956 21.172507  6.058336
5917  1  3 0.0000 59.403466 11.247197 18.107780
5918  1  3 0.0000 58.370795 19.403392  1.246695
5919  1  3 0.0000 55.126790 19.694404  5.961369
5920  1  3 0.0000 54.286231 23.112658  0.875493
5921  1  3 0.0000 55.313565 21.794981  2.642933
5922  1  3 0.0000 55.890694 23.159046  5.216551
5923  1  3 0.0000 55.335554 24.375605  3.055103
5924  1  3 0.0000 58.110097 23.069042  4.021748
5925  1  3 0.0000 57.017993 23.220866  1.211236
5926  1  3 0.0000 57.297450 20.840925  5.184205
5927  1  3 0.0000 58.859361 25.328935  2.855607
5928  1  3 0.0000 55.688459 25.641211  5.557557
5929  1  3 0.0000 59.566103 23.012382  1.903804
5930  1  3 0.0000 33.345839  1.458132  8.906434
5931  1  3 0.0000 34.686210  1.276759  6.720482
5932  1  3 0.0000 31.082769  1.747345  7.701403
5933  1  3 0.0000 35.083194  5.114017  7.404142
5934  1  3 0.0000 32.833751  3.611044  7.424075
5935  1  3 0.0000 31.780574  3.291116  9.717583
5936  1  3 0.0000 33.557783  4.694640 11.346271
5937  1  3 0.0000 32.962520  5.873196  8.708680
5938  1  3 0.0000 30.887981  0.906279 11.537078
5939  1  3 0.0000 30.941886  4.988341 11.507236
5940  1  3 0.0000 35.365445  2.781013  8.850592
5941  1  3 0.0000 35.798167  2.201167 11.462396
5942  1  3 0.0000 33.155561  1.957978 12.204517
5943  1  3 0.0000 41.409951  1.972170  6.184087
5944  1  3 0.0000 36.003721  4.605528 10.482733
5945  1  3 0.0000 40.429933  4.443042  7.169251
5946  1  3 0.0000 37.718218  5.388225  7.214658
5947  1  3 0.0000 38.925199  3.829233 11.564575
5948  1  3 0.0000 37.772420  2.986297  9.539321
5949  1  3 0.0000 39.129510  5.429996  9.523663
5950  1  3 0.0000 40.498698  3.167756  9.773831
5951  1  3 0.0000 40.307417  0.685031 10.134394
5952  1  3 0.0000 42.342725  1.628511  8.727769
5953  1  3 0.0000 42.922414  4.870263  6.397577
5954  1  3 0.0000 42.234165  1.812667 11.294033
5955  1  3 0.0000 43.880037  2.439710  6.854822
5956  1  3 0.0000 46.739824  1.254992 10.257934
5957  1  3 0.0000 45.435505  4.693251  6.994425
5958  1  3 0.0000 42.357260  5.465650 10.128797
5959  1  3 0.0000 46.227282  3.755474  9.192949
5960  1  3 0.0000 46.162300  3.412061 11.803855
5961  1  3 0.0000 45.852679  6.023953 11.661039
5962  1  3 0.0000 43.719333  4.405965 12.069016
5963  1  3 0.0000 46.780693  6.461844  8.529167
5964  1  3 0.0000 49.809534  0.425196  6.297564
5965  1  3 0.0000 47.967154  4.547148  7.417278
5966  1  3 0.0000 49.664379  3.035424  6.282785
5967  1  3 0.0000 49.431111  0.638675 11.132702
5968  1  3 0.0000 51.537361  1.813509  7.699014
5969  1  3 0.0000 48.456103  2.982799 10.569430
5970  1  3 0.0000 50.964357  2.470618 10.102994
5971  1  3 0.0000 49.213564  1.525754  8.530283
5972  1  3 0.0000 50.477575  5.403054  9.520380
5973  1  3 0.0000 52.511762  3.888227  8.717454
5974  1  3 0.0000 53.153618  1.346718  9.810223
5975  1  3 0.0000 51.274860  5.412859  6.878776
5976  1  3 0.0000 48.363432  5.963399 11.097100
5977  1  3 0.0000 50.324584  4.843239 12.223318
5978  1  3 0.0000 52.207183  0.641591 12.190252
5979  1  3 0.0000 53.568820  5.750308 10.969345
5980  1  3 0.0000 54.718924  0.603127 11.929934
5981  1  3 0.0000 55.326727  4.143541  7.696325
5982  1  3 0.0000 55.023019  3.711781 10.195058
5983  1  3 0.0000 55.833528  1.736356  8.703686
5984  1  3 0.0000 57.432138  3.727475  9.191463
5985  1  3 0.0000 56.065327  5.511456 11.827011
5986  1  3 0.0000 58.671334  4.541362 11.373917
5987  1  3 0.0000 57.032340  0.561882 10.671955
5988  1  3 0.0000 56.554489  6.217990  6.974526
5989  1  3 0.0000 57.549741  6.253421  9.475527
5990  1  3 0.0000 30.315090  6.411823  8.552724
5991  1  3 0.0000 29.935444  7.826349 11.970795
5992  1  3 0.0000 31.858251  7.721546 10.214452
5993  1  3 0.0000 31.873134  8.225136  7.786856
5994  1  3 0.0000 34.761343  7.004214 11.131244
5995  1  3 0.0000 41.790744  6.592474  7.847111
5996  1  3 0.0000 36.261192  9.420494  9.697356
5997  1  3 0.0000 38.679184 10.031773  7.251261
5998  1  3 0.0000 37.199670  7.107704  9.159741
5999  1  3 0.0000 38.836444  9.104251  9.712655
6000  1  3 0.0000 37.675694  7.755294 11.524598
6001  1  3 0.0000 39.302874  7.500224  7.798604
6002  1  3 0.0000 41.010879  9.456871  8.196486
6003  1  3 0.0000 37.245259 10.405836 12.147349
6004  1  3 0.0000 40.184474  7.898408 12.287126
6005  1  3 0.0000 41.817575  7.957573 10.241905
6006  1  3 0.0000 44.839356  7.270438  6.367744
6007  1  3 0.0000 41.832711 11.457850  6.843880
6008  1  3 0.0000 43.922054  7.363448  8.911522
6009  1  3 0.0000 43.503311  9.334789  7.214817
6010  1  3 0.0000 45.853974  8.871201  8.273926
6011  1  3 0.0000 47.144115  8.115321 10.490262
6012  1  3 0.0000 44.267560 12.135162 11.048380
6013  1  3 0.0000 45.575737 12.709789  7.128920
6014  1  3 0.0000 42.638484  6.805012 12.287122
6015  1  3 0.0000 47.753222 11.223015  7.257299
6016  1  3 0.0000 49.800658  9.950572  6.266500
6017  1  3 0.0000 52.593254  6.542774  8.747226
6018  1  3 0.0000 48.522234  8.734095  8.265738
6019  1  3 0.0000 52.788930 12.086592  6.841981
6020  1  3 0.0000 50.589115  7.218215 11.436499
6021  1  3 0.0000 49.969461 11.952871 11.092592
6022  1  3 0.0000 52.281654 10.817742 10.562031
6023  1  3 0.0000 49.815988 11.010026  8.677891
6024  1  3 0.0000 53.424027  8.381760 10.474254
6025  1  3 0.0000 53.566837 10.047777  8.395151
6026  1  3 0.0000 50.587735  9.827086 12.439455
6027  1  3 0.0000 56.798696 21.254354 22.545309
6028  1  3 0.0000 54.964367 12.176353  8.077958
6029  1  3 0.0000 56.916297  8.577604  8.117234
6030  1  3 0.0000 57.713268 11.232130  7.768262
6031  1  3 0.0000 55.096067  6.993167  9.088375
6032  1  3 0.0000 56.334222  8.112667 11.565016
6033  1  3 0.0000 57.541663  9.972511 10.084546
6034  1  3 0.0000 55.014562 10.373726 10.639296
6035  1  3 0.0000 59.299752  9.248928  7.996756
6036  1  3 0.0000 53.799075 21.979110 23.331448
6037  1  3 0.0000 44.059717 15.074849  7.022798
6038  1  3 0.0000 46.217279 14.627342  8.619964
6039  1  3 0.0000 47.286943 17.130228 10.556083
6040  1  3 0.0000 45.451071 18.863384 11.020444
6041  1  3 0.0000 45.029768 16.443413 11.759893
6042  1  3 0.0000 46.460168 19.013378  8.520488
6043  1  3 0.0000 47.873831 18.370867  6.430265
6044  1  3 0.0000 48.441912 13.188333  8.990933
6045  1  3 0.0000 48.120395 15.090261  6.911072
6046  1  3 0.0000 51.104587 13.332415  9.380862
6047  1  3 0.0000 51.231537 16.846006  6.887675
6048  1  3 0.0000 52.722674 14.809271  7.179817
6049  1  3 0.0000 48.763745 15.547693  9.372857
6050  1  3 0.0000 49.893791 17.245553 10.997919
6051  1  3 0.0000 51.886319 15.702638  9.431040
6052  1  3 0.0000 52.370073 14.305294 11.828479
6053  1  3 0.0000 48.846024 18.093766  8.793218
6054  1  3 0.0000 53.468558 17.256756  8.100220
6055  1  3 0.0000 51.525282 19.148176 10.019093
6056  1  3 0.0000 53.651007 13.785381  9.718903
6057  1  3 0.0000 56.037486 13.129188 10.261637
6058  1  3 0.0000 57.119491 13.590628  6.483093
6059  1  3 0.0000 55.510530 14.716753  8.171411
6060  1  3 0.0000 56.025070 18.051218  8.366566
6061  1  3 0.0000 57.529712 16.132975  7.518273
6062  1  3 0.0000 54.749153 16.740774 10.367781
6063  1  3 0.0000 58.588895 17.813362 11.168927
6064  1  3 0.0000 58.512509 18.722237  8.181451
6065  1  3 0.0000 56.276979 15.163079 11.769995
6066  1  3 0.0000 59.464206 13.960599 11.358261
6067  1  3 0.0000 59.493379 13.053723  6.476246
6068  1  3 0.0000 52.577889  0.277625 22.241465
6069  1  3 0.0000 47.639306 22.772836  9.310104
6070  1  3 0.0000 48.781764 22.508480  6.506115
6071  1  3 0.0000 51.718882 25.049052  9.286686
6072  1  3 0.0000 49.510406 24.785713  8.018605
6073  1  3 0.0000 50.252973 22.901420  9.585624
6074  1  3 0.0000 51.749878 23.214939  7.460468
6075  1  3 0.0000 48.809911 21.371878 11.124617
6076  1  3 0.0000 52.619031 21.161299  8.688432
6077  1  3 0.0000 48.708197 24.068016 11.479301
6078  1  3 0.0000 52.923665 20.992384 11.356098
6079  1  3 0.0000 50.254445 19.479532 12.208016
6080  1  3 0.0000 54.067214 19.157296  9.718858
6081  1  3 0.0000 59.346206 23.466843 12.147247
6082  1  3 0.0000 58.427976 25.618394  6.317072
6083  1  3 0.0000 56.937971 19.860502 10.735326
6084  1  3 0.0000 58.195645 22.982333  6.525907
6085  1  3 0.0000 58.420270 21.885600 10.185594
6086  1  3 0.0000 54.399447 22.767664  7.465696
6087  1  3 0.0000 55.954256 22.099094  9.306620
6088  1  3 0.0000 56.651608 24.302586  8.023066
6089  1  3 0.0000 54.537791 24.526280  9.313360
6090  1  3 0.0000 56.394605 22.130357 11.930008
6091  1  3 0.0000 55.177446 24.777093 11.717320
6092  1  3 0.0000 59.238912 24.482396  8.552142
6093  1  3 0.0000 56.915421 25.753384 19.892286
6094  1  3 0.0000 30.304842  1.182301 16.222416
6095  1  3 0.0000 30.964215  3.053393 13.134943
6096  1  3 0.0000 34.819676  0.959352 13.813222
6097  1  3 0.0000 31.961171  5.444557 15.246670
6098  1  3 0.0000 34.642247  3.836196 14.733989
6099  1  3 0.0000 32.632401  2.457176 15.823663
6100  1  3 0.0000 33.709595  4.472927 16.942231
6101  1  3 0.0000 35.094495  2.282137 16.857667
6102  1  3 0.0000 31.723511  0.728141 14.061412
6103  1  3 0.0000 35.583483  5.393578 12.920458
6104  1  3 0.0000 35.887496  6.194731 17.866733
6105  1  3 0.0000 41.129198  4.726881 12.369618
6106  1  3 0.0000 36.518589  5.458023 15.457072
6107  1  3 0.0000 38.284696  3.361615 16.361420
6108  1  3 0.0000 36.976076  3.325341 13.998651
6109  1  3 0.0000 39.528441  3.500400 14.098798
6110  1  3 0.0000 38.838760  5.862087 13.099577
6111  1  3 0.0000 38.405580  1.148174 14.719886
6112  1  3 0.0000 40.222887  3.792234 18.049549
6113  1  3 0.0000 38.889398  5.939438 17.421410
6114  1  3 0.0000 41.425077  0.809716 16.147991
6115  1  3 0.0000 41.830306  1.910337 13.844095
6116  1  3 0.0000 41.909144  5.637537 17.158204
6117  1  3 0.0000 41.819631  3.296519 16.112941
6118  1  3 0.0000 44.117232  0.984486 12.960684
6119  1  3 0.0000 45.442012  4.773795 13.895175
6120  1  3 0.0000 46.193580  1.919400 14.296855
6121  1  3 0.0000 43.837033  1.439762 15.492859
6122  1  3 0.0000 44.495979  4.120754 16.330211
6123  1  3 0.0000 46.196395  6.000483 16.027062
6124  1  3 0.0000 45.417580  2.331379 18.072750
6125  1  3 0.0000 47.526304  3.631429 15.825684
6126  1  3 0.0000 43.606065  6.204595 15.193834
6127  1  3 0.0000 43.005366  3.602880 18.340396
6128  1  3 0.0000 47.911718  5.229806 17.739731
6129  1  3 0.0000 48.687919  3.150364 13.604133
6130  1  3 0.0000 48.476277  1.154057 15.324369
6131  1  3 0.0000 52.216742  1.129930 14.819577
6132  1  3 0.0000 50.589472  4.227011 14.955791
6133  1  3 0.0000 51.764121  5.744548 17.074544
6134  1  3 0.0000 52.984857  3.638601 15.599989
6135  1  3 0.0000 52.505321  5.941754 14.564237
6136  1  3 0.0000 51.170433  2.737510 17.724589
6137  1  3 0.0000 48.416843  5.984505 15.061316
6138  1  3 0.0000 53.837616  1.740946 16.940278
6139  1  3 0.0000 58.346897  0.289365 15.227589
6140  1  3 0.0000 59.435250  5.141188 13.866546
6141  1  3 0.0000 56.429533  2.236238 12.660057
6142  1  3 0.0000 54.332798  3.801900 12.655564
6143  1  3 0.0000 54.628271  1.941195 14.511979
6144  1  3 0.0000 57.879414  5.259168 16.201767
6145  1  3 0.0000 56.154835  4.061292 14.560662
6146  1  3 0.0000 55.689716  3.689728 17.039607
6147  1  3 0.0000 57.730492  2.548332 16.074526
6148  1  3 0.0000 58.174031  0.661457 17.850530
6149  1  3 0.0000 58.732467  4.268951 18.514215
6150  1  3 0.0000 32.322506  6.498630 17.516140
6151  1  3 0.0000 30.255226  7.322822 15.318012
6152  1  3 0.0000 32.726210  7.948717 12.538594
6153  1  3 0.0000 34.293945  6.729579 15.875249
6154  1  3 0.0000 35.226588  8.897518 12.948482
6155  1  3 0.0000 30.128206  8.666016 17.459676
6156  1  3 0.0000 41.023227  6.716032 14.920897
6157  1  3 0.0000 36.521707 10.215040 14.627895
6158  1  3 0.0000 36.614333  8.077385 16.190529
6159  1  3 0.0000 38.169087  8.224849 14.071596
6160  1  3 0.0000 40.782396  9.907642 14.364245
6161  1  3 0.0000 40.910114 10.807912 16.873110
6162  1  3 0.0000 42.348311  9.406998 12.332811
6163  1  3 0.0000 41.962533 11.825893 12.921809
6164  1  3 0.0000 42.493236  8.100986 16.694178
6165  1  3 0.0000 43.354602 10.374585 14.639964
6166  1  3 0.0000 44.773614 12.208908 15.927159
6167  1  3 0.0000 46.020304  9.989471 14.987060
6168  1  3 0.0000 46.410393  8.691332 17.241833
6169  1  3 0.0000 45.025754 11.977478 13.550712
6170  1  3 0.0000 43.473681 10.143804 18.093793
6171  1  3 0.0000 47.580467  7.497703 13.061998
6172  1  3 0.0000 44.352935  7.742162 18.401284
6173  1  3 0.0000 47.855509 10.864003 16.656546
6174  1  3 0.0000 48.113343  8.529503 15.418278
6175  1  3 0.0000 52.194838 11.944782 12.772887
6176  1  3 0.0000 52.362197  8.148957 13.167001
6177  1  3 0.0000 49.995512  7.659222 13.878320
6178  1  3 0.0000 50.178116  9.989933 17.376040
6179  1  3 0.0000 49.938646 12.220076 15.775876
6180  1  3 0.0000 52.517849  7.848112 18.423072
6181  1  3 0.0000 53.089066 12.156419 17.097404
6182  1  3 0.0000 50.001375  7.531937 18.226308
6183  1  3 0.0000 49.390037 12.225274 18.331442
6184  1  3 0.0000 55.068889 21.349097 19.211910
6185  1  3 0.0000 53.613583  8.082834 15.424493
6186  1  3 0.0000 56.724507 10.415878 12.603661
6187  1  3 0.0000 57.260345  6.725086 13.752161
6188  1  3 0.0000 54.724944  6.974264 13.367215
6189  1  3 0.0000 55.920683 11.793588 14.795659
6190  1  3 0.0000 55.801803  7.743040 16.961871
6191  1  3 0.0000 56.007214  9.199558 14.776863
6192  1  3 0.0000 58.218005 10.568267 14.635092
6193  1  3 0.0000 54.577945 10.073956 16.777312
6194  1  3 0.0000 59.246689  7.399184 15.350034
6195  1  3 0.0000 57.720117  9.219436 18.045955
6196  1  3 0.0000 57.563157  6.656402 18.426454
6197  1  3 0.0000 46.307927 13.612496 12.341354
6198  1  3 0.0000 43.821344 14.220466 12.540547
6199  1  3 0.0000 47.063122 18.037146 12.920026
6200  1  3 0.0000 45.316629 14.240705 17.409639
6201  1  3 0.0000 43.311497 14.343657 15.611271
6202  1  3 0.0000 45.767027 14.414286 14.797570
6203  1  3 0.0000 46.632791 18.341082 17.856194
6204  1  3 0.0000 47.259994 17.264414 15.450107
6205  1  3 0.0000 47.577167 15.597429 13.382601
6206  1  3 0.0000 52.260974 17.729170 12.049860
6207  1  3 0.0000 48.059871 13.247099 14.384752
6208  1  3 0.0000 52.951442 13.616041 14.612771
6209  1  3 0.0000 48.722731 14.189411 16.783276
6210  1  3 0.0000 49.509244 17.155302 14.047993
6211  1  3 0.0000 52.779953 14.893828 17.027747
6212  1  3 0.0000 50.330993 16.678879 16.429668
6213  1  3 0.0000 52.018055 16.714679 14.396864
6214  1  3 0.0000 50.171708 14.757162 14.645759
6215  1  3 0.0000 51.635230 18.934986 16.712466
6216  1  3 0.0000 51.954164 16.930128 18.393882
6217  1  3 0.0000 56.308434 17.824169 12.182641
6218  1  3 0.0000 53.687824 18.709399 13.907512
6219  1  3 0.0000 57.396112 12.949326 12.523965
6220  1  3 0.0000 54.336622 16.404983 12.992704
6221  1  3 0.0000 54.639317 13.139390 12.493911
6222  1  3 0.0000 59.228960 13.949607 14.044555
6223  1  3 0.0000 58.860450 17.893477 16.485827
6224  1  3 0.0000 54.956859 13.658265 16.241268
6225  1  3 0.0000 57.584908 13.290653 16.042443
6226  1  3 0.0000 56.158657 14.595493 14.357518
6227  1  3 0.0000 56.962827 15.983523 17.878617
6228  1  3 0.0000 57.790877 16.586286 14.458834
6229  1  3 0.0000 56.562758 18.445430 17.459532
6230  1  3 0.0000 55.550916 16.843792 15.747992
6231  1  3 0.0000 54.468498 16.656164 18.056281
6232  1  3 0.0000 59.178297 15.333323 16.137422
6233  1  3 0.0000 56.853731 23.501774 21.362547
6234  1  3 0.0000 45.505225 19.243351 15.632677
6235  1  3 0.0000 47.370345 22.739640 18.262265
6236  1  3 0.0000 47.770350 22.217788 15.680159
6237  1  3 0.0000 52.963226 23.327474 12.425565
6238  1  3 0.0000 50.679890 21.946142 12.669605
6239  1  3 0.0000 48.074992 19.640868 16.087166
6240  1  3 0.0000 52.386032 24.999380 16.682109
6241  1  3 0.0000 52.801401 21.215364 13.936406
6242  1  3 0.0000 48.571296 20.783570 13.717291
6243  1  3 0.0000 50.456924 23.544843 17.486439
6244  1  3 0.0000 50.042402 21.321829 15.820386
6245  1  3 0.0000 52.029921 21.448293 17.390208
6246  1  3 0.0000 50.025597 25.475111 15.851140
6247  1  3 0.0000 49.588739 21.313602 18.382624
6248  1  3 0.0000 58.133051 19.571929 13.091211
6249  1  3 0.0000 54.918007 25.636725 16.105015
6250  1  3 0.0000 53.840382 25.602707 13.758432
6251  1  3 0.0000 53.832654 20.114443 16.106837
6252  1  3 0.0000 58.534706 25.144747 13.936198
6253  1  3 0.0000 57.752771 20.212930 15.999509
6254  1  3 0.0000 57.365837 22.201681 14.439910
6255  1  3 0.0000 55.321949 20.768224 13.876298
6256  1  3 0.0000 55.096637 23.347394 13.756556
6257  1  3 0.0000 58.569674 22.590598 16.768288
6258  1  3 0.0000 56.006871 22.006790 16.775415
6259  1  3 0.0000 54.134423 23.614575 17.736354
6260  1  3 0.0000 34.559644  0.175834 18.173497
6261  1  3 0.0000 34.010985  0.148888 21.595361
6262  1  3 0.0000 30.814087  1.819753 18.600110
6263  1  3 0.0000 30.712344  0.884625 21.033998
6264  1  3 0.0000 31.985781  4.924797 19.822414
6265  1  3 0.0000 31.769507  3.742088 22.323045
6266  1  3 0.0000 33.925802  2.578389 22.658687
6267  1  3 0.0000 32.879357  2.005791 20.236708
6268  1  3 0.0000 35.445184  2.045591 20.599229
6269  1  3 0.0000 35.591032  5.079383 20.350009
6270  1  3 0.0000 33.190473  4.520871 24.437193
6271  1  3 0.0000 31.787091  6.330361 21.925908
6272  1  3 0.0000 36.992830  0.020656 20.862736
6273  1  3 0.0000 36.869198  1.228309 18.571675
6274  1  3 0.0000 37.522530  4.256731 18.655474
6275  1  3 0.0000 37.158319  2.204146 23.424640
6276  1  3 0.0000 38.001443  2.413196 20.879350
6277  1  3 0.0000 39.668717  2.132544 22.738222
6278  1  3 0.0000 38.000804  4.480314 22.651963
6279  1  3 0.0000 40.720132  6.178659 23.939873
6280  1  3 0.0000 41.704917  1.074284 21.333206
6281  1  3 0.0000 36.111839  6.510544 23.083949
6282  1  3 0.0000 40.279181  6.398731 19.514441
6283  1  3 0.0000 41.898429  0.463104 18.741198
6284  1  3 0.0000 45.405908  4.812256 18.742568
6285  1  3 0.0000 43.519913  1.885484 23.941585
6286  1  3 0.0000 45.884230  4.850377 24.255708
6287  1  3 0.0000 44.076175  1.197481 19.938928
6288  1  3 0.0000 45.614307  1.696769 22.500362
6289  1  3 0.0000 46.693079  1.174845 20.197248
6290  1  3 0.0000 45.252289  5.982195 22.057849
6291  1  3 0.0000 42.866398  6.066653 20.575952
6292  1  3 0.0000 47.451053  4.635764 20.207853
6293  1  3 0.0000 43.025830  6.372504 23.140011
6294  1  3 0.0000 59.227093 17.246646 22.316269
6295  1  3 0.0000 54.598012 24.501941 20.560396
6296  1  3 0.0000 47.652836  0.239943 22.548038
6297  1  3 0.0000 50.277100  0.473321 18.652734
6298  1  3 0.0000 47.998990  2.661546 21.829434
6299  1  3 0.0000 50.533520  3.840510 23.943026
6300  1  3 0.0000 51.572341  1.872610 20.294892
6301  1  3 0.0000 49.291985  2.871191 19.479890
6302  1  3 0.0000 49.699127  4.661954 21.374359
6303  1  3 0.0000 51.694732  5.798904 22.478230
6304  1  3 0.0000 51.347253  5.998605 19.875419
6305  1  3 0.0000 52.680699  3.386113 22.777858
6306  1  3 0.0000 51.232571  1.286745 24.269402
6307  1  3 0.0000 58.629765 25.225285 22.790742
6308  1  3 0.0000 55.907308  1.545971 18.532804
6309  1  3 0.0000 57.163968  3.553912 23.891263
6310  1  3 0.0000 54.026230  1.837187 21.036855
6311  1  3 0.0000 54.092811  3.574333 18.976100
6312  1  3 0.0000 57.044161  1.021392 23.948118
6313  1  3 0.0000 59.296483  2.385005 23.108129
6314  1  3 0.0000 54.720320  4.195228 21.540287
6315  1  3 0.0000 58.640611  4.254624 21.256289
6316  1  3 0.0000 57.943777  2.211220 20.004716
6317  1  3 0.0000 54.850274  2.192902 23.356767
6318  1  3 0.0000 56.506715  4.413902 19.684833
6319  1  3 0.0000 57.559818  6.213414 23.352860
6320  1  3 0.0000 54.535125  6.088448 19.692283
6321  1  3 0.0000 34.025671  0.046557  4.431810
6322  1  3 0.0000 58.290206 21.552453 20.292382
6323  1  3 0.0000 30.935070  7.284580 19.426405
6324  1  3 0.0000 33.622967  7.073240 23.849790
6325  1  3 0.0000 31.239786  8.638124 23.398436
6326  1  3 0.0000 33.562913  6.974842 19.844797
6327  1  3 0.0000 32.420548  8.714748 21.167999
6328  1  3 0.0000 34.789887  8.422482 21.883265
6329  1  3 0.0000 35.532458  8.865652 24.377764
6330  1  3 0.0000 37.645074  6.503743 19.683044
6331  1  3 0.0000 38.923685  8.508513 18.840200
6332  1  3 0.0000 38.678907  7.027646 22.643821
6333  1  3 0.0000 37.361554 10.178482 23.521554
6334  1  3 0.0000 41.046601  7.495268 21.662828
6335  1  3 0.0000 38.458272  9.885535 21.106795
6336  1  3 0.0000 39.978532 10.884592 19.287597
6337  1  3 0.0000 40.363922  8.900518 23.598946
6338  1  3 0.0000 41.008233 11.379450 22.633121
6339  1  3 0.0000 47.611533  6.534750 23.109902
6340  1  3 0.0000 42.003981  8.299268 19.263408
6341  1  3 0.0000 42.233118 12.128392 18.787829
6342  1  3 0.0000 46.715442  6.948906 19.247327
6343  1  3 0.0000 42.824629  9.635684 23.087495
6344  1  3 0.0000 43.555391 10.788438 20.677261
6345  1  3 0.0000 44.039741  8.252801 21.453697
6346  1  3 0.0000 45.981487  9.367345 19.734486
6347  1  3 0.0000 45.323123 10.345963 22.604145
6348  1  3 0.0000 44.993668 12.118855 18.851523
6349  1  3 0.0000 47.105301 11.253171 21.073454
6350  1  3 0.0000 45.294942  7.296475 24.285701
6351  1  3 0.0000 47.594474 11.653385 23.577278
6352  1  3 0.0000 47.541238  8.893000 21.796760
6353  1  3 0.0000 48.476183  9.610244 19.361004
6354  1  3 0.0000 49.635886  7.272587 21.619949
6355  1  3 0.0000 52.263344 10.521231 21.926508
6356  1  3 0.0000 51.035702  9.346933 19.711216
6357  1  3 0.0000 49.891680 11.488954 21.387378
6358  1  3 0.0000 48.876124  8.448543 24.089698
6359  1  3 0.0000 52.757147  9.356060 24.274831
6360  1  3 0.0000 53.232770 10.323033 19.010186
6361  1  3 0.0000 53.436247 11.885509 23.663194
6362  1  3 0.0000 53.427146  8.260689 20.767398
6363  1  3 0.0000 52.081959 12.765172 20.516608
6364  1  3 0.0000 59.358629 11.826571 22.185153
6365  1  3 0.0000 55.361536 11.575582 18.693980
6366  1  3 0.0000 55.773146  8.324979 19.524611
6367  1  3 0.0000 55.604729  7.209879 21.886004
6368  1  3 0.0000 57.060769  8.707482 23.498577
6369  1  3 0.0000 54.838792  9.939231 22.775006
6370  1  3 0.0000 56.952604 11.374913 23.307561
6371  1  3 0.0000 58.076859  7.754607 21.269455
6372  1  3 0.0000 57.076773 11.875902 20.795726
6373  1  3 0.0000 32.537511  0.049908 16.457614
6374  1  3 0.0000 45.654342 12.939157 22.593603
6375  1  3 0.0000 47.247032 13.699839 18.980026
6376  1  3 0.0000 44.920585 14.414711 20.029793
6377  1  3 0.0000 46.506716 14.886679 24.167637
6378  1  3 0.0000 47.511333 17.909263 22.748023
6379  1  3 0.0000 47.672081 17.987061 20.248687
6380  1  3 0.0000 49.738784 18.380212 18.473885
6381  1  3 0.0000 47.960369 15.641746 21.266996
6382  1  3 0.0000 51.623892 16.212294 24.088354
6383  1  3 0.0000 51.480653 13.652747 24.064254
6384  1  3 0.0000 51.346098 18.449269 22.737553
6385  1  3 0.0000 49.585705 14.627484 19.384508
6386  1  3 0.0000 50.051640 16.913981 20.554256
6387  1  3 0.0000 50.521117 14.936154 22.014818
6388  1  3 0.0000 53.289024 14.207168 22.337357
6389  1  3 0.0000 49.195713 15.149240 24.153311
6390  1  3 0.0000 53.306382 14.897865 19.648567
6391  1  3 0.0000 53.554093 18.260296 24.170290
6392  1  3 0.0000 54.723763 12.975069 20.718198
6393  1  3 0.0000 58.291067 15.736089 24.187035
6394  1  3 0.0000 56.612109 13.875148 19.124323
6395  1  3 0.0000 57.635414 13.750977 22.725712
6396  1  3 0.0000 55.304110 18.597782 19.841220
6397  1  3 0.0000 58.849128 14.937180 19.656086
6398  1  3 0.0000 56.587650 16.208067 20.367957
6399  1  3 0.0000 57.420343 18.555166 21.105135
6400  1  3 0.0000 55.331736 17.549886 22.283476
6401  1  3 0.0000 55.946083 19.352920 24.136572
6402  1  3 0.0000 38.059001  0.067140  3.026622
6403  1  3 0.0000 52.401386 25.653030  2.551092
6404  1  3 0.0000 47.446587 25.226752 18.750644
6405  1  3 0.0000 47.356924 20.351835 19.269075
6406  1  3 0.0000 53.783960 20.152008 21.267869
6407  1  3 0.0000 50.624591 22.717714 24.469572
6408  1  3 0.0000 48.606001 22.380817 20.573250
6409  1  3 0.0000 52.699457 24.799828 22.333391
6410  1  3 0.0000 52.915368 22.550649 20.997272
6411  1  3 0.0000 49.780585 19.446699 20.952387
6412  1  3 0.0000 53.226409 19.657986 18.681165
6413  1  3 0.0000 48.266912 22.807875 23.285019
6414  1  3 0.0000 49.177545 19.797563 23.453938
6415  1  3 0.0000 49.429925 25.531170 20.519928
6416  1  3 0.0000 49.437426 24.943344 24.271277
6417  1  3 0.0000 51.860514 24.705507 19.949550
6418  1  3 0.0000 51.450753 20.976957 22.361560
6419  1  3 0.0000 58.792947 19.752215 18.428793
6420  1  3 0.0000 58.990313 22.580749 22.671750
6421  1  3 0.0000 56.414832 23.497448 18.898663
6422  1  3 0.0000 54.695700 24.504916 23.785319
6423  1  3 0.0000 44.647979  0.042340  1.160204
6424  1  3 0.0000 35.850869  0.346641  8.762893
6425  1  3 0.0000 36.148064  0.062646 16.152413
6426  1  3 0.0000 39.125622  0.097386 12.486790
6427  1  3 0.0000 42.504953  4.134751 24.574712
6428  1  3 0.0000 32.160306  2.079052 24.565731
6429  1  3 0.0000 35.652811  0.029105 23.949034
6430  1  3 0.0000 41.272259  6.561655  0.056729
6431  1  3 0.0000 58.407114 11.570942  0.025523
6432  1  3 0.0000 33.222948  4.274930 28.739544
6433  1  3 0.0000 31.476985  2.349987 29.240005
6434  1  3 0.0000 33.664088  2.000774 26.728786
6435  1  3 0.0000 30.799866  4.039675 27.405132
6436  1  3 0.0000 31.137670  4.671653 30.074002
6437  1  3 0.0000 31.503355  0.582820 26.909585
6438  1  3 0.0000 35.430536  3.958848 26.422786
6439  1  3 0.0000 35.780569  5.127681 28.807904
6440  1  3 0.0000 35.645131  2.252162 28.354719
6441  1  3 0.0000 36.215144  1.685790 25.829094
6442  1  3 0.0000 37.729966  4.841214 27.099049
6443  1  3 0.0000 39.387484  3.979038 25.407148
6444  1  3 0.0000 38.112922  3.321709 29.391027
6445  1  3 0.0000 39.260979  1.658561 26.790635
6446  1  3 0.0000 40.681180  4.426430 29.616949
6447  1  3 0.0000 37.209028  0.847489 29.635459
6448  1  3 0.0000 41.009773  3.745762 27.260354
6449  1  3 0.0000 41.323963  1.993844 25.371123
6450  1  3 0.0000 40.035648  2.208603 30.668620
6451  1  3 0.0000 37.872531  6.010004 24.792128
6452  1  3 0.0000 38.071839  0.191687 24.902726
6453  1  3 0.0000 42.837756  2.833561 28.841146
6454  1  3 0.0000 42.815140  5.302071 28.208795
6455  1  3 0.0000 43.538552  2.051640 26.494355
6456  1  3 0.0000 44.755995  4.789688 26.544553
6457  1  3 0.0000 44.876157  1.187384 28.560343
6458  1  3 0.0000 47.369259  5.066715 26.319066
6459  1  3 0.0000 46.405829  2.770526 25.912639
6460  1  3 0.0000 47.228113  1.891128 29.691959
6461  1  3 0.0000 42.372968  0.298246 28.300640
6462  1  3 0.0000 47.384211  0.503402 26.571540
6463  1  3 0.0000 42.638963  6.274577 25.754564
6464  1  3 0.0000 48.556887  5.314983 28.710183
6465  1  3 0.0000 48.559825  3.087843 27.382423
6466  1  3 0.0000 49.771950  0.984572 30.042384
6467  1  3 0.0000 49.912575  5.584551 26.604993
6468  1  3 0.0000 51.109938  3.034423 26.187297
6469  1  3 0.0000 52.544590  3.622929 28.311726
6470  1  3 0.0000 51.371980  1.308530 27.957579
6471  1  3 0.0000 53.449839  2.047954 26.465767
6472  1  3 0.0000 50.109945  6.202835 30.468479
6473  1  3 0.0000 53.674710  5.683106 29.465058
6474  1  3 0.0000 48.907772  2.056423 25.124150
6475  1  3 0.0000 53.463506  0.581877 29.925481
6476  1  3 0.0000 49.110253  3.651713 30.681373
6477  1  3 0.0000 52.795631  5.106861 24.790304
6478  1  3 0.0000 57.906041 25.812378 45.124654
6479  1  3 0.0000 54.257984  5.142971 26.950630
6480  1  3 0.0000 55.114067  3.689126 28.940481
6481  1  3 0.0000 58.706656  2.313609 25.639739
6482  1  3 0.0000 55.912805  1.123736 26.943403
6483  1  3 0.0000 57.717437  5.319189 25.702154
6484  1  3 0.0000 58.644068  5.775406 28.028214
6485  1  3 0.0000 58.218717  0.582792 28.117667
6486  1  3 0.0000 57.325536  3.433769 30.377449
6487  1  3 0.0000 58.078419  6.056484 30.540768
6488  1  3 0.0000 59.337595  1.710373 30.211271
6489  1  3 0.0000 54.716697  0.188951 25.014188
6490  1  3 0.0000 56.304488  6.806842 28.512729
6491  1  3 0.0000 58.540165 25.708231 33.839540
6492  1  3 0.0000 54.415301 23.315512 45.173930
6493  1  3 0.0000 58.179167  0.066282 37.062831
6494  1  3 0.0000 35.631659  6.561487 26.852993
6495  1  3 0.0000 33.139600  6.432275 26.313023
6496  1  3 0.0000 33.839464  6.604802 28.781295
6497  1  3 0.0000 34.261999  8.728772 27.165805
6498  1  3 0.0000 32.594199  9.725903 25.488771
6499  1  3 0.0000 29.907138  6.811063 28.720113
6500  1  3 0.0000 39.640518  6.479844 26.612780
6501  1  3 0.0000 35.882261  8.719407 29.828680
6502  1  3 0.0000 37.654192 10.537031 28.719554
6503  1  3 0.0000 36.933518 10.196001 26.163069
6504  1  3 0.0000 40.792338  7.581035 28.610733
6505  1  3 0.0000 39.193238 11.453704 26.706043
6506  1  3 0.0000 39.770924  8.989196 26.627574
6507  1  3 0.0000 38.233816  7.995589 28.513588
6508  1  3 0.0000 41.469975 10.560857 27.663809
6509  1  3 0.0000 39.704479 11.835726 30.845031
6510  1  3 0.0000 41.653765  9.318465 30.498617
6511  1  3 0.0000 41.555560 12.616810 29.182464
6512  1  3 0.0000 42.167880 13.108659 49.130448
6513  1  3 0.0000 45.769840  6.685257 29.369361
6514  1  3 0.0000 43.389953  7.866068 29.250268
6515  1  3 0.0000 43.325162 10.834499 29.396211
6516  1  3 0.0000 45.760291  9.136955 28.537739
6517  1  3 0.0000 46.119658 11.560118 29.382184
6518  1  3 0.0000 44.584929  7.285762 27.046345
6519  1  3 0.0000 44.574808  9.516176 25.620497
6520  1  3 0.0000 46.799382  8.176237 25.987573
6521  1  3 0.0000 43.352429 12.503801 27.260827
6522  1  3 0.0000 47.280561  9.586264 30.697487
6523  1  3 0.0000 48.063847 10.447561 25.775843
6524  1  3 0.0000 48.267370 10.368163 28.564110
6525  1  3 0.0000 51.188629  7.106930 28.306019
6526  1  3 0.0000 49.283082  8.164493 26.714945
6527  1  3 0.0000 50.720482 10.439211 27.728066
6528  1  3 0.0000 53.015005  9.495643 26.896177
6529  1  3 0.0000 52.180269 11.871594 26.103178
6530  1  3 0.0000 49.886726  8.712730 29.657738
6531  1  3 0.0000 51.539803  7.506579 25.705945
6532  1  3 0.0000 52.837812 11.574703 28.570343
6533  1  3 0.0000 50.191315 11.277235 30.182425
6534  1  3 0.0000 49.944712 11.942372 24.778663
6535  1  3 0.0000 54.001006  7.313340 25.554232
6536  1  3 0.0000 55.102388 11.549427 29.683799
6537  1  3 0.0000 54.115582  9.160184 29.819696
6538  1  3 0.0000 55.859146 10.000162 27.866990
6539  1  3 0.0000 58.451967  8.140118 29.253974
6540  1  3 0.0000 57.534579 11.279353 26.328943
6541  1  3 0.0000 56.591946  9.698900 30.428831
6542  1  3 0.0000 55.200211 12.338408 26.470971
6543  1  3 0.0000 58.925937 10.612740 29.814721
6544  1  3 0.0000 55.486376 10.105325 25.248347
6545  1  3 0.0000 29.869655  8.305868 35.214325
6546  1  3 0.0000 57.015511 25.724592 24.752978
6547  1  3 0.0000 45.019827 13.017649 25.184097
6548  1  3 0.0000 45.679248 13.543744 27.720444
6549  1  3 0.0000 45.094271 13.723282 30.223646
6550  1  3 0.0000 46.228867 17.997128 27.749240
6551  1  3 0.0000 43.989177 14.989253 26.456669
6552  1  3 0.0000 44.714180 16.681512 29.366659
6553  1  3 0.0000 47.301498 16.033703 28.982278
6554  1  3 0.0000 46.724116 18.061549 30.399856
6555  1  3 0.0000 47.719741 13.611379 29.383563
6556  1  3 0.0000 47.899360 15.859413 26.271971
6557  1  3 0.0000 58.789024 23.701503 46.852251
6558  1  3 0.0000 48.008049 13.263372 25.534266
6559  1  3 0.0000 48.389650 18.261906 25.369915
6560  1  3 0.0000 49.858592 15.071029 28.571834
6561  1  3 0.0000 50.728142 13.958826 26.507492
6562  1  3 0.0000 48.874047 17.991030 27.956482
6563  1  3 0.0000 50.250199 16.505356 26.492270
6564  1  3 0.0000 52.422382 15.566633 27.770328
6565  1  3 0.0000 51.349056 18.654701 25.264236
6566  1  3 0.0000 52.486528 19.072882 27.591612
6567  1  3 0.0000 53.786146 14.117231 24.863026
6568  1  3 0.0000 53.959933 13.846914 28.947006
6569  1  3 0.0000 57.796224 13.345000 27.729821
6570  1  3 0.0000 58.437127 15.600052 28.969429
6571  1  3 0.0000 54.697317 16.338913 29.320465
6572  1  3 0.0000 56.864369 14.111218 30.071827
6573  1  3 0.0000 54.692269 17.666736 26.877741
6574  1  3 0.0000 57.081199 16.493551 26.892912
6575  1  3 0.0000 56.978402 17.727713 29.020775
6576  1  3 0.0000 54.862336 15.109832 26.919377
6577  1  3 0.0000 54.674533 18.945100 29.068254
6578  1  3 0.0000 58.680260 13.367661 25.215700
6579  1  3 0.0000 58.259852 19.303171 26.271935
6580  1  3 0.0000 59.383580 17.497311 27.479410
6581  1  3 0.0000 59.307915 13.273281 29.906543
6582  1  3 0.0000 56.351087 14.072600 25.004755
6583  1  3 0.0000 55.557072 16.809318 24.730135
6584  1  3 0.0000 38.230519  9.841851 48.995030
6585  1  3 0.0000 47.323478 22.093704 30.774598
6586  1  3 0.0000 47.459570 25.665894 29.714923
6587  1  3 0.0000 58.670992 22.009065 48.741285
6588  1  3 0.0000 50.057668 19.435674 29.898118
6589  1  3 0.0000 47.884499 20.337214 28.772302
6590  1  3 0.0000 50.117310 20.072435 27.376581
6591  1  3 0.0000 48.936970 22.704373 28.698071
6592  1  3 0.0000 51.984233 21.095604 26.027723
6593  1  3 0.0000 51.029162 23.226333 27.018259
6594  1  3 0.0000 48.709498 23.060154 26.019079
6595  1  3 0.0000 49.329266 25.055590 27.623129
6596  1  3 0.0000 53.620847 24.961215 28.712316
6597  1  3 0.0000 52.957579 23.395165 25.250275
6598  1  3 0.0000 53.568125 22.673776 30.297441
6599  1  3 0.0000 49.676183 24.624405 30.853921
6600  1  3 0.0000 56.113502 25.295879 27.337312
6601  1  3 0.0000 59.171663 21.261305 27.587643
6602  1  3 0.0000 58.968183 19.898864 29.838043
6603  1  3 0.0000 55.830412 24.001150 29.595397
6604  1  3 0.0000 54.566490 20.263207 26.736311
6605  1  3 0.0000 54.496887 22.547094 27.946823
6606  1  3 0.0000 55.264605 22.402410 25.508083
6607  1  3 0.0000 56.689984 21.319430 27.355939
6608  1  3 0.0000 58.197779 24.334220 28.456996
6609  1  3 0.0000 57.774110 21.310473 25.074976
6610  1  3 0.0000 33.186415  1.304234 30.937570
6611  1  3 0.0000 34.473614  4.857469 30.945541
6612  1  3 0.0000 30.610817  1.104392 31.295690
6613  1  3 0.0000 33.047041  0.605400 36.155877
6614  1  3 0.0000 31.255231  3.468286 32.304388
6615  1  3 0.0000 34.663146  3.427951 33.205321
6616  1  3 0.0000 33.105142  3.088949 35.372008
6617  1  3 0.0000 35.217939  4.716166 35.403566
6618  1  3 0.0000 35.500798  2.146899 35.416249
6619  1  3 0.0000 31.033693  6.090346 35.398848
6620  1  3 0.0000 32.343375  5.976585 31.945968
6621  1  3 0.0000 33.554616  0.544912 33.534928
6622  1  3 0.0000 35.604121  0.501978 32.113332
6623  1  3 0.0000 56.896668 21.680108 46.734637
6624  1  3 0.0000 36.153601  2.944330 30.994286
6625  1  3 0.0000 38.866649  4.350409 31.668040
6626  1  3 0.0000 36.547245  5.066489 32.500895
6627  1  3 0.0000 40.622952  3.864026 35.062008
6628  1  3 0.0000 38.598550  5.317741 34.047598
6629  1  3 0.0000 37.405074  1.161502 34.120302
6630  1  3 0.0000 40.312968  1.112110 35.664271
6631  1  3 0.0000 37.863625  2.693285 36.461322
6632  1  3 0.0000 40.419337  1.876709 33.207497
6633  1  3 0.0000 36.962065  0.232914 36.450016
6634  1  3 0.0000 41.033014  6.188752 33.669528
6635  1  3 0.0000 40.046813  6.471699 36.042059
6636  1  3 0.0000 45.547855  0.424216 24.758928
6637  1  3 0.0000 45.175730  1.226845 31.092384
6638  1  3 0.0000 42.494671  1.600184 31.510260
6639  1  3 0.0000 42.484990  2.046054 34.853806
6640  1  3 0.0000 44.359352  2.943655 32.772905
6641  1  3 0.0000 46.229908  3.889384 35.441632
6642  1  3 0.0000 42.795694  4.890770 32.180307
6643  1  3 0.0000 45.218725  4.906499 31.271146
6644  1  3 0.0000 45.094030  1.470113 35.369863
6645  1  3 0.0000 44.888412  5.240952 33.750182
6646  1  3 0.0000 43.862194  0.503493 33.316062
6647  1  3 0.0000 47.536406  5.550880 34.040916
6648  1  3 0.0000 46.012465  6.336463 35.971544
6649  1  3 0.0000 47.617689  5.827685 31.115410
6650  1  3 0.0000 47.577280  1.899200 34.496480
6651  1  3 0.0000 48.262323  1.436646 32.062930
6652  1  3 0.0000 51.389462  3.969552 33.646336
6653  1  3 0.0000 52.258949  1.637611 34.698608
6654  1  3 0.0000 49.404799  5.165186 35.691682
6655  1  3 0.0000 52.537191  5.461288 31.904418
6656  1  3 0.0000 52.836399  2.196296 32.110996
6657  1  3 0.0000 50.037898  6.169746 33.329328
6658  1  3 0.0000 53.348370  5.264878 36.442639
6659  1  3 0.0000 52.434719  6.420439 34.338756
6660  1  3 0.0000 59.538141  7.019733 45.129362
6661  1  3 0.0000 53.839565  3.584247 34.066211
6662  1  3 0.0000 53.899722  0.299926 36.295250
6663  1  3 0.0000 55.216336  2.030805 31.006222
6664  1  3 0.0000 55.047897  4.616394 31.261942
6665  1  3 0.0000 55.646275  3.263885 36.092877
6666  1  3 0.0000 56.095429  4.904604 34.005938
6667  1  3 0.0000 55.947238  2.264586 33.630701
6668  1  3 0.0000 58.262685  2.445208 32.548169
6669  1  3 0.0000 57.514279  0.553312 34.584754
6670  1  3 0.0000 58.043314  2.927438 36.876177
6671  1  3 0.0000 57.179165  6.261248 35.996822
6672  1  3 0.0000 59.337061  6.453794 32.695131
6673  1  3 0.0000 33.887350  6.480811 34.078731
6674  1  3 0.0000 34.241536  6.686082 36.770643
6675  1  3 0.0000 34.065186  8.016373 31.875928
6676  1  3 0.0000 31.818838  7.896142 33.505910
6677  1  3 0.0000 34.620412  9.245593 34.791011
6678  1  3 0.0000 32.321287  8.615911 35.807131
6679  1  3 0.0000 51.514078  0.040343 36.667379
6680  1  3 0.0000 38.163268  9.230553 30.891929
6681  1  3 0.0000 36.168121  7.239997 35.092595
6682  1  3 0.0000 38.369089  6.973134 32.144433
6683  1  3 0.0000 36.812712  8.778927 33.156040
6684  1  3 0.0000 39.272263  9.311664 33.157991
6685  1  3 0.0000 39.805886  9.083446 35.665604
6686  1  3 0.0000 41.363647 10.436462 34.210038
6687  1  3 0.0000 37.091232  9.543168 35.703785
6688  1  3 0.0000 41.546501  6.811715 30.989988
6689  1  3 0.0000 42.261284 11.696768 31.474875
6690  1  3 0.0000 45.503195  7.462613 31.829323
6691  1  3 0.0000 43.948643  9.428320 31.675181
6692  1  3 0.0000 43.107674  7.387809 32.921204
6693  1  3 0.0000 43.840027 11.071887 34.087653
6694  1  3 0.0000 45.044401  8.711394 34.139649
6695  1  3 0.0000 46.225215 10.732878 32.701711
6696  1  3 0.0000 42.998945  9.760060 36.218989
6697  1  3 0.0000 42.380003 12.282862 35.786470
6698  1  3 0.0000 46.102345 12.112398 34.838548
6699  1  3 0.0000 47.550799 10.053601 35.459660
6700  1  3 0.0000 52.033947  8.038540 30.845523
6701  1  3 0.0000 48.350393  9.170180 33.147982
6702  1  3 0.0000 48.698327  7.624121 35.190799
6703  1  3 0.0000 48.497908 11.563304 31.914248
6704  1  3 0.0000 50.901464 11.068156 32.681368
6705  1  3 0.0000 50.485709 12.450721 34.803472
6706  1  3 0.0000 50.141500  9.891071 34.830634
6707  1  3 0.0000 52.627038 10.748903 34.597602
6708  1  3 0.0000 48.253635 12.440322 36.054223
6709  1  3 0.0000 52.720462  7.832812 36.570851
6710  1  3 0.0000 53.246986 12.653298 31.085900
6711  1  3 0.0000 53.630607  9.547628 32.416589
6712  1  3 0.0000 54.819056  7.045826 35.030504
6713  1  3 0.0000 54.383292  7.168918 31.572059
6714  1  3 0.0000 58.632461  8.820534 31.879241
6715  1  3 0.0000 57.134316  7.403014 33.635685
6716  1  3 0.0000 55.263283 10.095303 34.548057
6717  1  3 0.0000 56.616750 11.816092 36.148381
6718  1  3 0.0000 57.319550  9.421916 35.932303
6719  1  3 0.0000 57.529943 11.019219 33.835750
6720  1  3 0.0000 59.271587  8.436684 34.503964
6721  1  3 0.0000 59.282875 11.818829 32.142902
6722  1  3 0.0000 58.949794  7.868818 37.107720
6723  1  3 0.0000 41.967038 13.882456 33.674420
6724  1  3 0.0000 44.834201 13.001915 32.698166
6725  1  3 0.0000 46.101073 15.239876 32.006586
6726  1  3 0.0000 43.484376 15.141008 31.919105
6727  1  3 0.0000 46.169130 15.354149 34.502096
6728  1  3 0.0000 43.693648 14.587177 35.551196
6729  1  3 0.0000 44.287826 16.964790 34.569471
6730  1  3 0.0000 45.358912 18.374865 32.690696
6731  1  3 0.0000 46.357711 18.740965 35.057519
6732  1  3 0.0000 47.500574 17.149498 32.879227
6733  1  3 0.0000 45.231058 16.366472 36.768418
6734  1  3 0.0000 48.850764 15.398060 30.881629
6735  1  3 0.0000 51.541014 17.735060 31.018225
6736  1  3 0.0000 52.611393 15.273457 31.335647
6737  1  3 0.0000 50.297407 13.447225 31.731315
6738  1  3 0.0000 48.308626 16.971824 35.762574
6739  1  3 0.0000 48.362383 14.684413 33.245464
6740  1  3 0.0000 49.573453 14.721346 35.872433
6741  1  3 0.0000 52.292500 14.239234 36.008560
6742  1  3 0.0000 50.617826 15.973778 32.655033
6743  1  3 0.0000 53.033651 17.214986 33.071208
6744  1  3 0.0000 52.051837 17.467118 35.344949
6745  1  3 0.0000 53.023281 13.663323 33.481289
6746  1  3 0.0000 49.126108 19.139893 34.591351
6747  1  3 0.0000 50.614091 19.781302 32.515436
6748  1  3 0.0000 58.839752 13.327096 34.287822
6749  1  3 0.0000 59.341687 18.170691 35.846307
6750  1  3 0.0000 57.118772 13.225422 32.439950
6751  1  3 0.0000 54.107777 15.687517 34.849155
6752  1  3 0.0000 54.553297 13.153469 35.560839
6753  1  3 0.0000 55.670508 17.781973 31.258286
6754  1  3 0.0000 57.217957 15.838524 32.035203
6755  1  3 0.0000 54.958214 14.464513 31.951796
6756  1  3 0.0000 58.208926 18.355742 31.802159
6757  1  3 0.0000 56.529446 17.775775 33.692401
6758  1  3 0.0000 54.478169 18.322000 35.136864
6759  1  3 0.0000 56.913456 19.096954 36.011970
6760  1  3 0.0000 47.349788 19.846407 32.125577
6761  1  3 0.0000 46.822697 22.160831 33.428389
6762  1  3 0.0000 47.780685 22.597702 35.892884
6763  1  3 0.0000 52.540455 20.292168 30.881986
6764  1  3 0.0000 51.277731 20.694433 35.012083
6765  1  3 0.0000 49.235181 21.617933 33.828653
6766  1  3 0.0000 48.722532 24.084084 34.074005
6767  1  3 0.0000 53.005706 22.167161 32.749040
6768  1  3 0.0000 53.135279 21.118381 36.784362
6769  1  3 0.0000 57.197726  0.270019 32.092380
6770  1  3 0.0000 53.414086 23.220215 35.258025
6771  1  3 0.0000 53.786697 24.634227 32.899983
6772  1  3 0.0000 55.059224 21.057422 31.635968
6773  1  3 0.0000 55.747859 20.191562 33.903662
6774  1  3 0.0000 57.681415 21.465326 32.777116
6775  1  3 0.0000 55.331113 22.702244 33.519844
6776  1  3 0.0000 55.576739 21.978950 36.373785
6777  1  3 0.0000 56.958595 23.954364 35.251785
6778  1  3 0.0000 58.247962 21.825634 35.321416
6779  1  3 0.0000 31.311970  2.122773 37.143273
6780  1  3 0.0000 30.630676  5.728597 39.881662
6781  1  3 0.0000 33.645083  1.964915 41.108192
6782  1  3 0.0000 31.768011  3.695973 41.156919
6783  1  3 0.0000 31.603076  1.606726 39.551833
6784  1  3 0.0000 31.314434  1.165467 42.001561
6785  1  3 0.0000 33.869932  2.565386 37.779915
6786  1  3 0.0000 34.610175  4.895464 38.699545
6787  1  3 0.0000 32.283341  5.480902 37.922466
6788  1  3 0.0000 35.306959  3.675833 41.764991
6789  1  3 0.0000 30.920691  5.994037 42.368864
6790  1  3 0.0000 35.500955  6.253660 41.799783
6791  1  3 0.0000 35.589510  1.230438 42.652793
6792  1  3 0.0000 39.184003  0.364460 37.906632
6793  1  3 0.0000 36.459963  3.055843 38.675718
6794  1  3 0.0000 39.086262  3.436250 38.725904
6795  1  3 0.0000 38.003270  1.293345 41.467827
6796  1  3 0.0000 40.287308  1.727234 40.319775
6797  1  3 0.0000 37.583021  5.203938 37.686809
6798  1  3 0.0000 41.117237  2.051165 37.889286
6799  1  3 0.0000 39.996644  3.966987 42.507133
6800  1  3 0.0000 37.553854  4.718274 42.337573
6801  1  3 0.0000 41.505673  3.990996 39.642479
6802  1  3 0.0000 38.964599  6.607399 39.545036
6803  1  3 0.0000 46.930474  1.945232 37.044666
6804  1  3 0.0000 41.932561  0.206154 42.168142
6805  1  3 0.0000 43.057973  0.900547 40.005329
6806  1  3 0.0000 45.623017  1.174825 39.743592
6807  1  3 0.0000 42.526945  3.901095 42.177914
6808  1  3 0.0000 45.302234  5.184294 38.134470
6809  1  3 0.0000 46.730425  3.966053 40.066295
6810  1  3 0.0000 44.102986  4.197082 40.231434
6811  1  3 0.0000 43.959789  2.474960 37.985096
6812  1  3 0.0000 46.940913  2.102465 42.017652
6813  1  3 0.0000 46.814254  4.604766 42.530289
6814  1  3 0.0000 45.381889  6.319568 40.270110
6815  1  3 0.0000 42.470754  6.185020 40.719063
6816  1  3 0.0000 52.734145  2.568205 36.951361
6817  1  3 0.0000 51.088276  4.441656 37.524822
6818  1  3 0.0000 49.461647  1.401191 37.307019
6819  1  3 0.0000 48.113934  1.595532 39.340538
6820  1  3 0.0000 48.545825  3.778468 37.876674
6821  1  3 0.0000 49.083266  3.537432 41.635303
6822  1  3 0.0000 51.229005  2.017798 41.278455
6823  1  3 0.0000 53.204251  0.795704 42.340578
6824  1  3 0.0000 52.568828  4.842373 41.332000
6825  1  3 0.0000 49.191443  1.162319 42.707231
6826  1  3 0.0000 53.364359  4.373752 38.838418
6827  1  3 0.0000 50.714885  6.181562 42.825172
6828  1  3 0.0000 50.504478  6.102136 40.202038
6829  1  3 0.0000 49.189650  6.264017 37.973653
6830  1  3 0.0000 52.661073  0.298179 39.850332
6831  1  3 0.0000 53.737235  2.624361 40.633315
6832  1  3 0.0000 58.866104  5.536900 37.871720
6833  1  3 0.0000 56.205018  1.440444 37.904964
6834  1  3 0.0000 55.245288  4.717866 40.731540
6835  1  3 0.0000 57.217171  2.938566 40.569931
6836  1  3 0.0000 56.362309  4.151387 38.459154
6837  1  3 0.0000 58.608625  1.943621 42.575846
6838  1  3 0.0000 57.803262  5.502354 40.500484
6839  1  3 0.0000 56.320404  0.830410 41.730135
6840  1  3 0.0000 56.431257  3.295130 43.023068
6841  1  3 0.0000 59.183803  6.385679 42.631478
6842  1  3 0.0000 33.537871  7.137753 39.380421
6843  1  3 0.0000 30.678881  7.553857 37.950080
6844  1  3 0.0000 32.658695  8.153263 41.641354
6845  1  3 0.0000 33.548723  9.750940 39.350012
6846  1  3 0.0000 35.084778  8.534726 40.877166
6847  1  3 0.0000 35.697222  9.185972 37.864874
6848  1  3 0.0000 41.410793  8.225853 37.510268
6849  1  3 0.0000 36.477805  6.899520 39.464003
6850  1  3 0.0000 37.979106  7.952773 37.485484
6851  1  3 0.0000 37.782938 10.577847 38.171780
6852  1  3 0.0000 40.326498  7.224391 41.788111
6853  1  3 0.0000 37.637992  7.615034 41.593305
6854  1  3 0.0000 39.282574  9.133072 40.334099
6855  1  3 0.0000 41.414434 10.946105 39.438737
6856  1  3 0.0000 41.668411 11.833370 42.643123
6857  1  3 0.0000 43.829157  7.307516 37.184764
6858  1  3 0.0000 46.066660 11.677021 37.343836
6859  1  3 0.0000 46.151066  7.635386 38.261276
6860  1  3 0.0000 46.077649  8.900035 40.491353
6861  1  3 0.0000 42.221361  8.831842 40.929354
6862  1  3 0.0000 43.479135  9.488999 38.778073
6863  1  3 0.0000 43.451645 11.099174 41.072587
6864  1  3 0.0000 46.225052 11.445999 39.980047
6865  1  3 0.0000 46.281756 10.584328 42.490572
6866  1  3 0.0000 42.752878  7.436822 42.931231
6867  1  3 0.0000 47.919716  6.917989 40.101895
6868  1  3 0.0000 48.219480 10.234820 38.186136
6869  1  3 0.0000 49.695913  8.442901 39.217571
6870  1  3 0.0000 52.317417 10.375691 37.446060
6871  1  3 0.0000 48.401863 10.069980 40.856844
6872  1  3 0.0000 52.488536  7.388229 41.451592
6873  1  3 0.0000 50.720582  9.151131 41.506912
6874  1  3 0.0000 52.362091  8.661277 39.209740
6875  1  3 0.0000 52.587099 12.405970 39.057865
6876  1  3 0.0000 50.461624 10.934410 39.360577
6877  1  3 0.0000 50.485649 12.538295 37.363480
6878  1  3 0.0000 51.963438 11.817658 42.704281
6879  1  3 0.0000 53.212207  9.993155 41.420275
6880  1  3 0.0000 48.345668  8.121682 42.545717
6881  1  3 0.0000 59.073023 10.964130 41.622735
6882  1  3 0.0000 54.539803  9.065870 37.878301
6883  1  3 0.0000 56.618336 10.106270 38.949211
6884  1  3 0.0000 56.671518  7.433982 38.287013
6885  1  3 0.0000 57.827641  8.039138 41.040970
6886  1  3 0.0000 55.398768  8.450167 40.351884
6887  1  3 0.0000 56.771872 10.019508 42.240133
6888  1  3 0.0000 56.733694 12.446369 41.489588
6889  1  3 0.0000 55.018980 12.695577 38.136228
6890  1  3 0.0000 54.514849 11.731250 42.792376
6891  1  3 0.0000 58.030716 12.477301 39.068556
6892  1  3 0.0000 59.159662 10.082045 38.806241
6893  1  3 0.0000 55.880678  7.772142 42.927657
6894  1  3 0.0000 40.724881 13.099498 40.578371
6895  1  3 0.0000 42.523340 13.098651 38.559259
6896  1  3 0.0000 43.747227 13.168305 42.791197
6897  1  3 0.0000 45.150117 13.587059 38.733049
6898  1  3 0.0000 43.332686 14.315199 40.592493
6899  1  3 0.0000 45.524843 16.668868 39.339234
6900  1  3 0.0000 44.355015 15.898474 42.345513
6901  1  3 0.0000 46.390095 17.405534 41.757676
6902  1  3 0.0000 45.742409 13.813422 41.431942
6903  1  3 0.0000 47.546374 15.370205 40.500118
6904  1  3 0.0000 47.646201 18.044111 39.513124
6905  1  3 0.0000 47.659955 13.293501 38.887116
6906  1  3 0.0000 48.241071 13.080605 41.693044
6907  1  3 0.0000 50.379703 16.759484 37.276095
6908  1  3 0.0000 48.193662 15.595954 38.024767
6909  1  3 0.0000 49.896088 14.546213 39.684546
6910  1  3 0.0000 49.976824 16.279892 41.689149
6911  1  3 0.0000 51.383510 14.091110 41.855333
6912  1  3 0.0000 52.103878 15.990657 40.200962
6913  1  3 0.0000 52.888820 17.104148 37.817046
6914  1  3 0.0000 51.662439 18.897691 40.163808
6915  1  3 0.0000 51.407101 19.205258 37.130051
6916  1  3 0.0000 53.622317 14.739087 38.477346
6917  1  3 0.0000 53.484058 18.579637 41.947069
6918  1  3 0.0000 57.527158 16.749385 36.968377
6919  1  3 0.0000 56.522405 14.352052 36.782987
6920  1  3 0.0000 54.398948 13.382522 40.658820
6921  1  3 0.0000 58.799711 14.639822 37.973207
6922  1  3 0.0000 54.499142 16.742637 39.887488
6923  1  3 0.0000 56.729272 15.665037 39.166487
6924  1  3 0.0000 56.291849 16.213600 41.691777
6925  1  3 0.0000 56.491808 18.306760 40.057958
6926  1  3 0.0000 58.512578 18.819909 38.165736
6927  1  3 0.0000 59.140524 14.449124 42.911479
6928  1  3 0.0000 55.455869 14.210472 43.015335
6929  1  3 0.0000 46.546661 22.669097 38.209983
6930  1  3 0.0000 46.974499 25.199166 42.115501
6931  1  3 0.0000 47.884853 20.723218 42.877854
6932  1  3 0.0000 54.655981 21.537519 48.175019
6933  1  3 0.0000 48.076045 19.173026 37.055476
6934  1  3 0.0000 47.578048 24.870120 37.382071
6935  1  3 0.0000 47.891991 20.724683 39.366419
6936  1  3 0.0000 48.348434 25.500360 39.933451
6937  1  3 0.0000 50.622927 21.675686 37.362361
6938  1  3 0.0000 49.669916 25.191776 42.195585
6939  1  3 0.0000 51.391198 23.754896 38.510598
6940  1  3 0.0000 52.632973 20.967745 41.376167
6941  1  3 0.0000 50.576044 21.635071 40.119862
6942  1  3 0.0000 48.934470 22.987031 38.902512
6943  1  3 0.0000 53.081061 24.445049 40.446244
6944  1  3 0.0000 50.383037 20.434162 42.537661
6945  1  3 0.0000 51.046570 22.949764 42.292264
6946  1  3 0.0000 53.915733 25.689892 42.720707
6947  1  3 0.0000 53.876778 23.268836 37.956651
6948  1  3 0.0000 54.283350 19.707334 39.700519
6949  1  3 0.0000 57.372450 24.628461 42.648877
6950  1  3 0.0000 54.104668 23.121316 42.611680
6951  1  3 0.0000 57.962826 25.340346 40.180977
6952  1  3 0.0000 55.478893 24.623860 40.912017
6953  1  3 0.0000 57.269615 22.899753 40.432749
6954  1  3 0.0000 57.645112 22.968504 37.671029
6955  1  3 0.0000 56.033250 20.461975 41.510041
6956  1  3 0.0000 56.452520 20.900310 38.930612
6957  1  3 0.0000 58.920340 21.269374 39.221284
6958  1  3 0.0000 58.189357 21.077018 42.892022
6959  1  3 0.0000 47.869796 25.807834 32.264738
6960  1  3 0.0000 30.060119  5.988424 44.773111
6961  1  3 0.0000 33.653126  2.698379 43.646230
6962  1  3 0.0000 34.979995  3.750463 48.060777
6963  1  3 0.0000 31.836093  1.250654 44.763945
6964  1  3 0.0000 31.387792  3.801755 44.845863
6965  1  3 0.0000 33.234195  2.668066 46.301571
6966  1  3 0.0000 33.926982  5.207015 46.098000
6967  1  3 0.0000 32.353011  4.516247 48.040349
6968  1  3 0.0000 29.962759  4.693451 47.010301
6969  1  3 0.0000 35.560589  5.038715 43.998571
6970  1  3 0.0000 33.313283  6.347547 43.737841
6971  1  3 0.0000 59.480250 21.198998 46.341697
6972  1  3 0.0000 39.057317  5.189173 49.033099
6973  1  3 0.0000 36.588551  1.510846 48.371846
6974  1  3 0.0000 39.723381  2.692486 48.435068
6975  1  3 0.0000 39.074388  1.104535 45.989807
6976  1  3 0.0000 36.424766  1.839681 45.436401
6977  1  3 0.0000 37.867891  0.424328 43.832882
6978  1  3 0.0000 37.527241  3.838778 47.398182
6979  1  3 0.0000 38.276082  3.008956 44.183900
6980  1  3 0.0000 39.954978  4.669193 46.635781
6981  1  3 0.0000 39.078979  5.518822 44.391020
6982  1  3 0.0000 41.501860  4.761703 44.402476
6983  1  3 0.0000 41.381781  2.212975 43.776920
6984  1  3 0.0000 41.635420  0.874550 46.817007
6985  1  3 0.0000 54.743945 24.780723 47.386454
6986  1  3 0.0000 29.844846  5.102280 37.508843
6987  1  3 0.0000 44.620142  5.781589 43.584343
6988  1  3 0.0000 43.965819  0.722281 48.008877
6989  1  3 0.0000 43.781720  5.765327 48.523068
6990  1  3 0.0000 42.271363  2.619944 48.548360
6991  1  3 0.0000 43.578047  1.099495 44.055945
6992  1  3 0.0000 45.071436  3.335629 44.105262
6993  1  3 0.0000 45.944398  4.663958 47.283295
6994  1  3 0.0000 46.778611  5.199693 45.060292
6995  1  3 0.0000 43.517574  2.583473 46.163177
6996  1  3 0.0000 45.605057  1.220721 45.669713
6997  1  3 0.0000 47.696077  3.017506 46.094005
6998  1  3 0.0000 48.098393  0.507849 46.171749
6999  1  3 0.0000 50.698277  3.027295 43.729833
7000  1  3 0.0000 52.275025  1.226720 44.744764
7001  1  3 0.0000 52.989758  3.749149 48.520418
7002  1  3 0.0000 48.520031  5.193224 47.164911
7003  1  3 0.0000 48.489316  1.889917 48.325410
7004  1  3 0.0000 50.157663  2.119805 46.215244
7005  1  3 0.0000 52.302849  3.597983 45.955585
7006  1  3 0.0000 51.144098  5.338097 47.515913
7007  1  3 0.0000 50.134088  6.005505 45.323196
7008  1  3 0.0000 53.703377  5.594994 46.725222
7009  1  3 0.0000 52.560526  6.279963 44.439730
7010  1  3 0.0000 54.924026  1.639325 48.767635
7011  1  3 0.0000 54.052666  2.777671 43.825184
7012  1  3 0.0000 54.947640  0.519171 44.348389
7013  1  3 0.0000 54.930278  5.085157 44.387706
7014  1  3 0.0000 57.796281  2.989350 47.630414
7015  1  3 0.0000 56.133729  3.183922 45.566919
7016  1  3 0.0000 58.374767  1.884743 45.482554
7017  1  3 0.0000 58.489894  4.523417 45.723472
7018  1  3 0.0000 55.856264 21.489650 43.904201
7019  1  3 0.0000 31.069247  6.888241 47.494931
7020  1  3 0.0000 33.187635  8.833285 43.927267
7021  1  3 0.0000 35.261670  7.238378 45.261437
7022  1  3 0.0000 34.155444  9.080965 46.766060
7023  1  3 0.0000 35.339511  6.902324 47.897376
7024  1  3 0.0000 30.039233  9.032840 48.671407
7025  1  3 0.0000 46.976194  0.161763 43.802723
7026  1  3 0.0000 40.963625  6.983760 45.746041
7027  1  3 0.0000 38.961878  7.521681 48.099744
7028  1  3 0.0000 39.366199  9.595334 46.562237
7029  1  3 0.0000 41.229983 11.174829 47.540752
7030  1  3 0.0000 41.777068  9.495275 45.593107
7031  1  3 0.0000 45.252910  8.295037 43.369546
7032  1  3 0.0000 43.963155 10.619077 43.509394
7033  1  3 0.0000 46.241463  6.925428 48.676816
7034  1  3 0.0000 42.553325  7.941210 47.549634
7035  1  3 0.0000 43.640604  7.596699 45.253427
7036  1  3 0.0000 46.081547 10.147899 45.099245
7037  1  3 0.0000 46.466265 11.658448 47.209860
7038  1  3 0.0000 43.851843 11.671385 47.804916
7039  1  3 0.0000 46.287689 12.705242 44.708353
7040  1  3 0.0000 49.306026 10.412629 43.305856
7041  1  3 0.0000 51.842355 11.464442 48.662335
7042  1  3 0.0000 49.731416 10.036137 48.143812
7043  1  3 0.0000 49.749827  7.492931 47.438505
7044  1  3 0.0000 50.986005  8.281753 44.564736
7045  1  3 0.0000 48.398248 11.373319 45.541631
7046  1  3 0.0000 50.938375 10.743072 45.340426
7047  1  3 0.0000 52.412888  8.914897 46.604563
7048  1  3 0.0000 52.972254  9.868020 44.110788
7049  1  3 0.0000 49.726956 12.802163 48.326662
7050  1  3 0.0000 49.992107 12.829778 43.935758
7051  1  3 0.0000 56.445742 19.821633 48.604965
7052  1  3 0.0000 58.049417  6.767778 47.344717
7053  1  3 0.0000 56.055228  6.986233 49.062038
7054  1  3 0.0000 57.115748  6.574718 44.940305
7055  1  3 0.0000 57.892079 12.109557 43.605607
7056  1  3 0.0000 54.383643 12.123953 48.328354
7057  1  3 0.0000 54.778202  7.422321 45.208664
7058  1  3 0.0000 56.845167  9.116670 47.533468
7059  1  3 0.0000 58.511624 10.677174 46.286768
7060  1  3 0.0000 56.067813 11.359292 46.332100
7061  1  3 0.0000 56.877031  9.131942 44.974107
7062  1  3 0.0000 53.934767 12.680124 45.831528
7063  1  3 0.0000 50.972285 14.850992 49.129321
7064  1  3 0.0000 42.967218 13.580629 45.898414
7065  1  3 0.0000 47.098519 14.888496 43.233573
7066  1  3 0.0000 45.381208 13.994152 47.564531
7067  1  3 0.0000 45.331660 17.800965 44.060417
7068  1  3 0.0000 46.627142 18.831058 46.088068
7069  1  3 0.0000 43.665373 15.876464 47.237279
7070  1  3 0.0000 46.138304 16.556512 47.267100
7071  1  3 0.0000 45.116979 14.970126 45.011432
7072  1  3 0.0000 47.762367 14.626220 45.581880
7073  1  3 0.0000 47.912515 18.097828 48.263746
7074  1  3 0.0000 49.134862 18.250153 43.232151
7075  1  3 0.0000 51.619062 17.435005 43.512711
7076  1  3 0.0000 48.408901 17.082305 45.902286
7077  1  3 0.0000 49.772136 15.832313 44.201575
7078  1  3 0.0000 51.771431 13.707919 46.756215
7079  1  3 0.0000 50.383071 18.386642 47.548624
7080  1  3 0.0000 52.574661 17.161999 47.159371
7081  1  3 0.0000 49.800838 15.189969 46.890122
7082  1  3 0.0000 52.298080 14.054576 44.202226
7083  1  3 0.0000 52.491772 19.167342 48.758063
7084  1  3 0.0000 53.453513 15.210549 48.487291
7085  1  3 0.0000 59.629599 22.547805 29.617920
7086  1  3 0.0000 53.978074 16.299992 42.995154
7087  1  3 0.0000 53.753378 18.409213 44.568290
7088  1  3 0.0000 53.700723 15.349721 45.955672
7089  1  3 0.0000 58.637749 16.952219 43.241017
7090  1  3 0.0000 56.832744 18.997447 43.408045
7091  1  3 0.0000 58.507666 13.333195 47.242928
7092  1  3 0.0000 55.957342 13.829384 47.124346
7093  1  3 0.0000 56.259362 16.580144 44.177492
7094  1  3 0.0000 57.723552 14.253543 45.085675
7095  1  3 0.0000 55.057422 16.913006 47.983723
7096  1  3 0.0000 58.540161 18.461521 48.042525
7097  1  3 0.0000 57.756463 15.909095 47.120323
7098  1  3 0.0000 58.013184 17.971602 45.568897
7099  1  3 0.0000 46.420274 21.155506 48.584688
7100  1  3 0.0000 46.774656 24.534289 45.147161
7101  1  3 0.0000 45.814741 20.364868 44.280918
7102  1  3 0.0000 51.088201 24.518522 44.424922
7103  1  3 0.0000 53.067844 25.614095 45.517189
7104  1  3 0.0000 49.019485 24.562322 46.264277
7105  1  3 0.0000 53.408525 21.013527 44.395713
7106  1  3 0.0000 47.972651 22.211439 46.054267
7107  1  3 0.0000 52.381862 19.639178 46.320398
7108  1  3 0.0000 49.056259 20.439440 47.654805
7109  1  3 0.0000 50.172464 23.260931 48.664418
7110  1  3 0.0000 52.417589 23.713331 47.036388
7111  1  3 0.0000 52.202465 21.930014 48.755544
7112  1  3 0.0000 50.582845 21.985114 46.422237
7113  1  3 0.0000 49.277168 20.158706 44.957495
7114  1  3 0.0000 48.835931 23.452640 43.943600
7115  1  3 0.0000 58.902941 23.348427 44.183280
7116  1  3 0.0000 55.006984 19.784028 46.302056
7117  1  3 0.0000 53.003399 25.736754 38.124189
7118  1  3 0.0000 59.057640 24.561872 49.206849
7119  1  3 0.0000 31.152570  6.184350 24.680715
7120  1  3 0.0000 50.177747 51.500159 13.830643
7121  1  3 0.0000 46.778298 30.059007  1.180392
7122  1  3 0.0000 46.906687 31.016436  3.746627
7123  1  3 0.0000 47.350509 28.536666  3.154428
7124  1  3 0.0000 44.264275 51.546541  3.733976
7125  1  3 0.0000 47.708118 32.148758  6.011894
7126  1  3 0.0000 49.751058 28.601936  4.992918
7127  1  3 0.0000 51.469136 30.478716  1.863647
7128  1  3 0.0000 51.985103 27.918005  1.072507
7129  1  3 0.0000 52.034266 30.016695  4.939682
7130  1  3 0.0000 49.972124 31.076972  3.916427
7131  1  3 0.0000 49.522652 28.763122  1.470253
7132  1  3 0.0000 49.371849 26.748064  3.351360
7133  1  3 0.0000 49.020681 26.270728  6.014486
7134  1  3 0.0000 51.395494 26.406733  4.942208
7135  1  3 0.0000 54.191535 27.377601  2.066156
7136  1  3 0.0000 54.931952 27.743167  4.499979
7137  1  3 0.0000 55.629832 29.406260  2.569013
7138  1  3 0.0000 57.521485 30.960387  2.125004
7139  1  3 0.0000 57.013181 31.105488  4.719936
7140  1  3 0.0000 56.886806 27.036255  2.873509
7141  1  3 0.0000 58.864524 27.470464  4.435724
7142  1  3 0.0000 55.101859 31.515244  1.126823
7143  1  3 0.0000 59.078650 27.938141  1.896677
7144  1  3 0.0000 54.609986 30.467314  5.822985
7145  1  3 0.0000 59.470598 30.640167  4.149739
7146  1  3 0.0000 39.985122 51.566194  5.570920
7147  1  3 0.0000 44.980013 36.612365  3.713900
7148  1  3 0.0000 46.021024 34.229330  3.295198
7149  1  3 0.0000 46.137233 35.333692  0.926835
7150  1  3 0.0000 47.126275 32.984437  1.435882
7151  1  3 0.0000 45.798312 35.212404  5.797845
7152  1  3 0.0000 47.404041 36.308028  3.878509
7153  1  3 0.0000 49.701408 32.400175  1.611680
7154  1  3 0.0000 48.751754 34.869912  2.068615
7155  1  3 0.0000 49.091170 34.599349  4.569689
7156  1  3 0.0000 51.795895 32.796569  3.079966
7157  1  3 0.0000 51.895601 35.087178  4.327177
7158  1  3 0.0000 49.912159 36.863550  3.237213
7159  1  3 0.0000 51.958396 34.956352  1.631341
7160  1  3 0.0000 50.719598 38.348267  1.094723
7161  1  3 0.0000 52.890590 36.898959  5.884693
7162  1  3 0.0000 53.738818 33.605689  0.240227
7163  1  3 0.0000 48.309024 38.538466  2.137815
7164  1  3 0.0000 59.295853 37.455883  2.165547
7165  1  3 0.0000 53.997882 34.229929  3.129146
7166  1  3 0.0000 54.039370 36.162321  0.636018
7167  1  3 0.0000 55.036418 32.789043  5.006182
7168  1  3 0.0000 58.712618 34.892255  2.064809
7169  1  3 0.0000 56.444495 35.889542  1.594713
7170  1  3 0.0000 56.596330 33.817650  3.102308
7171  1  3 0.0000 55.056642 37.661155  2.775738
7172  1  3 0.0000 55.642784 35.316956  5.012892
7173  1  3 0.0000 57.044225 33.622155  0.467313
7174  1  3 0.0000 58.011131 34.807060  5.888329
7175  1  3 0.0000 59.490304 41.776736  7.114486
7176  1  3 0.0000 31.765375 43.893133  0.634886
7177  1  3 0.0000 33.734053 44.060233  5.096961
7178  1  3 0.0000 33.340239 43.201813  2.591893
7179  1  3 0.0000 34.947374 45.274715  3.220755
7180  1  3 0.0000 38.576255 39.724317  1.722515
7181  1  3 0.0000 36.212712 42.159099  1.959100
7182  1  3 0.0000 37.757797 41.326692  3.988512
7183  1  3 0.0000 36.835826 43.732898  3.907346
7184  1  3 0.0000 38.729305 43.047747  2.314936
7185  1  3 0.0000 40.987529 44.016304  1.650419
7186  1  3 0.0000 40.473208 43.311069  4.292590
7187  1  3 0.0000 40.651884 41.479126  2.350384
7188  1  3 0.0000 40.348817 39.988369  5.734224
7189  1  3 0.0000 43.293555 38.731956  0.894496
7190  1  3 0.0000 43.656060 38.861092  3.392045
7191  1  3 0.0000 45.745631 38.891942  1.825978
7192  1  3 0.0000 42.396574 44.907507  4.862641
7193  1  3 0.0000 43.997463 41.047401  1.962139
7194  1  3 0.0000 43.886564 43.662693  3.110541
7195  1  3 0.0000 45.995295 42.253610  3.244957
7196  1  3 0.0000 45.202046 43.083018  0.873344
7197  1  3 0.0000 42.505316 42.397753  5.539681
7198  1  3 0.0000 47.129617 40.676175  0.695302
7199  1  3 0.0000 45.830555 39.039460  6.075216
7200  1  3 0.0000 44.948960 45.334964  4.905467
7201  1  3 0.0000 52.900551 38.694134  2.246801
7202  1  3 0.0000 48.067030 43.440701  4.355732
7203  1  3 0.0000 48.057811 42.885810  1.702317
7204  1  3 0.0000 48.543244 39.341871  5.424632
7205  1  3 0.0000 48.333442 41.026011  3.446820
7206  1  3 0.0000 50.373526 39.367316  3.467209
7207  1  3 0.0000 50.355722 41.414774  5.085011
7208  1  3 0.0000 51.913484 42.389102  3.044148
7209  1  3 0.0000 52.033368 44.121696  1.051926
7210  1  3 0.0000 50.669607 43.940006  4.597080
7211  1  3 0.0000 52.784993 42.339187  5.481777
7212  1  3 0.0000 52.027984 40.557488  0.650139
7213  1  3 0.0000 49.611027 41.276702  0.423447
7214  1  3 0.0000 53.436044 44.519878  3.193943
7215  1  3 0.0000 53.766345 39.036399  4.669825
7216  1  3 0.0000 58.852283 39.107502  5.548610
7217  1  3 0.0000 58.153406 39.362993  0.632008
7218  1  3 0.0000 57.825186 39.286595  3.231409
7219  1  3 0.0000 54.145072 42.565083  1.607537
7220  1  3 0.0000 54.999249 40.252032  2.601241
7221  1  3 0.0000 55.332671 43.174843  5.286945
7222  1  3 0.0000 56.816133 41.902288  1.560562
7223  1  3 0.0000 57.133231 44.269550  3.759993
7224  1  3 0.0000 56.393829 39.620918  5.544263
7225  1  3 0.0000 58.289361 41.469462  4.799232
7226  1  3 0.0000 38.367853 51.539335  7.665464
7227  1  3 0.0000 32.281820 45.389875  3.352825
7228  1  3 0.0000 30.476317 45.560743  5.011311
7229  1  3 0.0000 30.748710 50.292753  3.673476
7230  1  3 0.0000 31.329640 49.156736  1.482133
7231  1  3 0.0000 31.276043 47.753405  3.827061
7232  1  3 0.0000 33.210863 49.486988  3.143990
7233  1  3 0.0000 35.187137 48.708623  1.068910
7234  1  3 0.0000 33.173060 46.942535  1.207533
7235  1  3 0.0000 35.764752 50.390413  3.445796
7236  1  3 0.0000 54.916609 48.158631  0.110712
7237  1  3 0.0000 36.541464 45.823030  5.330636
7238  1  3 0.0000 37.392675 46.211830  2.958931
7239  1  3 0.0000 37.646953 48.731978  2.183178
7240  1  3 0.0000 39.708855 47.076829  2.116009
7241  1  3 0.0000 38.962129 47.939051  4.356593
7242  1  3 0.0000 37.519886 50.648317  5.352978
7243  1  3 0.0000 40.375051 49.506094  1.079226
7244  1  3 0.0000 41.501799 48.005922  5.693575
7245  1  3 0.0000 36.786908 50.732614  0.230503
7246  1  3 0.0000 41.663586 47.329671  0.547368
7247  1  3 0.0000 41.933774 48.296864  2.866825
7248  1  3 0.0000 42.328658 50.904173  1.926946
7249  1  3 0.0000 46.747609 50.697091  3.346346
7250  1  3 0.0000 43.531992 46.298656  2.899251
7251  1  3 0.0000 44.546493 48.545281  2.273550
7252  1  3 0.0000 43.836391 48.173296  4.683807
7253  1  3 0.0000 46.873217 49.335154  1.287633
7254  1  3 0.0000 46.841479 47.086307  2.520294
7255  1  3 0.0000 45.598090 50.679808  5.711149
7256  1  3 0.0000 45.480897 47.243206  0.218458
7257  1  3 0.0000 56.799164 33.918802 24.515997
7258  1  3 0.0000 53.062502 51.461769 19.779982
7259  1  3 0.0000 49.013824 45.355338  3.018427
7260  1  3 0.0000 48.822817 45.680791  5.507941
7261  1  3 0.0000 52.780853 46.781679  4.373366
7262  1  3 0.0000 49.129624 47.903944  3.379653
7263  1  3 0.0000 50.149844 50.077872  4.669130
7264  1  3 0.0000 51.317705 49.045549  2.513585
7265  1  3 0.0000 52.690585 49.235897  5.531416
7266  1  3 0.0000 49.097874 50.158813  2.279395
7267  1  3 0.0000 48.937649 46.868798  1.007164
7268  1  3 0.0000 50.686994 47.518024  5.752344
7269  1  3 0.0000 52.141017 50.120579  0.231899
7270  1  3 0.0000 52.247408 51.476389  2.485138
7271  1  3 0.0000 57.182534 45.409030  1.451155
7272  1  3 0.0000 53.880914 49.357219  2.071261
7273  1  3 0.0000 54.367211 46.790964  2.276234
7274  1  3 0.0000 55.155991 45.721742  4.578235
7275  1  3 0.0000 56.390072 48.434310  2.104517
7276  1  3 0.0000 56.812681 48.646115  4.673609
7277  1  3 0.0000 58.013418 46.765414  3.405423
7278  1  3 0.0000 58.720018 49.350983  2.971455
7279  1  3 0.0000 55.634396 50.868332  3.995925
7280  1  3 0.0000 57.497995 50.754318  5.841502
7281  1  3 0.0000 46.092472 30.044678  6.066117
7282  1  3 0.0000 46.427024 30.917339  8.448680
7283  1  3 0.0000 49.969826 30.739877  6.372821
7284  1  3 0.0000 52.656348 32.012300  6.475228
7285  1  3 0.0000 53.363164 26.349544 10.784411
7286  1  3 0.0000 48.193374 27.975794 10.509044
7287  1  3 0.0000 49.441282 27.403359  8.280435
7288  1  3 0.0000 52.825045 29.521257  7.346339
7289  1  3 0.0000 50.373133 29.402602  9.849369
7290  1  3 0.0000 52.650070 27.490209  8.795077
7291  1  3 0.0000 50.708869 26.986903 10.523049
7292  1  3 0.0000 52.389434 30.709851 11.053870
7293  1  3 0.0000 49.002466 31.926077  8.397824
7294  1  3 0.0000 50.132119 31.957197 10.697749
7295  1  3 0.0000 56.578297 47.320785 21.193995
7296  1  3 0.0000 56.913096 27.725926  6.260188
7297  1  3 0.0000 54.593760 27.556997  7.193950
7298  1  3 0.0000 54.561090 29.365042  9.316623
7299  1  3 0.0000 56.364950 28.846257 11.142422
7300  1  3 0.0000 56.803500 30.697091  9.441059
7301  1  3 0.0000 54.920500 31.167998 11.232373
7302  1  3 0.0000 58.310911 27.850441  9.697175
7303  1  3 0.0000 55.946055 26.635488  9.907952
7304  1  3 0.0000 58.299502 30.318119  7.352497
7305  1  3 0.0000 57.530556 26.453568 11.832443
7306  1  3 0.0000 56.317145 32.006468  7.117226
7307  1  3 0.0000 59.388584 27.913396  6.879401
7308  1  3 0.0000 46.947939 32.600605 10.477548
7309  1  3 0.0000 46.196389 33.593615  8.070704
7310  1  3 0.0000 45.550220 37.972609 10.255682
7311  1  3 0.0000 43.446938 36.533864  9.900320
7312  1  3 0.0000 44.249807 38.404979  8.052082
7313  1  3 0.0000 50.370347 35.915981  6.271684
7314  1  3 0.0000 49.849401 33.426220  6.592227
7315  1  3 0.0000 47.995600 35.179030  7.054652
7316  1  3 0.0000 49.909298 35.989714 11.336048
7317  1  3 0.0000 52.437070 34.583780  6.844021
7318  1  3 0.0000 51.552229 32.711877  8.661819
7319  1  3 0.0000 49.517948 34.249195  9.516653
7320  1  3 0.0000 51.413010 35.963560  9.273322
7321  1  3 0.0000 48.901958 36.892429  9.176002
7322  1  3 0.0000 52.532951 38.156843  9.403704
7323  1  3 0.0000 53.260482 36.206438 11.184705
7324  1  3 0.0000 56.798770 37.137831  6.375862
7325  1  3 0.0000 53.988617 35.963764  8.786196
7326  1  3 0.0000 54.061884 33.431850  8.277015
7327  1  3 0.0000 58.466158 32.576852  8.705529
7328  1  3 0.0000 57.782214 33.552940 11.098382
7329  1  3 0.0000 58.574724 37.697957  9.998046
7330  1  3 0.0000 56.090473 34.959500  7.609757
7331  1  3 0.0000 55.435420 34.289426 10.169807
7332  1  3 0.0000 55.366883 38.306358 11.407780
7333  1  3 0.0000 56.693054 36.018776 11.665103
7334  1  3 0.0000 54.713165 38.446057  7.122978
7335  1  3 0.0000 59.119286 35.053237  9.748979
7336  1  3 0.0000 54.967631 49.817318 20.540290
7337  1  3 0.0000 31.650112 43.792566  6.526153
7338  1  3 0.0000 35.250974 43.808786  9.549692
7339  1  3 0.0000 35.605202 44.335312 12.192559
7340  1  3 0.0000 35.027031 45.121660  7.325421
7341  1  3 0.0000 38.948979 41.728027  7.154121
7342  1  3 0.0000 36.449654 42.925846  7.289382
7343  1  3 0.0000 40.241620 42.943827  9.412285
7344  1  3 0.0000 39.083892 41.199824 10.903716
7345  1  3 0.0000 41.282449 43.903987  7.057758
7346  1  3 0.0000 37.548034 44.880735 10.652588
7347  1  3 0.0000 40.339499 43.131781 12.125229
7348  1  3 0.0000 41.555790 41.173474  7.591846
7349  1  3 0.0000 41.699732 41.283379 10.769056
7350  1  3 0.0000 43.307689 39.926310  6.147099
7351  1  3 0.0000 41.545236 39.052537 12.240036
7352  1  3 0.0000 46.638145 43.096630  8.168512
7353  1  3 0.0000 44.294467 41.738333  7.585753
7354  1  3 0.0000 46.350667 40.387741 10.312406
7355  1  3 0.0000 43.841306 39.855527 10.934243
7356  1  3 0.0000 44.495727 43.216672  9.684671
7357  1  3 0.0000 44.499208 44.192661  7.213457
7358  1  3 0.0000 43.788546 43.966189 12.004827
7359  1  3 0.0000 42.247938 44.445731  9.552551
7360  1  3 0.0000 46.143681 42.895899 12.091109
7361  1  3 0.0000 47.324044 41.179158  6.672613
7362  1  3 0.0000 47.728490 38.832681  7.880526
7363  1  3 0.0000 50.330067 39.024747  8.407095
7364  1  3 0.0000 48.378425 41.467755  9.084001
7365  1  3 0.0000 48.372989 41.647993 11.579053
7366  1  3 0.0000 48.663511 39.268887 10.388661
7367  1  3 0.0000 52.292284 39.170600  6.819050
7368  1  3 0.0000 49.178188 43.247722  7.408090
7369  1  3 0.0000 51.508422 43.699709  8.649548
7370  1  3 0.0000 52.227490 40.762310  8.943094
7371  1  3 0.0000 52.715234 40.957123 11.484740
7372  1  3 0.0000 49.250212 44.647180  9.557952
7373  1  3 0.0000 48.490922 44.283920 12.008923
7374  1  3 0.0000 51.040703 44.861058 11.436094
7375  1  3 0.0000 53.541381 42.909531  9.904573
7376  1  3 0.0000 53.586459 44.527583 12.232174
7377  1  3 0.0000 48.758537 44.975391 24.587979
7378  1  3 0.0000 57.105410 45.015799  6.205667
7379  1  3 0.0000 53.775117 43.842859  7.393037
7380  1  3 0.0000 57.228316 39.028524  8.095505
7381  1  3 0.0000 59.361007 40.116787  9.153968
7382  1  3 0.0000 54.708362 41.430067  7.132461
7383  1  3 0.0000 58.697742 42.501992  9.564721
7384  1  3 0.0000 57.211237 39.883124 10.572173
7385  1  3 0.0000 54.656107 40.477830 10.034440
7386  1  3 0.0000 58.300608 44.634129 11.199082
7387  1  3 0.0000 57.326751 42.482082 12.016373
7388  1  3 0.0000 55.871984 45.022530 10.849001
7389  1  3 0.0000 32.315504 51.338094  6.524847
7390  1  3 0.0000 30.280596 50.842972  9.735535
7391  1  3 0.0000 32.466714 48.675807  6.948907
7392  1  3 0.0000 31.394868 46.363512  7.271534
7393  1  3 0.0000 32.680643 50.453235  8.813971
7394  1  3 0.0000 31.395097 46.552032 11.073596
7395  1  3 0.0000 34.836712 48.824096 11.734656
7396  1  3 0.0000 34.608239 49.951496  7.209474
7397  1  3 0.0000 34.881890 48.210458  9.191597
7398  1  3 0.0000 34.116054 46.423602 10.910225
7399  1  3 0.0000 32.383868 49.770561 11.157856
7400  1  3 0.0000 31.091994 48.486717  9.053064
7401  1  3 0.0000 34.517014 51.469768 11.557520
7402  1  3 0.0000 35.851270 47.703723  6.879391
7403  1  3 0.0000 39.274520 49.234792  6.479273
7404  1  3 0.0000 39.896121 45.412652  8.754303
7405  1  3 0.0000 39.500162 46.622667  6.542355
7406  1  3 0.0000 37.397255 46.026804  7.951694
7407  1  3 0.0000 36.745180 47.218289 10.933372
7408  1  3 0.0000 36.862586 49.630760  8.464842
7409  1  3 0.0000 39.204399 47.826280  8.819842
7410  1  3 0.0000 39.727705 49.789489 10.625803
7411  1  3 0.0000 39.524013 46.788089 11.380136
7412  1  3 0.0000 41.102989 49.861479  8.368821
7413  1  3 0.0000 41.456959 47.878710 10.132868
7414  1  3 0.0000 37.852646 51.404513 10.222904
7415  1  3 0.0000 46.647035 51.451647  8.078516
7416  1  3 0.0000 42.119469 46.049977 12.049909
7417  1  3 0.0000 43.696213 46.673247  6.856008
7418  1  3 0.0000 46.257211 46.285598  6.938496
7419  1  3 0.0000 43.280369 49.037510  7.234888
7420  1  3 0.0000 46.363374 48.926553  7.504107
7421  1  3 0.0000 43.331665 50.611983  9.524167
7422  1  3 0.0000 44.496483 48.290050  9.867651
7423  1  3 0.0000 44.521229 45.670153 10.046349
7424  1  3 0.0000 46.692587 47.053152  9.390875
7425  1  3 0.0000 45.725507 50.565302 10.597249
7426  1  3 0.0000 43.707841 49.518420 11.950411
7427  1  3 0.0000 45.639500 47.168966 11.867656
7428  1  3 0.0000 48.006112 50.352856  6.124841
7429  1  3 0.0000 50.452477 45.697543  7.476459
7430  1  3 0.0000 48.572740 47.429387  7.483393
7431  1  3 0.0000 53.040598 47.150564  6.987315
7432  1  3 0.0000 50.312275 49.794238  7.320066
7433  1  3 0.0000 51.460397 48.375117  9.189238
7434  1  3 0.0000 49.902399 49.573757 11.687680
7435  1  3 0.0000 52.836680 50.263851  7.852292
7436  1  3 0.0000 50.798972 50.838078  9.539878
7437  1  3 0.0000 49.295485 46.838892 11.178814
7438  1  3 0.0000 48.186456 50.546738  9.891776
7439  1  3 0.0000 53.364870 45.654852  9.156067
7440  1  3 0.0000 53.510854 50.473948 10.621084
7441  1  3 0.0000 57.372350 45.173384  8.718987
7442  1  3 0.0000 55.010394 49.871408  6.255417
7443  1  3 0.0000 58.901369 49.387671 11.583735
7444  1  3 0.0000 54.353029 48.237314  9.069651
7445  1  3 0.0000 55.576356 50.725482  9.080339
7446  1  3 0.0000 55.626531 49.116339 11.076314
7447  1  3 0.0000 57.686509 47.392236  7.286048
7448  1  3 0.0000 55.381452 46.337595  7.645313
7449  1  3 0.0000 57.732674 47.023259 10.467407
7450  1  3 0.0000 59.495479 49.116002  8.292664
7451  1  3 0.0000 47.146504 29.501876 15.841849
7452  1  3 0.0000 50.218355 30.000099 12.309683
7453  1  3 0.0000 48.210739 28.688458 12.986864
7454  1  3 0.0000 48.051256 31.385809 12.612108
7455  1  3 0.0000 48.154011 27.123582 15.430455
7456  1  3 0.0000 49.558426 30.274385 14.700226
7457  1  3 0.0000 52.165901 29.941687 15.110145
7458  1  3 0.0000 50.491116 27.930672 14.622126
7459  1  3 0.0000 50.485178 29.347249 16.956147
7460  1  3 0.0000 48.401274 30.858393 17.531766
7461  1  3 0.0000 48.304844 28.323476 17.815324
7462  1  3 0.0000 53.309687 31.618216 17.976393
7463  1  3 0.0000 50.621600 26.151781 18.305013
7464  1  3 0.0000 45.451570 40.776081 24.557487
7465  1  3 0.0000 53.795857 26.266150 18.330456
7466  1  3 0.0000 53.803736 29.932393 13.135606
7467  1  3 0.0000 54.002289 27.955242 14.896674
7468  1  3 0.0000 58.683622 27.704343 13.770645
7469  1  3 0.0000 57.018353 29.545356 14.911252
7470  1  3 0.0000 54.697306 30.413432 15.592362
7471  1  3 0.0000 56.890067 31.313223 16.819820
7472  1  3 0.0000 59.046542 28.505364 16.130436
7473  1  3 0.0000 56.334720 26.618228 14.117491
7474  1  3 0.0000 56.143332 32.067081 14.381527
7475  1  3 0.0000 58.477174 26.662194 18.021728
7476  1  3 0.0000 56.024598 27.639166 18.301224
7477  1  3 0.0000 53.900561 28.985798 18.367957
7478  1  3 0.0000 56.859788 51.558877 20.279559
7479  1  3 0.0000 41.099952 51.555094 23.570017
7480  1  3 0.0000 59.574516 44.815808  2.938425
7481  1  3 0.0000 41.079032 37.900674 14.544300
7482  1  3 0.0000 46.113004 37.230479 14.523044
7483  1  3 0.0000 45.759071 37.056211 17.042607
7484  1  3 0.0000 46.788427 34.906244 15.861644
7485  1  3 0.0000 43.141606 37.192777 12.676843
7486  1  3 0.0000 43.369359 38.139683 18.028347
7487  1  3 0.0000 48.241926 34.108747 12.260636
7488  1  3 0.0000 47.777601 33.473614 17.875506
7489  1  3 0.0000 53.017008 32.466388 12.868038
7490  1  3 0.0000 52.723179 35.158412 13.547014
7491  1  3 0.0000 50.848646 33.892510 12.366420
7492  1  3 0.0000 48.230440 36.964476 15.718866
7493  1  3 0.0000 49.514998 35.776470 13.788126
7494  1  3 0.0000 51.427326 33.274806 14.828839
7495  1  3 0.0000 48.968787 33.442801 15.634137
7496  1  3 0.0000 50.461898 35.296930 16.601009
7497  1  3 0.0000 51.877212 37.410240 17.148271
7498  1  3 0.0000 49.425048 37.604400 18.040568
7499  1  3 0.0000 51.042051 32.860604 17.302813
7500  1  3 0.0000 52.337235 37.742251 13.035975
7501  1  3 0.0000 50.510776 37.902202 14.840237
7502  1  3 0.0000 48.235431 38.098232 13.531938
7503  1  3 0.0000 53.222095 34.152606 17.109073
7504  1  3 0.0000 53.074458 38.719806 15.274599
7505  1  3 0.0000 59.550444 35.670728 13.842252
7506  1  3 0.0000 59.510758 38.338324 13.230427
7507  1  3 0.0000 54.249579 36.586446 16.404899
7508  1  3 0.0000 54.707559 36.692738 13.242297
7509  1  3 0.0000 55.692815 33.942531 12.718005
7510  1  3 0.0000 57.552836 34.232619 14.531183
7511  1  3 0.0000 54.993755 34.263856 15.101918
7512  1  3 0.0000 55.697898 34.499550 17.427311
7513  1  3 0.0000 57.010302 37.977616 13.380163
7514  1  3 0.0000 58.301027 38.573102 15.531205
7515  1  3 0.0000 59.533208 33.148071 13.234038
7516  1  3 0.0000 32.572797 44.584305 12.266717
7517  1  3 0.0000 31.626897 43.050819 14.179693
7518  1  3 0.0000 34.152961 43.756178 14.153446
7519  1  3 0.0000 35.071734 41.784803 16.014703
7520  1  3 0.0000 35.354910 44.259053 16.902402
7521  1  3 0.0000 35.013972 42.361172 18.612306
7522  1  3 0.0000 40.155690 39.564116 16.672529
7523  1  3 0.0000 37.558282 41.547552 16.032505
7524  1  3 0.0000 36.892628 43.591680 14.383151
7525  1  3 0.0000 39.492907 43.042792 14.792102
7526  1  3 0.0000 37.874644 44.023324 16.734586
7527  1  3 0.0000 41.111431 43.656412 17.901217
7528  1  3 0.0000 41.448600 41.493326 13.865410
7529  1  3 0.0000 41.830782 44.084541 13.932129
7530  1  3 0.0000 45.899447 39.075660 12.481914
7531  1  3 0.0000 43.107122 39.461831 14.152571
7532  1  3 0.0000 44.124832 41.812977 13.510676
7533  1  3 0.0000 42.959137 41.579457 15.828763
7534  1  3 0.0000 45.373440 44.035765 14.197312
7535  1  3 0.0000 46.748452 39.762287 14.842134
7536  1  3 0.0000 45.113687 40.577931 16.608829
7537  1  3 0.0000 44.243367 42.831741 17.751960
7538  1  3 0.0000 43.096775 40.711426 18.324057
7539  1  3 0.0000 47.501565 39.425211 17.401051
7540  1  3 0.0000 47.338073 41.803816 16.381600
7541  1  3 0.0000 47.686753 44.286349 15.613990
7542  1  3 0.0000 47.880258 42.458488 13.847406
7543  1  3 0.0000 51.388419 40.077786 13.526895
7544  1  3 0.0000 51.604164 42.823649 12.875081
7545  1  3 0.0000 49.928431 39.961572 16.747136
7546  1  3 0.0000 52.117594 41.287680 16.265592
7547  1  3 0.0000 49.766783 42.420955 15.555008
7548  1  3 0.0000 50.391221 42.304111 17.979217
7549  1  3 0.0000 48.412439 44.078639 18.258108
7550  1  3 0.0000 50.891206 44.627157 17.416376
7551  1  3 0.0000 53.469505 41.620537 13.988228
7552  1  3 0.0000 53.487968 43.434419 15.865812
7553  1  3 0.0000 53.696295 38.843579 17.846801
7554  1  3 0.0000 55.646540 40.630668 12.497256
7555  1  3 0.0000 57.903424 40.459993 13.702604
7556  1  3 0.0000 58.203886 40.314486 17.503535
7557  1  3 0.0000 56.321251 42.539439 14.317991
7558  1  3 0.0000 55.647973 44.603884 15.940891
7559  1  3 0.0000 58.002214 44.366073 14.863871
7560  1  3 0.0000 55.751870 45.021463 13.487348
7561  1  3 0.0000 58.538746 45.020654 17.277314
7562  1  3 0.0000 54.658400 43.340100 18.173110
7563  1  3 0.0000 30.688045 45.954444 17.004116
7564  1  3 0.0000 32.886956 47.196305 12.923358
7565  1  3 0.0000 30.893126 46.579311 14.465865
7566  1  3 0.0000 34.414133 50.155608 14.925775
7567  1  3 0.0000 32.354387 48.690292 15.111421
7568  1  3 0.0000 34.508975 47.645175 16.079004
7569  1  3 0.0000 33.477494 49.563162 17.390823
7570  1  3 0.0000 30.728640 48.765375 13.128683
7571  1  3 0.0000 35.515762 45.985721 14.332944
7572  1  3 0.0000 41.379631 48.538574 12.582490
7573  1  3 0.0000 37.860775 45.910443 13.002024
7574  1  3 0.0000 39.956526 50.952096 17.567942
7575  1  3 0.0000 40.864646 46.328939 14.101408
7576  1  3 0.0000 36.683380 46.388287 16.475528
7577  1  3 0.0000 40.314847 45.758974 16.514336
7578  1  3 0.0000 36.629512 48.440969 14.945892
7579  1  3 0.0000 38.857309 50.096151 14.598542
7580  1  3 0.0000 38.926681 47.528435 15.164893
7581  1  3 0.0000 38.174484 49.132359 17.009704
7582  1  3 0.0000 41.235476 48.165218 15.905110
7583  1  3 0.0000 36.781070 51.087925 13.746096
7584  1  3 0.0000 41.968102 51.224586 12.640727
7585  1  3 0.0000 42.910359 45.395556 16.822166
7586  1  3 0.0000 45.426127 51.088591 14.724839
7587  1  3 0.0000 43.390777 46.186044 14.453855
7588  1  3 0.0000 45.426917 45.842516 16.010292
7589  1  3 0.0000 42.502574 50.282164 16.938973
7590  1  3 0.0000 42.912079 49.540732 14.468762
7591  1  3 0.0000 43.720964 47.884512 16.434690
7592  1  3 0.0000 45.929392 48.575098 14.181609
7593  1  3 0.0000 46.381196 49.587502 16.552371
7594  1  3 0.0000 46.919527 46.177303 13.958251
7595  1  3 0.0000 45.648853 51.442145 18.244272
7596  1  3 0.0000 47.810582 48.290965 12.486212
7597  1  3 0.0000 51.661664 45.354856 13.825451
7598  1  3 0.0000 47.997280 50.288479 14.638779
7599  1  3 0.0000 48.091757 50.987174 17.999320
7600  1  3 0.0000 53.396284 45.628435 17.150931
7601  1  3 0.0000 52.523858 50.396234 13.786922
7602  1  3 0.0000 50.086327 47.614486 13.629704
7603  1  3 0.0000 51.203060 46.808965 15.940484
7604  1  3 0.0000 52.709678 47.769407 14.190003
7605  1  3 0.0000 49.956150 50.795390 16.260962
7606  1  3 0.0000 50.334503 49.491879 18.514186
7607  1  3 0.0000 59.474283 30.041042 14.051494
7608  1  3 0.0000 54.722990 46.911551 12.120714
7609  1  3 0.0000 53.781203 49.437913 15.838194
7610  1  3 0.0000 57.040360 51.429068 13.123701
7611  1  3 0.0000 57.061758 47.777180 12.712067
7612  1  3 0.0000 54.903451 49.085718 13.541606
7613  1  3 0.0000 54.731806 50.433263 18.060740
7614  1  3 0.0000 58.578160 48.914587 17.035411
7615  1  3 0.0000 57.637591 49.461202 14.815196
7616  1  3 0.0000 56.062996 48.618903 16.679528
7617  1  3 0.0000 57.721157 46.866813 15.639427
7618  1  3 0.0000 55.897276 51.047642 15.738292
7619  1  3 0.0000 53.337785 25.979592  0.024388
7620  1  3 0.0000 46.696730 29.075029 22.447360
7621  1  3 0.0000 47.295263 27.112383 20.594404
7622  1  3 0.0000 57.947872 48.817504 19.594071
7623  1  3 0.0000 48.167193 26.824789 22.881244
7624  1  3 0.0000 51.341804 27.152443 20.904793
7625  1  3 0.0000 52.126835 29.074770 22.398603
7626  1  3 0.0000 50.571955 27.274488 23.700424
7627  1  3 0.0000 49.828316 29.863119 19.474322
7628  1  3 0.0000 48.323712 31.077680 21.309758
7629  1  3 0.0000 49.689340 29.014809 21.865163
7630  1  3 0.0000 51.031107 31.229693 21.573635
7631  1  3 0.0000 53.208501 30.498112 20.406851
7632  1  3 0.0000 53.548665 31.068691 22.939852
7633  1  3 0.0000 54.025738 27.037241 22.741339
7634  1  3 0.0000 55.579649 30.851595 19.055019
7635  1  3 0.0000 56.380618 26.658094 22.323789
7636  1  3 0.0000 56.007093 31.515324 23.606709
7637  1  3 0.0000 58.183916 30.518436 18.949008
7638  1  3 0.0000 57.787300 28.159029 20.101037
7639  1  3 0.0000 54.606304 27.761686 20.477290
7640  1  3 0.0000 55.442457 29.194629 22.556291
7641  1  3 0.0000 58.035150 30.474817 21.502743
7642  1  3 0.0000 58.356745 27.663296 23.685196
7643  1  3 0.0000 59.445276 47.035107 18.554241
7644  1  3 0.0000 42.821760 51.562492  7.092604
7645  1  3 0.0000 47.718038 37.273157 24.564460
7646  1  3 0.0000 45.169320 35.216827 23.510737
7647  1  3 0.0000 44.065997 37.053509 22.001024
7648  1  3 0.0000 44.689973 34.724336 20.909961
7649  1  3 0.0000 46.563016 36.340405 21.644490
7650  1  3 0.0000 47.305258 33.267180 20.592119
7651  1  3 0.0000 47.269735 38.081615 19.945489
7652  1  3 0.0000 47.677235 32.887341 23.278033
7653  1  3 0.0000 47.539906 35.493561 19.422680
7654  1  3 0.0000 57.907326 46.610953 23.734005
7655  1  3 0.0000 51.354124 33.388959 23.704422
7656  1  3 0.0000 49.849312 36.137513 23.498817
7657  1  3 0.0000 51.122617 35.859521 19.102637
7658  1  3 0.0000 52.181242 33.578774 19.451035
7659  1  3 0.0000 49.598423 33.893179 19.790190
7660  1  3 0.0000 49.173633 36.599798 21.046920
7661  1  3 0.0000 51.444040 37.507340 22.007561
7662  1  3 0.0000 51.167625 34.994400 21.556866
7663  1  3 0.0000 52.741883 35.551257 23.701224
7664  1  3 0.0000 53.392271 33.893239 21.909869
7665  1  3 0.0000 49.827622 38.655302 24.336446
7666  1  3 0.0000 57.225794 49.654623 21.976391
7667  1  3 0.0000 29.899951 48.558630  6.740159
7668  1  3 0.0000 57.214109 33.001433 18.879981
7669  1  3 0.0000 54.094063 37.776705 22.903971
7670  1  3 0.0000 54.080700 36.177853 20.823644
7671  1  3 0.0000 58.342593 34.787099 22.668467
7672  1  3 0.0000 58.675633 37.207170 20.519912
7673  1  3 0.0000 56.969056 35.816702 19.289239
7674  1  3 0.0000 56.131997 37.548648 21.146735
7675  1  3 0.0000 55.741072 34.911763 22.327077
7676  1  3 0.0000 55.150362 34.073615 19.903159
7677  1  3 0.0000 56.875051 38.481252 18.862305
7678  1  3 0.0000 56.663951 36.505776 24.146840
7679  1  3 0.0000 31.124738 43.935755 18.629716
7680  1  3 0.0000 32.783635 43.972883 22.583528
7681  1  3 0.0000 34.285133 44.145941 20.387114
7682  1  3 0.0000 38.061728 42.118204 24.406155
7683  1  3 0.0000 40.963886 39.131161 22.093304
7684  1  3 0.0000 40.500141 43.210711 24.074852
7685  1  3 0.0000 39.134510 43.716916 19.565303
7686  1  3 0.0000 38.722697 43.024308 22.184110
7687  1  3 0.0000 36.729065 43.011165 20.512970
7688  1  3 0.0000 38.816348 39.845099 23.339733
7689  1  3 0.0000 41.228526 42.358659 20.098181
7690  1  3 0.0000 41.123601 44.574144 21.326503
7691  1  3 0.0000 41.249271 40.696646 24.173916
7692  1  3 0.0000 38.432604 44.736461 24.294858
7693  1  3 0.0000 37.830755 45.267387 21.146557
7694  1  3 0.0000 43.061332 39.051475 20.518335
7695  1  3 0.0000 45.767179 44.463018 18.773898
7696  1  3 0.0000 45.500869 39.078509 21.582022
7697  1  3 0.0000 45.201808 39.513175 19.141435
7698  1  3 0.0000 43.665154 39.359320 23.243544
7699  1  3 0.0000 42.333242 42.466602 22.312915
7700  1  3 0.0000 47.098498 40.739322 20.380496
7701  1  3 0.0000 45.178944 42.311992 20.096875
7702  1  3 0.0000 46.303833 42.138730 22.465813
7703  1  3 0.0000 43.346468 43.948468 20.069718
7704  1  3 0.0000 47.472461 43.374591 20.444767
7705  1  3 0.0000 48.072479 40.532368 23.677378
7706  1  3 0.0000 50.788000 40.944907 23.714775
7707  1  3 0.0000 49.342217 40.106385 19.232068
7708  1  3 0.0000 49.666582 39.668178 21.766220
7709  1  3 0.0000 51.092265 43.691350 22.633813
7710  1  3 0.0000 52.782175 43.774550 20.682633
7711  1  3 0.0000 50.979516 41.662635 20.880468
7712  1  3 0.0000 51.704798 39.401466 19.710532
7713  1  3 0.0000 50.411235 44.036489 20.000395
7714  1  3 0.0000 53.274303 41.365573 22.702776
7715  1  3 0.0000 53.394481 44.631216 22.917463
7716  1  3 0.0000 53.456796 41.171623 18.999718
7717  1  3 0.0000 55.916130 41.042029 18.397203
7718  1  3 0.0000 54.056273 38.926580 20.440025
7719  1  3 0.0000 57.010315 44.894162 21.849537
7720  1  3 0.0000 59.440480 44.861111 22.544711
7721  1  3 0.0000 58.919318 42.910946 20.994204
7722  1  3 0.0000 58.400257 40.948936 22.489730
7723  1  3 0.0000 55.474990 42.828388 23.234846
7724  1  3 0.0000 55.086424 42.252629 20.677312
7725  1  3 0.0000 57.820958 40.713885 20.044561
7726  1  3 0.0000 57.599525 44.061334 24.174352
7727  1  3 0.0000 58.949072 39.601327 24.441729
7728  1  3 0.0000 32.161231 51.441887 19.012096
7729  1  3 0.0000 34.800671 45.391076 22.726520
7730  1  3 0.0000 30.385804 45.348480 21.550664
7731  1  3 0.0000 30.485473 50.241680 22.607195
7732  1  3 0.0000 31.015833 46.519936 19.367124
7733  1  3 0.0000 30.772791 47.903442 21.612533
7734  1  3 0.0000 32.802477 46.189701 21.189736
7735  1  3 0.0000 33.887090 49.946219 23.409433
7736  1  3 0.0000 32.541564 49.666391 21.058788
7737  1  3 0.0000 35.106930 49.438140 21.194367
7738  1  3 0.0000 33.097918 47.031535 23.822458
7739  1  3 0.0000 35.657154 47.794261 23.083369
7740  1  3 0.0000 55.314067 51.423322 22.484867
7741  1  3 0.0000 41.109594 49.082999 24.237350
7742  1  3 0.0000 36.617678 45.473068 18.813083
7743  1  3 0.0000 39.426581 51.400099 21.633711
7744  1  3 0.0000 40.391377 48.680918 18.595244
7745  1  3 0.0000 38.802633 46.796982 19.189980
7746  1  3 0.0000 40.248515 46.281292 23.310456
7747  1  3 0.0000 36.505962 47.435089 20.593571
7748  1  3 0.0000 37.589815 49.343142 21.964305
7749  1  3 0.0000 38.364015 50.088546 19.520304
7750  1  3 0.0000 40.690351 47.312701 20.928756
7751  1  3 0.0000 41.373677 46.200892 18.702566
7752  1  3 0.0000 59.119127 47.772945 21.672879
7753  1  3 0.0000 44.020285 51.088053 22.909079
7754  1  3 0.0000 45.264036 46.406180 21.224485
7755  1  3 0.0000 43.043669 50.606185 20.579264
7756  1  3 0.0000 45.703161 50.221292 21.239602
7757  1  3 0.0000 46.657472 49.183769 19.076446
7758  1  3 0.0000 47.156536 48.053852 21.416918
7759  1  3 0.0000 47.497294 45.905540 19.921145
7760  1  3 0.0000 43.881187 48.576735 22.032191
7761  1  3 0.0000 44.803782 46.770447 23.695251
7762  1  3 0.0000 42.753415 46.230130 22.232138
7763  1  3 0.0000 47.500185 45.812286 22.528165
7764  1  3 0.0000 50.201992 51.519074 22.371350
7765  1  3 0.0000 48.087824 47.508750 24.484055
7766  1  3 0.0000 49.965979 46.627522 22.766477
7767  1  3 0.0000 51.383290 46.943266 18.496226
7768  1  3 0.0000 48.341337 50.217220 20.825298
7769  1  3 0.0000 52.252755 46.233022 21.281456
7770  1  3 0.0000 48.879817 49.605832 23.332085
7771  1  3 0.0000 51.822698 50.395870 24.298091
7772  1  3 0.0000 50.666438 48.135112 20.711923
7773  1  3 0.0000 52.146228 48.261021 22.935273
7774  1  3 0.0000 52.759270 48.957471 19.241110
7775  1  3 0.0000 57.301872 45.584782 19.410601
7776  1  3 0.0000 54.810731 45.469107 20.615869
7777  1  3 0.0000 34.165449 51.504291  1.717322
7778  1  3 0.0000 29.875304 49.703043 20.055418
7779  1  3 0.0000 55.936515 38.042650  0.326437
7780  1  3 0.0000 32.249160 51.090072  0.048506
7781  1  3 0.0000 56.427987 29.522412  0.052498
7782  1  3 0.0000 51.705677 45.521653 24.617545
7783  1  3 0.0000 42.875115 43.470746  0.082273
7784  1  3 0.0000 31.343419 48.881463 24.632078
7785  1  3 0.0000 41.093438 51.489438 44.666618
7786  1  3 0.0000 30.279303 45.902415 49.076292
7787  1  3 0.0000 44.137530 51.523277 38.009522
7788  1  3 0.0000 46.543389 26.639910 27.357395
7789  1  3 0.0000 47.417641 31.761021 25.776942
7790  1  3 0.0000 48.104805 29.742120 27.318756
7791  1  3 0.0000 48.337926 27.045211 25.348852
7792  1  3 0.0000 49.287233 27.650750 28.030224
7793  1  3 0.0000 50.681440 29.789961 27.289784
7794  1  3 0.0000 52.834996 30.929848 26.893247
7795  1  3 0.0000 49.280379 29.678169 29.619304
7796  1  3 0.0000 50.868606 31.405361 25.332698
7797  1  3 0.0000 50.909389 26.693543 26.234574
7798  1  3 0.0000 51.930538 28.813609 25.230140
7799  1  3 0.0000 51.296008 26.167821 28.876908
7800  1  3 0.0000 53.587265 30.029479 29.982060
7801  1  3 0.0000 53.362050 27.642806 28.674124
7802  1  3 0.0000 49.348785 27.270377 30.779868
7803  1  3 0.0000 52.776753 26.213948 24.671885
7804  1  3 0.0000 47.362868 42.772859 24.667334
7805  1  3 0.0000 49.378001 51.566031 33.952419
7806  1  3 0.0000 55.530943 27.534037 25.984998
7807  1  3 0.0000 55.087543 29.401239 27.699560
7808  1  3 0.0000 57.075250 29.708251 25.786470
7809  1  3 0.0000 57.917179 28.556900 29.081487
7810  1  3 0.0000 58.167467 31.859981 25.303267
7811  1  3 0.0000 55.431854 28.305939 30.046182
7812  1  3 0.0000 57.941430 26.931587 26.830152
7813  1  3 0.0000 59.162869 30.163734 27.354990
7814  1  3 0.0000 54.716944 29.735543 24.989302
7815  1  3 0.0000 57.110966 26.217266 29.791016
7816  1  3 0.0000 56.740611 31.764203 28.445014
7817  1  3 0.0000 55.765802 32.189206 26.072308
7818  1  3 0.0000 57.262309 30.713415 30.771786
7819  1  3 0.0000 59.647233 36.341106 41.879734
7820  1  3 0.0000 30.077568 46.938589 31.852160
7821  1  3 0.0000 46.219406 36.147939 26.424556
7822  1  3 0.0000 46.303305 36.673874 28.927040
7823  1  3 0.0000 44.001160 37.957466 28.115182
7824  1  3 0.0000 45.114908 38.495548 30.380513
7825  1  3 0.0000 46.994892 38.849503 26.414524
7826  1  3 0.0000 51.648608 32.413103 28.594592
7827  1  3 0.0000 48.191601 34.990635 27.495080
7828  1  3 0.0000 49.727434 36.495902 26.036479
7829  1  3 0.0000 49.853155 33.861872 25.898124
7830  1  3 0.0000 50.612704 35.231285 28.221915
7831  1  3 0.0000 52.373033 33.287775 26.147408
7832  1  3 0.0000 50.508837 33.810972 30.479141
7833  1  3 0.0000 48.947802 35.973195 30.273641
7834  1  3 0.0000 51.458078 36.272460 30.561579
7835  1  3 0.0000 53.117738 33.485364 30.431573
7836  1  3 0.0000 52.342982 37.715203 25.036730
7837  1  3 0.0000 53.609695 38.805020 27.044638
7838  1  3 0.0000 59.623975 40.919170 33.993548
7839  1  3 0.0000 54.180601 32.804876 28.062519
7840  1  3 0.0000 54.221545 37.510038 29.368598
7841  1  3 0.0000 54.489515 36.604547 25.229777
7842  1  3 0.0000 58.501691 35.208343 26.474563
7843  1  3 0.0000 58.088436 35.584851 28.981838
7844  1  3 0.0000 56.402117 34.076153 27.650273
7845  1  3 0.0000 56.486859 36.549419 26.899153
7846  1  3 0.0000 55.092722 35.162191 30.356888
7847  1  3 0.0000 59.164379 37.684622 27.132379
7848  1  3 0.0000 58.062422 33.231193 30.271242
7849  1  3 0.0000 55.596086 32.666274 30.638848
7850  1  3 0.0000 56.301336 37.469476 30.940430
7851  1  3 0.0000 33.955142 43.767798 25.667255
7852  1  3 0.0000 41.881881 41.954261 27.034660
7853  1  3 0.0000 42.048147 39.704839 28.231419
7854  1  3 0.0000 42.159862 41.891251 29.641232
7855  1  3 0.0000 42.343428 44.488886 26.908948
7856  1  3 0.0000 46.934162 39.411052 28.935541
7857  1  3 0.0000 43.602717 39.609984 26.046924
7858  1  3 0.0000 45.397501 42.861912 29.271373
7859  1  3 0.0000 44.491699 40.606444 28.250834
7860  1  3 0.0000 46.654423 41.406827 27.353458
7861  1  3 0.0000 44.383404 42.821976 26.966515
7862  1  3 0.0000 47.234646 44.334545 26.708969
7863  1  3 0.0000 47.440385 44.109108 30.256209
7864  1  3 0.0000 42.888877 42.875391 24.859808
7865  1  3 0.0000 59.522853 29.668317 24.790065
7866  1  3 0.0000 54.603943 47.306955 47.051922
7867  1  3 0.0000 51.143240 38.948249 27.002868
7868  1  3 0.0000 49.565898 43.100429 26.150497
7869  1  3 0.0000 50.923542 39.876555 29.561089
7870  1  3 0.0000 51.124465 41.447489 27.516720
7871  1  3 0.0000 49.003179 40.123058 27.528660
7872  1  3 0.0000 51.495828 43.925979 27.807482
7873  1  3 0.0000 49.287857 43.025820 28.723779
7874  1  3 0.0000 51.838985 42.136366 30.408253
7875  1  3 0.0000 52.743178 40.211853 25.161897
7876  1  3 0.0000 53.412708 40.147320 29.279221
7877  1  3 0.0000 53.017520 45.195194 29.551633
7878  1  3 0.0000 57.212664 41.586643 24.665318
7879  1  3 0.0000 59.458583 39.625611 29.049932
7880  1  3 0.0000 56.175311 38.770281 25.642284
7881  1  3 0.0000 59.008138 42.468473 26.981458
7882  1  3 0.0000 54.156812 43.540056 27.829734
7883  1  3 0.0000 58.285997 44.696684 27.832223
7884  1  3 0.0000 55.769822 39.238416 28.321240
7885  1  3 0.0000 59.002309 42.896622 29.513688
7886  1  3 0.0000 55.363003 41.178242 26.822260
7887  1  3 0.0000 56.657876 42.721594 28.281577
7888  1  3 0.0000 57.919217 40.055646 27.060115
7889  1  3 0.0000 55.771769 43.464723 25.858003
7890  1  3 0.0000 59.464521 42.733728 32.059792
7891  1  3 0.0000 29.854568 50.199097 27.741809
7892  1  3 0.0000 34.074008 45.432440 27.650728
7893  1  3 0.0000 30.703911 46.342425 24.923928
7894  1  3 0.0000 32.623807 47.462717 26.310047
7895  1  3 0.0000 34.406093 48.428264 27.892327
7896  1  3 0.0000 32.444510 47.022215 28.795463
7897  1  3 0.0000 32.283040 49.645557 27.520772
7898  1  3 0.0000 35.291765 49.919133 25.894974
7899  1  3 0.0000 35.100442 46.163155 25.247963
7900  1  3 0.0000 31.724216 51.376381 29.305500
7901  1  3 0.0000 38.438973 47.377543 24.820242
7902  1  3 0.0000 36.007843 50.416318 28.494123
7903  1  3 0.0000 37.601900 45.932555 28.364864
7904  1  3 0.0000 39.291817 47.887440 28.011397
7905  1  3 0.0000 36.888308 48.302334 27.313779
7906  1  3 0.0000 40.580250 46.576118 29.811672
7907  1  3 0.0000 38.608083 50.389912 29.813534
7908  1  3 0.0000 37.280701 47.841128 29.850781
7909  1  3 0.0000 40.280629 45.681378 25.863749
7910  1  3 0.0000 40.300757 50.978890 25.985299
7911  1  3 0.0000 41.184909 49.277511 29.064858
7912  1  3 0.0000 38.161501 51.202645 27.443561
7913  1  3 0.0000 41.813078 47.016486 27.586148
7914  1  3 0.0000 45.880327 45.414956 28.689126
7915  1  3 0.0000 46.630591 51.069360 29.856364
7916  1  3 0.0000 45.189476 50.622642 26.763146
7917  1  3 0.0000 44.326592 48.548192 25.567870
7918  1  3 0.0000 45.404989 48.778994 29.900889
7919  1  3 0.0000 45.353483 46.187877 26.228638
7920  1  3 0.0000 43.150750 49.613431 27.663693
7921  1  3 0.0000 42.821194 46.450857 25.300679
7922  1  3 0.0000 43.250136 50.307475 30.169107
7923  1  3 0.0000 42.782954 50.628012 25.496541
7924  1  3 0.0000 47.393036 49.385746 28.006076
7925  1  3 0.0000 46.920131 49.931237 24.983439
7926  1  3 0.0000 47.749539 46.681570 27.415047
7927  1  3 0.0000 48.006634 48.784342 30.422662
7928  1  3 0.0000 51.689422 50.738615 29.231653
7929  1  3 0.0000 52.759295 45.897631 27.018873
7930  1  3 0.0000 49.670781 48.189551 28.224016
7931  1  3 0.0000 50.265508 46.205266 26.706090
7932  1  3 0.0000 49.363894 45.622573 29.184070
7933  1  3 0.0000 49.190671 49.417521 25.984395
7934  1  3 0.0000 51.796943 48.006997 25.583864
7935  1  3 0.0000 49.437653 50.973298 28.071910
7936  1  3 0.0000 54.190598 47.803431 44.606130
7937  1  3 0.0000 53.592478 51.363233 27.460791
7938  1  3 0.0000 56.170207 50.431629 27.621626
7939  1  3 0.0000 54.259315 49.755266 29.254041
7940  1  3 0.0000 58.578738 46.796870 26.260373
7941  1  3 0.0000 54.938542 48.281119 27.151326
7942  1  3 0.0000 56.759178 48.487600 29.023862
7943  1  3 0.0000 57.879583 50.929306 25.869927
7944  1  3 0.0000 58.173233 50.308900 30.176380
7945  1  3 0.0000 58.760100 47.908550 30.447577
7946  1  3 0.0000 59.249235 49.284976 28.207488
7947  1  3 0.0000 56.624090 48.277369 25.267246
7948  1  3 0.0000 54.810772 46.509985 25.082745
7949  1  3 0.0000 58.242707 51.182965 44.182346
7950  1  3 0.0000 59.085340 48.841581 24.717860
7951  1  3 0.0000 46.511511 28.933995 31.809455
7952  1  3 0.0000 47.212051 31.395396 32.078041
7953  1  3 0.0000 51.415939 28.856835 31.008533
7954  1  3 0.0000 51.668737 31.485649 31.082606
7955  1  3 0.0000 53.088024 26.212192 30.909446
7956  1  3 0.0000 51.669538 26.131919 33.080683
7957  1  3 0.0000 51.637928 26.302966 35.755465
7958  1  3 0.0000 48.732735 28.916348 36.267917
7959  1  3 0.0000 48.121482 31.510834 36.109755
7960  1  3 0.0000 49.122561 29.470501 32.209427
7961  1  3 0.0000 52.891581 30.032002 32.743946
7962  1  3 0.0000 51.422930 28.390345 34.321076
7963  1  3 0.0000 51.076148 30.951293 34.494188
7964  1  3 0.0000 53.340524 29.840000 35.363857
7965  1  3 0.0000 49.393644 26.623754 34.243880
7966  1  3 0.0000 56.707952 46.430947 48.439409
7967  1  3 0.0000 54.221980 26.512697 35.812045
7968  1  3 0.0000 54.014519 27.184004 33.201584
7969  1  3 0.0000 59.058678 30.233861 32.485965
7970  1  3 0.0000 58.002497 29.620526 35.402359
7971  1  3 0.0000 57.520451 28.265935 31.610820
7972  1  3 0.0000 55.669938 28.492789 34.894072
7973  1  3 0.0000 56.546505 30.210541 33.209928
7974  1  3 0.0000 56.061811 31.310928 35.508889
7975  1  3 0.0000 56.137106 26.118962 34.164052
7976  1  3 0.0000 57.775540 26.030827 36.268746
7977  1  3 0.0000 47.008126 35.932888 32.003720
7978  1  3 0.0000 44.559103 35.720964 32.984505
7979  1  3 0.0000 43.429742 36.464026 35.187841
7980  1  3 0.0000 46.324123 37.297691 34.517298
7981  1  3 0.0000 45.863689 35.716453 36.693755
7982  1  3 0.0000 44.606392 38.527482 32.827929
7983  1  3 0.0000 47.720807 37.652340 36.671950
7984  1  3 0.0000 47.736935 38.250819 31.001894
7985  1  3 0.0000 51.591463 32.642158 36.542815
7986  1  3 0.0000 47.940899 35.373148 35.203058
7987  1  3 0.0000 49.826326 33.385317 34.727952
7988  1  3 0.0000 52.391782 33.055240 34.088556
7989  1  3 0.0000 52.142431 35.245266 32.810998
7990  1  3 0.0000 49.179932 37.042400 32.762145
7991  1  3 0.0000 50.262368 38.049670 34.901883
7992  1  3 0.0000 51.569965 37.882880 32.661153
7993  1  3 0.0000 52.711968 37.224240 35.637487
7994  1  3 0.0000 50.447649 35.599986 35.794888
7995  1  3 0.0000 48.753380 33.834634 37.012470
7996  1  3 0.0000 53.942012 35.149339 34.753011
7997  1  3 0.0000 53.829017 36.826513 31.776390
7998  1  3 0.0000 58.948233 37.936237 30.973342
7999  1  3 0.0000 54.190591 32.888898 36.621925
8000  1  3 0.0000 58.817424 34.390499 34.987642
8001  1  3 0.0000 54.409405 33.958983 32.570191
8002  1  3 0.0000 57.875758 35.574581 31.629760
8003  1  3 0.0000 57.605226 36.488831 35.396435
8004  1  3 0.0000 57.454335 37.841999 33.193091
8005  1  3 0.0000 55.116599 37.479413 34.427106
8006  1  3 0.0000 56.491576 33.887928 35.740074
8007  1  3 0.0000 55.035171 36.301075 36.763355
8008  1  3 0.0000 45.253767 38.106294 24.777066
8009  1  3 0.0000 32.579164 44.060447 35.224203
8010  1  3 0.0000 34.979489 43.569806 31.869925
8011  1  3 0.0000 39.972024 44.245049 31.062514
8012  1  3 0.0000 40.967791 40.447020 31.322928
8013  1  3 0.0000 37.022700 43.239690 34.915351
8014  1  3 0.0000 40.135939 39.934049 33.654219
8015  1  3 0.0000 39.575623 42.296152 32.762635
8016  1  3 0.0000 38.941010 41.546814 35.343075
8017  1  3 0.0000 37.886316 44.093500 32.647734
8018  1  3 0.0000 38.962615 44.789028 35.028227
8019  1  3 0.0000 41.323322 44.416856 34.095228
8020  1  3 0.0000 40.795008 43.826431 36.614404
8021  1  3 0.0000 41.554294 41.917254 34.462765
8022  1  3 0.0000 44.505203 38.787618 35.331895
8023  1  3 0.0000 44.967758 44.765105 31.049062
8024  1  3 0.0000 42.317801 42.709249 32.154881
8025  1  3 0.0000 46.567333 40.482391 31.348553
8026  1  3 0.0000 43.629041 40.529416 31.419259
8027  1  3 0.0000 43.735153 43.635366 34.232137
8028  1  3 0.0000 46.274949 43.969126 35.113972
8029  1  3 0.0000 46.628339 39.786463 33.827832
8030  1  3 0.0000 45.725136 42.149359 33.263083
8031  1  3 0.0000 44.775217 41.818718 35.712326
8032  1  3 0.0000 46.681978 40.170379 36.556146
8033  1  3 0.0000 50.036275 43.886468 31.057257
8034  1  3 0.0000 48.219156 41.748439 32.807029
8035  1  3 0.0000 52.493980 44.061333 31.987259
8036  1  3 0.0000 51.502080 43.960039 35.222113
8037  1  3 0.0000 50.875968 42.072915 32.887135
8038  1  3 0.0000 49.617941 39.688154 32.981417
8039  1  3 0.0000 49.558422 41.357630 35.071930
8040  1  3 0.0000 53.097588 40.145573 34.290801
8041  1  3 0.0000 48.862233 44.301970 35.917402
8042  1  3 0.0000 51.579274 40.348358 36.398757
8043  1  3 0.0000 53.376807 42.218109 35.952068
8044  1  3 0.0000 52.784560 40.247992 31.743155
8045  1  3 0.0000 49.514210 44.999518 33.601953
8046  1  3 0.0000 57.552949 51.320037 46.705732
8047  1  3 0.0000 59.025373 38.686076 35.394857
8048  1  3 0.0000 57.539195 44.211399 31.177701
8049  1  3 0.0000 54.063210 44.434819 34.541644
8050  1  3 0.0000 58.521032 41.084825 36.348766
8051  1  3 0.0000 55.048191 39.339454 32.585752
8052  1  3 0.0000 56.466238 39.836414 34.535120
8053  1  3 0.0000 56.424156 42.374191 35.581124
8054  1  3 0.0000 54.796480 41.629170 33.500174
8055  1  3 0.0000 57.336470 41.888272 33.269493
8056  1  3 0.0000 58.538438 40.346295 31.582055
8057  1  3 0.0000 54.154971 39.751690 36.635736
8058  1  3 0.0000 58.770932 43.575045 35.871746
8059  1  3 0.0000 56.332328 44.918407 33.377627
8060  1  3 0.0000 54.968579 44.768227 31.206711
8061  1  3 0.0000 58.266733 48.591013 43.738454
8062  1  3 0.0000 59.586947 26.245142 31.450213
8063  1  3 0.0000 55.062687 50.656582 46.501628
8064  1  3 0.0000 34.832341 48.341580 30.774811
8065  1  3 0.0000 33.711197 50.562759 31.484984
8066  1  3 0.0000 34.095923 45.984975 34.257789
8067  1  3 0.0000 32.106670 48.539911 31.527762
8068  1  3 0.0000 34.223396 48.648589 33.118530
8069  1  3 0.0000 32.066970 46.754256 35.629170
8070  1  3 0.0000 33.919685 50.150210 35.099276
8071  1  3 0.0000 35.299280 45.944275 36.499299
8072  1  3 0.0000 31.439724 51.003792 34.397890
8073  1  3 0.0000 30.267573 48.933013 33.548926
8074  1  3 0.0000 35.733353 48.053023 35.034331
8075  1  3 0.0000 35.829733 45.989174 31.191373
8076  1  3 0.0000 40.530305 51.470386 31.505874
8077  1  3 0.0000 38.140481 51.265840 32.213077
8078  1  3 0.0000 36.222115 50.424528 33.927177
8079  1  3 0.0000 37.185586 48.000173 32.312944
8080  1  3 0.0000 39.383061 46.502607 32.033901
8081  1  3 0.0000 36.701712 45.798607 34.268199
8082  1  3 0.0000 39.593128 49.105491 31.970436
8083  1  3 0.0000 39.328117 47.810547 34.138519
8084  1  3 0.0000 41.003767 46.324551 35.743016
8085  1  3 0.0000 40.391725 48.678381 36.318126
8086  1  3 0.0000 41.895855 46.084447 31.919178
8087  1  3 0.0000 46.833294 45.726789 32.483245
8088  1  3 0.0000 43.091096 51.269738 35.549407
8089  1  3 0.0000 46.749934 51.326519 33.457712
8090  1  3 0.0000 42.012985 47.901945 33.953465
8091  1  3 0.0000 44.179671 46.335826 33.140655
8092  1  3 0.0000 43.307723 48.135072 31.507051
8093  1  3 0.0000 45.023830 49.859026 32.143916
8094  1  3 0.0000 45.397271 49.303855 34.716522
8095  1  3 0.0000 47.363440 49.025485 32.891528
8096  1  3 0.0000 45.187295 47.122659 36.493711
8097  1  3 0.0000 47.688775 46.235620 34.696981
8098  1  3 0.0000 46.565703 49.270289 36.930471
8099  1  3 0.0000 43.778826 49.278422 36.920778
8100  1  3 0.0000 48.924142 47.238394 32.367395
8101  1  3 0.0000 51.967554 50.687424 33.549771
8102  1  3 0.0000 52.323903 47.670682 34.313439
8103  1  3 0.0000 49.763411 49.786223 32.209902
8104  1  3 0.0000 50.183273 49.127334 34.612234
8105  1  3 0.0000 50.424840 46.471082 35.457314
8106  1  3 0.0000 51.406895 48.509835 36.753688
8107  1  3 0.0000 53.100672 46.585760 31.899660
8108  1  3 0.0000 53.698386 48.968287 32.514197
8109  1  3 0.0000 59.210890 50.388526 35.047392
8110  1  3 0.0000 54.705891 46.886545 33.838761
8111  1  3 0.0000 54.602965 50.300766 34.585097
8112  1  3 0.0000 56.706788 46.676853 31.605427
8113  1  3 0.0000 57.568391 49.235543 32.343168
8114  1  3 0.0000 56.092834 45.929197 35.783083
8115  1  3 0.0000 57.785497 48.133895 35.462355
8116  1  3 0.0000 59.073593 47.179934 32.895576
8117  1  3 0.0000 58.573939 46.006215 36.629541
8118  1  3 0.0000 55.952632 50.612586 37.036942
8119  1  3 0.0000 34.615689 51.543799 48.347517
8120  1  3 0.0000 47.270854 31.775090 40.463526
8121  1  3 0.0000 47.710766 28.352847 38.520870
8122  1  3 0.0000 52.810861 28.182509 37.237578
8123  1  3 0.0000 49.507503 26.733349 37.898066
8124  1  3 0.0000 50.199367 29.293072 38.347123
8125  1  3 0.0000 49.169765 29.934825 40.596684
8126  1  3 0.0000 49.194564 31.634259 38.545206
8127  1  3 0.0000 48.517135 27.455043 41.534487
8128  1  3 0.0000 51.322966 31.299170 40.016295
8129  1  3 0.0000 52.995331 30.760650 37.725081
8130  1  3 0.0000 50.876985 28.462242 41.806073
8131  1  3 0.0000 53.311338 31.875974 41.560548
8132  1  3 0.0000 53.399357 28.136324 42.768252
8133  1  3 0.0000 48.692569 29.521193 43.127863
8134  1  3 0.0000 55.753046 29.775390 41.599852
8135  1  3 0.0000 57.024582 30.366487 38.916821
8136  1  3 0.0000 55.118473 29.307127 37.416994
8137  1  3 0.0000 55.985720 28.138200 39.662303
8138  1  3 0.0000 58.008117 28.463248 41.281484
8139  1  3 0.0000 55.898857 27.293414 42.277509
8140  1  3 0.0000 57.659271 28.420794 37.558236
8141  1  3 0.0000 58.902144 32.036045 38.443306
8142  1  3 0.0000 56.684752 48.847135 47.367807
8143  1  3 0.0000 44.219108 37.376381 37.583538
8144  1  3 0.0000 46.138421 35.901395 39.232961
8145  1  3 0.0000 46.621814 36.075063 41.821569
8146  1  3 0.0000 44.484869 37.341421 41.239364
8147  1  3 0.0000 47.081541 33.039522 42.557585
8148  1  3 0.0000 47.946677 34.316908 40.443446
8149  1  3 0.0000 48.251881 37.100115 40.215242
8150  1  3 0.0000 49.374024 32.629557 41.930063
8151  1  3 0.0000 53.046550 32.934569 38.999950
8152  1  3 0.0000 50.851343 37.531947 37.421281
8153  1  3 0.0000 51.096287 36.071416 42.258415
8154  1  3 0.0000 51.795317 33.845630 40.959845
8155  1  3 0.0000 53.083577 36.527323 38.337573
8156  1  3 0.0000 51.105201 36.011092 39.719767
8157  1  3 0.0000 53.462877 35.926080 41.179182
8158  1  3 0.0000 52.000499 38.477449 39.553690
8159  1  3 0.0000 59.386057 34.695948 39.837249
8160  1  3 0.0000 57.162901 32.461165 40.404732
8161  1  3 0.0000 56.313023 32.560390 37.932352
8162  1  3 0.0000 58.306674 36.955704 39.065416
8163  1  3 0.0000 58.220649 34.866668 37.461274
8164  1  3 0.0000 55.241024 35.662087 39.340892
8165  1  3 0.0000 55.961091 36.643783 41.679053
8166  1  3 0.0000 55.512692 34.093960 41.404202
8167  1  3 0.0000 58.067860 34.317852 42.016717
8168  1  3 0.0000 54.972524 38.221436 38.594518
8169  1  3 0.0000 31.100511 43.918765 38.025301
8170  1  3 0.0000 35.423931 43.620461 38.557875
8171  1  3 0.0000 32.516718 43.988837 42.506762
8172  1  3 0.0000 34.089221 44.922859 40.693211
8173  1  3 0.0000 37.621577 42.517506 37.402441
8174  1  3 0.0000 41.356798 41.441102 41.111879
8175  1  3 0.0000 40.153683 42.683502 38.972494
8176  1  3 0.0000 37.649102 44.834683 38.707355
8177  1  3 0.0000 37.023109 44.896988 42.665330
8178  1  3 0.0000 41.205317 43.120163 43.100033
8179  1  3 0.0000 42.060586 40.918239 38.708390
8180  1  3 0.0000 47.309463 38.978922 38.773237
8181  1  3 0.0000 47.029329 39.071599 41.521122
8182  1  3 0.0000 44.170055 40.138712 37.696563
8183  1  3 0.0000 45.744686 42.119664 38.142464
8184  1  3 0.0000 44.390957 41.108870 40.094721
8185  1  3 0.0000 44.750835 43.596978 40.041558
8186  1  3 0.0000 46.919577 42.157742 40.408301
8187  1  3 0.0000 42.430722 43.789988 38.880309
8188  1  3 0.0000 53.357441 44.604886 36.963128
8189  1  3 0.0000 49.337896 39.376715 40.396743
8190  1  3 0.0000 50.312191 42.370545 37.403937
8191  1  3 0.0000 49.107026 39.977992 37.273631
8192  1  3 0.0000 51.636742 40.672856 40.749277
8193  1  3 0.0000 49.326480 41.871534 41.271629
8194  1  3 0.0000 48.909454 43.511852 39.264747
8195  1  3 0.0000 51.384659 43.097839 39.696775
8196  1  3 0.0000 52.998938 43.538185 41.924677
8197  1  3 0.0000 48.077430 44.064984 41.692979
8198  1  3 0.0000 51.113187 44.870529 38.075763
8199  1  3 0.0000 53.317227 44.838146 39.544997
8200  1  3 0.0000 50.160876 39.998977 42.733007
8201  1  3 0.0000 53.576024 39.153035 41.491883
8202  1  3 0.0000 53.695853 40.395908 39.114004
8203  1  3 0.0000 56.622073 39.281296 41.518508
8204  1  3 0.0000 58.892503 40.607961 41.514258
8205  1  3 0.0000 56.801874 41.676314 40.380228
8206  1  3 0.0000 57.339330 42.908487 37.965900
8207  1  3 0.0000 55.073472 43.121641 38.993615
8208  1  3 0.0000 56.041037 40.685201 38.089041
8209  1  3 0.0000 55.265208 44.292104 41.360254
8210  1  3 0.0000 58.645698 43.815706 41.723538
8211  1  3 0.0000 56.841413 41.515575 42.970159
8212  1  3 0.0000 54.345672 40.786041 43.270863
8213  1  3 0.0000 31.360269 48.964371 36.805110
8214  1  3 0.0000 33.551786 45.247308 38.254677
8215  1  3 0.0000 30.016497 48.378105 41.073388
8216  1  3 0.0000 34.655079 50.866097 40.141154
8217  1  3 0.0000 30.881128 46.560044 37.920997
8218  1  3 0.0000 32.128887 50.425825 41.009294
8219  1  3 0.0000 33.466414 47.576570 37.564193
8220  1  3 0.0000 33.961108 48.413338 40.498345
8221  1  3 0.0000 31.854114 46.227530 41.336515
8222  1  3 0.0000 34.314369 50.005827 42.546962
8223  1  3 0.0000 35.492214 46.798766 39.013054
8224  1  3 0.0000 30.578313 51.297430 37.893012
8225  1  3 0.0000 40.251649 45.252685 38.726938
8226  1  3 0.0000 36.046748 47.177965 41.674684
8227  1  3 0.0000 38.116164 49.680717 37.179215
8228  1  3 0.0000 40.308348 45.526884 42.105096
8229  1  3 0.0000 38.655396 46.692835 40.252027
8230  1  3 0.0000 36.366696 49.005157 39.956386
8231  1  3 0.0000 38.697707 47.087299 37.628046
8232  1  3 0.0000 39.933378 48.984988 38.926076
8233  1  3 0.0000 40.283212 48.289878 41.467186
8234  1  3 0.0000 39.396503 50.773035 40.681622
8235  1  3 0.0000 38.390273 47.061729 42.839318
8236  1  3 0.0000 36.776986 50.831360 41.671810
8237  1  3 0.0000 37.067891 51.316241 39.024848
8238  1  3 0.0000 41.622053 51.149170 37.487010
8239  1  3 0.0000 47.565393 51.483830 41.133855
8240  1  3 0.0000 41.843427 50.149012 40.242880
8241  1  3 0.0000 44.486671 45.365548 38.152774
8242  1  3 0.0000 46.965099 45.564131 37.182538
8243  1  3 0.0000 45.174814 45.348139 42.429377
8244  1  3 0.0000 43.407205 45.742202 40.439506
8245  1  3 0.0000 43.879730 47.734869 42.011963
8246  1  3 0.0000 46.239057 47.013933 39.088080
8247  1  3 0.0000 47.169529 47.857143 41.469307
8248  1  3 0.0000 47.045631 50.906687 38.750127
8249  1  3 0.0000 43.997742 50.472267 41.327805
8250  1  3 0.0000 42.667364 45.422265 42.918006
8251  1  3 0.0000 45.709147 49.469705 42.870345
8252  1  3 0.0000 51.131905 45.151160 41.059907
8253  1  3 0.0000 48.970412 50.436953 37.087643
8254  1  3 0.0000 48.183656 48.666597 38.998955
8255  1  3 0.0000 49.274220 46.106512 42.586544
8256  1  3 0.0000 51.393631 50.158977 41.250890
8257  1  3 0.0000 48.747955 46.359384 39.985324
8258  1  3 0.0000 50.727304 47.649266 40.821651
8259  1  3 0.0000 52.377471 49.480949 38.990903
8260  1  3 0.0000 53.172645 48.363879 41.760673
8261  1  3 0.0000 52.937832 46.984173 38.107696
8262  1  3 0.0000 50.442180 51.210568 38.999500
8263  1  3 0.0000 54.111869 51.558161 32.282057
8264  1  3 0.0000 53.917584 49.154875 36.850562
8265  1  3 0.0000 59.400571 49.166400 37.240861
8266  1  3 0.0000 59.013604 45.577519 39.950523
8267  1  3 0.0000 55.961160 45.636445 39.318993
8268  1  3 0.0000 55.073352 47.984154 39.834939
8269  1  3 0.0000 56.730734 47.449080 37.691136
8270  1  3 0.0000 55.112818 50.144492 41.221614
8271  1  3 0.0000 57.555558 50.198945 41.890254
8272  1  3 0.0000 57.673374 47.725400 39.945259
8273  1  3 0.0000 55.535271 47.597018 42.328821
8274  1  3 0.0000 56.886365 51.069644 39.467925
8275  1  3 0.0000 58.620778 46.063530 43.229413
8276  1  3 0.0000 46.757653 31.194417 44.350032
8277  1  3 0.0000 54.097698 45.555189 43.256437
8278  1  3 0.0000 50.717510 26.464725 46.357379
8279  1  3 0.0000 51.067001 29.892329 48.707903
8280  1  3 0.0000 48.209142 27.043964 46.280932
8281  1  3 0.0000 51.450193 26.931253 43.817099
8282  1  3 0.0000 51.617591 29.367302 44.156067
8283  1  3 0.0000 51.883498 30.872242 46.370216
8284  1  3 0.0000 48.850672 31.799924 47.613913
8285  1  3 0.0000 49.217634 31.840481 44.408451
8286  1  3 0.0000 53.371469 31.100306 48.510802
8287  1  3 0.0000 53.394794 28.806257 45.899582
8288  1  3 0.0000 51.538290 32.167162 43.342458
8289  1  3 0.0000 53.561733 30.910681 44.244748
8290  1  3 0.0000 37.924764 44.786599 49.198347
8291  1  3 0.0000 56.904036 32.396221 43.019935
8292  1  3 0.0000 59.476660 26.135191 47.174159
8293  1  3 0.0000 58.285461 29.990724 43.308516
8294  1  3 0.0000 59.073560 28.120230 45.449383
8295  1  3 0.0000 54.627970 27.376112 47.521165
8296  1  3 0.0000 55.077870 27.304930 44.736572
8297  1  3 0.0000 58.195590 30.270174 47.499684
8298  1  3 0.0000 55.868435 29.329851 46.575833
8299  1  3 0.0000 57.504152 27.659021 47.416766
8300  1  3 0.0000 57.821640 31.657945 45.311696
8301  1  3 0.0000 59.559467 32.122506 43.507529
8302  1  3 0.0000 41.884009 38.226818 45.285935
8303  1  3 0.0000 45.617168 37.932891 43.392626
8304  1  3 0.0000 45.277435 37.454724 48.594075
8305  1  3 0.0000 44.138806 37.686732 46.334488
8306  1  3 0.0000 47.099168 33.555750 46.830779
8307  1  3 0.0000 45.148416 34.962368 47.931769
8308  1  3 0.0000 42.221382 38.122367 47.942367
8309  1  3 0.0000 46.655033 38.529207 46.625998
8310  1  3 0.0000 47.687647 38.366444 49.018148
8311  1  3 0.0000 47.566274 36.221295 45.242469
8312  1  3 0.0000 51.372450 32.623547 48.200541
8313  1  3 0.0000 48.687353 33.986410 48.939517
8314  1  3 0.0000 52.046334 35.203952 48.233809
8315  1  3 0.0000 50.019432 34.273448 43.829225
8316  1  3 0.0000 50.017161 36.841310 44.458207
8317  1  3 0.0000 52.236705 35.566315 44.521838
8318  1  3 0.0000 49.865637 34.131383 46.795562
8319  1  3 0.0000 52.471408 33.729924 46.183778
8320  1  3 0.0000 51.957314 37.970736 46.714179
8321  1  3 0.0000 49.287296 38.074471 47.047884
8322  1  3 0.0000 48.079928 38.442425 43.847652
8323  1  3 0.0000 53.205431 38.562874 48.934659
8324  1  3 0.0000 53.664203 33.482275 43.757789
8325  1  3 0.0000 54.939735 38.236756 43.360392
8326  1  3 0.0000 57.533302 37.895717 43.490728
8327  1  3 0.0000 55.482254 32.509825 48.023012
8328  1  3 0.0000 58.631114 35.945883 44.754271
8329  1  3 0.0000 54.719484 35.198027 45.381676
8330  1  3 0.0000 58.072019 37.474215 48.128220
8331  1  3 0.0000 54.410730 36.963009 47.218144
8332  1  3 0.0000 56.206257 35.044212 47.537656
8333  1  3 0.0000 57.955193 32.989192 47.440131
8334  1  3 0.0000 56.580765 37.054096 45.780804
8335  1  3 0.0000 58.810913 38.540707 45.677548
8336  1  3 0.0000 30.118405 43.609120 47.786527
8337  1  3 0.0000 33.048953 43.752308 45.560273
8338  1  3 0.0000 35.444603 43.820350 44.418788
8339  1  3 0.0000 32.292338 45.057887 47.631642
8340  1  3 0.0000 56.059936 49.835503 44.186127
8341  1  3 0.0000 36.649935 41.748810 48.572486
8342  1  3 0.0000 36.898288 43.771420 47.038937
8343  1  3 0.0000 40.590632 42.764476 48.483810
8344  1  3 0.0000 38.231889 43.834219 44.628335
8345  1  3 0.0000 37.262965 41.365723 45.966110
8346  1  3 0.0000 40.375509 42.635936 45.963648
8347  1  3 0.0000 39.226358 44.787828 46.837518
8348  1  3 0.0000 40.598866 44.984383 44.652326
8349  1  3 0.0000 49.684023 44.576136 49.094833
8350  1  3 0.0000 47.260242 44.765958 43.943564
8351  1  3 0.0000 44.670233 44.958658 48.299127
8352  1  3 0.0000 45.491229 42.953726 43.709752
8353  1  3 0.0000 42.332057 41.217761 46.933731
8354  1  3 0.0000 46.392156 40.525936 43.561106
8355  1  3 0.0000 44.601471 39.852221 47.617158
8356  1  3 0.0000 44.538711 41.053101 45.375141
8357  1  3 0.0000 44.467359 42.446238 47.590451
8358  1  3 0.0000 46.947792 41.950560 45.704798
8359  1  3 0.0000 47.784490 42.540964 48.212435
8360  1  3 0.0000 48.213885 40.358688 47.292019
8361  1  3 0.0000 52.365276 39.272243 43.797263
8362  1  3 0.0000 51.396113 42.644265 48.353337
8363  1  3 0.0000 50.991583 40.120126 47.735265
8364  1  3 0.0000 49.703451 43.752873 43.747933
8365  1  3 0.0000 51.303250 41.654855 44.344572
8366  1  3 0.0000 49.405346 42.434415 46.004205
8367  1  3 0.0000 51.545685 43.867158 45.602408
8368  1  3 0.0000 50.222834 39.511600 45.272424
8369  1  3 0.0000 53.848141 44.169889 46.853177
8370  1  3 0.0000 55.641125 44.124406 48.884981
8371  1  3 0.0000 58.283947 44.394351 48.611699
8372  1  3 0.0000 54.926679 43.139266 43.845012
8373  1  3 0.0000 54.207289 39.531900 46.800999
8374  1  3 0.0000 57.693489 43.998511 44.269395
8375  1  3 0.0000 54.982910 41.925311 47.652362
8376  1  3 0.0000 56.223104 43.928588 46.308834
8377  1  3 0.0000 55.955201 41.010493 45.381519
8378  1  3 0.0000 56.652873 39.755802 47.672901
8379  1  3 0.0000 33.850442 46.318789 43.012958
8380  1  3 0.0000 31.031628 47.512615 43.387156
8381  1  3 0.0000 30.593530 48.347147 45.924701
8382  1  3 0.0000 31.344806 50.823224 43.545908
8383  1  3 0.0000 31.380464 50.817466 46.153570
8384  1  3 0.0000 33.668286 50.960674 44.906632
8385  1  3 0.0000 33.899665 46.164324 45.699205
8386  1  3 0.0000 31.376885 45.858678 45.375521
8387  1  3 0.0000 30.598674 49.520821 48.233530
8388  1  3 0.0000 33.875555 48.448874 44.455707
8389  1  3 0.0000 35.103164 46.919664 48.550033
8390  1  3 0.0000 33.019057 48.694377 48.738502
8391  1  3 0.0000 41.370583 45.272400 48.362942
8392  1  3 0.0000 37.304200 48.293906 49.017929
8393  1  3 0.0000 36.006909 46.861195 44.200899
8394  1  3 0.0000 36.103151 49.818863 44.535028
8395  1  3 0.0000 35.987744 48.570845 46.820805
8396  1  3 0.0000 40.180449 50.262369 46.785610
8397  1  3 0.0000 36.878138 50.921633 46.870114
8398  1  3 0.0000 37.213644 46.358622 47.176734
8399  1  3 0.0000 38.384594 48.871433 45.775823
8400  1  3 0.0000 40.233274 47.634647 47.504961
8401  1  3 0.0000 41.061429 48.433799 45.123655
8402  1  3 0.0000 46.286733 51.382597 48.316600
8403  1  3 0.0000 45.022313 45.306625 44.963654
8404  1  3 0.0000 47.169345 45.553138 48.688314
8405  1  3 0.0000 42.376895 50.046483 48.699284
8406  1  3 0.0000 45.728288 46.914551 46.832730
8407  1  3 0.0000 42.733049 47.551535 47.556586
8408  1  3 0.0000 43.739877 47.476141 44.956935
8409  1  3 0.0000 46.379186 47.484220 44.249939
8410  1  3 0.0000 43.060607 49.588796 43.585184
8411  1  3 0.0000 46.148492 50.304232 45.885906
8412  1  3 0.0000 44.807370 49.335266 47.869580
8413  1  3 0.0000 43.031275 49.704627 46.119465
8414  1  3 0.0000 47.510814 48.959179 47.602629
8415  1  3 0.0000 56.175159 46.067545 44.634404
8416  1  3 0.0000 51.801362 45.156669 47.912238
8417  1  3 0.0000 50.941159 48.375431 43.225352
8418  1  3 0.0000 52.630741 46.196996 45.743973
8419  1  3 0.0000 48.385497 49.178376 43.400043
8420  1  3 0.0000 50.103441 49.262389 48.013416
8421  1  3 0.0000 51.825789 51.034962 47.043631
8422  1  3 0.0000 49.145172 46.833646 47.763869
8423  1  3 0.0000 52.396965 48.713044 46.229324
8424  1  3 0.0000 49.175956 48.299585 45.604217
8425  1  3 0.0000 50.633253 50.155602 44.854899
8426  1  3 0.0000 53.304069 50.372934 44.583497
8427  1  3 0.0000 58.341319 45.531617 46.259778
8428  1  3 0.0000 56.191129 50.992110 48.855746
8429  1  3 0.0000 33.387742 51.531088 25.338631
8430  1  3 0.0000 59.568259 50.959060 32.221590
8431  1  3 0.0000 50.008373 51.651610 49.022487
8432  1  3 0.0000 59.569013 26.217054 38.376075
8433  1  3 0.0000 54.030460 48.899276 24.746885
8434  1  3 0.0000 56.007392 25.954461 49.266212
8435  1  3 0.0000 59.200175 37.072861 24.687989
8436  1  3 0.0000 52.417363 42.824201 24.636195

Velocities

1      1.56322504  -7.91103015  -3.69240982
2      5.69746481   3.77089952   6.62172533
3      1.01293010   2.42650940   0.60625256
4     -2.24918276   1.62978559   0.99134218
5      7.86246586   0.67807876   1.24934832
6      1.81946643  -0.75890156   0.90531099
7     -0.88732035   0.52342605  -3.38224963
8      0.49947227   0.36128084   3.74338973
9      0.03970711   3.33287376  -1.17422785
10    -5.84216622  -1.97592151  -0.96952453
11     0.87339864   1.82135591   0.66218778
12     1.07570872   0.01737444   3.21356202
13    -4.19816323  -3.08530214   4.53987003
14     0.52899447  -4.73253999  -0.01333491
15    -0.55319432  -1.27849725   4.38180413
16    -5.52178556   1.23797858  -3.96098951
17    -1.11739859  -0.69511871  -3.28831108
18     0.89502453  -1.54019641  -3.39891121
19     1.26095574  -1.12078019  -4.06073102
20     0.37588406   2.69368394  -0.65545296
21    -0.13937717   0.44851920   0.04675628
22    -4.47013520   2.05668107  -0.59129586
23    -4.21575564   2.30882225   1.19179799
24    -0.63646011   4.88562935  -3.83747655
25    -6.60106236   4.00320699   1.20813490
26     5.47424088  -0.55077735  -0.79605653
27    -3.67455497  -1.49674431   1.76604971
28     1.34929306   1.10777506   5.38853357
29    -2.30929581   1.17437027  -5.34941644
30    -2.21039022  -0.37014597   2.93886337
31     0.84601560  -2.23936275   3.79121451
32     3.38896103  -0.34112463   2.34659336
33     1.67019533  -5.82926796  -3.42271131
34    -3.86635088   3.22101713   5.34268168
35    -4.37870353  -1.91895309   2.57581339
36     2.61469980   5.50739819  -0.54158748
37    -2.26545296  -2.43441736  -1.25771845
38    -0.07929845   1.80850493  -1.68872088
39    -0.36117791   0.66422894   0.18790891
40    -0.08653386  -0.39026251   1.24272699
41     2.89459038   2.04710508  -4.35460789
42    -4.06051318   1.94724608  -1.58230941
43     5.36466640   1.39013852   0.15396434
44     0.59842713  -3.22706289  -5.52726040
45     0.63215500   1.62594356   2.61233698
46     2.59731706   0.94914422  -1.06031719
47     0.15420314   0.05455968   3.62088200
48    -2.38966714  -0.56198667   4.52612897
49     5.19689220   2.30460044  -3.59972254
50     5.69309012  -0.75653989  -0.36650386
51     4.23959415   3.32448533   0.06603267
52    -2.77605446  -0.07298488   3.56805221
53    -2.79910076  -3.64020049   5.21277860
54     3.40092663   0.25361832  12.38601605
55    -4.56809644  -1.42948484  -1.86668306
56     1.61902931   4.52853257  -2.32149949
57    -2.94930399  -1.39833266   4.28370875
58     2.47679234  -4.24806813   6.13816478
59     3.11294759  -2.81227730   1.24744471
60    -1.45016801   3.07655427   1.31891443
61    -3.93542778  -2.07545885  -0.09401881
62    -1.42611005  -0.74976123   1.52859106
63    -0.14674602   0.19298040  -2.67195121
64    -2.18439473  -0.43694391  -0.63177187
65    -3.62989514   0.40056400  -3.01859979
66    -5.61727207  -2.91822258   1.02441083
67     1.38480632   0.45778573  -3.06210270
68    -0.82279406   0.94566005   1.94019939
69    -3.36437565   1.08238554  -0.11770707
70    -1.30219853  -6.25725129   4.65567049
71    -0.63124269  -5.18970321   4.04516931
72     1.60175858  -0.99186752  -0.25286539
73     0.47060695  -2.12717382   2.44431980
74     2.79164619   5.26618505   2.46733988
75    -2.00420874  -0.03233964  -1.18568463
76     1.17989022   0.67010144  -0.17972902
77     1.46263104  -4.11943734  -2.54863090
78    -6.05106399  -2.97752802   1.58591058
79    -6.93185410   1.50598800  -2.80538634
80     2.34887509   0.21004188   5.29774353
81    -7.96114356   2.58231086  -1.04388319
82     1.95544087   3.96152869  -3.36844140
83    -2.71291312   5.07401802  -4.82200102
84     5.04511055   0.76350043   3.64418588
85    -2.16992219   0.62145869  -1.06744224
86     2.37936955  -1.08086355  -2.38524465
87    -1.13016153   2.79704029   1.29171476
88     1.64557633  -1.25837311   3.55226703
89     1.93311830   0.07491895  -1.50921309
90    -1.26095964  -0.50707544  -5.10349720
91     0.90042959   2.21645835  -0.80574247
92     0.11787512   1.08932639  -1.37137614
93     1.46829112  -4.06607742   2.21893108
94    -0.76510127   4.76118093   0.93479979
95     1.32624511  -2.61558416  -0.62579145
96     2.24217570  -3.64813149  -2.59068827
97     4.81571323   4.18545497   5.21275639
98    -0.97955900  -2.20490781  -4.07736101
99    -0.32098643   0.11716935  -1.10840106
100    4.15416621  -3.65474020  -0.58339702
101    3.69269180  -3.89744850   2.93047236
102   -5.88760201  -0.89795639  -5.88474475
103    4.12023422   2.70773605   2.41640722
104   -1.77580370   2.29760707  -4.23293676
105    1.20268655   3.93574504   3.12383250
106   -0.26035709   3.32130704  -0.95338053
107    5.95450985   2.52783852   7.37393731
108   -5.37330429   0.10737136  -1.59480856
109   -0.03441848   0.47106340   1.62677834
110    0.18143145  -1.50770038  -0.42039069
111   -0.38570324  -1.85713579  -0.69036092
112   -0.23661261   2.96402153  -8.17183796
113    0.10183085  -3.16974769  -1.30574880
114    0.50116213   5.90468290   4.72285901
115    2.37528677  -2.45023496  -1.47475038
116    0.26262009  -1.93819278  -2.21549066
117    1.30864077  -0.50078834   0.82042367
118    1.49871319  -4.31222250   2.64782117
119   -1.10671515   4.07681592  -2.96235382
120    2.20493931  -2.74824301  -2.23031803
121   -1.21092430   0.27162047  -1.18210470
122   -3.40551515  -5.42124099   0.44732475
123    5.31077079  -2.18980589   3.34821430
124   -1.09300375  -0.75813301  -2.79703263
125    5.23108882   2.62757612   2.29657766
126    4.00084498  -1.36930770  -1.29843213
127   -2.69787033  -2.59470506  -1.27961677
128   -1.22603457   2.06435130  -0.98172631
129   -3.52197581  -0.63910698   1.09082618
130   -3.09191822  -5.00521140  -0.68483222
131   -3.16581228   0.02273455  -4.28088098
132    0.30060908  -1.56164917   0.53445277
133    1.39806270   5.06015203   1.90998571
134   -1.98754656   0.10898130   0.79085500
135   -0.62758580   4.10038459  -3.80216182
136    0.38647293   7.02629343  -1.51335437
137   -3.77524768   7.62847219  -1.90365460
138    2.32550164  -1.02778808   3.97880423
139   -6.83194852   0.94844596   0.88069672
140    3.57517170  -2.92323639  -0.46869515
141   -3.11215714   0.35388579   1.58632428
142    5.17378347   0.99308786   3.13228259
143   -2.15508112   3.59422558   0.63033293
144    1.46222695  -1.82705848  -0.46979260
145    2.73801935  -2.94988994   2.66610275
146   -0.06017579  -4.96753677   4.89464620
147   -1.68347717   4.62602683  -0.41934061
148    0.99488409  -0.64164312  -4.42256203
149    2.36256140   2.25350507   0.31495258
150   -6.17678145  -2.65913993  -7.21341820
151   -0.81138046  -2.76387329  -0.91898480
152    2.77286427   0.96358856  -4.39801239
153   -0.84507358   2.57191837  -2.83464397
154   -0.76793038  -0.89905396   0.23972824
155    2.24055102  -1.02356232  -1.40022348
156   -5.74323296  -1.79475662   5.52593976
157   -2.42369746  -1.18959744  -0.24809916
158    1.87647916  -4.21979841   3.57753693
159    5.98065980   0.31680874  -1.74880873
160   -4.09120994   6.26355131   3.39308601
161   -2.62227070   0.50047546   3.15322511
162   -6.68689169   6.53821786   0.94211573
163    1.96329660  -2.10123781   4.64882950
164    1.12715245   1.27335051   1.08420355
165   -0.38507204  -1.51483275  -0.48194801
166    4.68250856   2.05803776   1.51016219
167   -2.13862556   3.34717958   3.00909880
168    4.63640218   2.75980035   4.22200645
169   -2.95018156  -1.72551177  -0.98821713
170    0.40068634  -3.29520347   0.54188839
171    1.26412352   5.40111311   2.87369659
172   -0.54098497   2.32206415  -1.02452671
173    0.66868120  -2.05942474   0.49560367
174    0.16482449  -2.90195340   3.13500119
175   -1.58970570   1.55723583  -1.79238262
176   -0.70930931   1.67028643  -2.71401344
177    4.61566913   2.60735333   2.48027826
178    1.11602203  -1.15056058  -0.90864380
179   -3.14178365   1.57844476   1.43261525
180   -0.59430264  -0.35937441   1.12331059
181   -4.00240865  -1.86653778   1.87416839
182   -0.16154920   1.69835786  -3.24958599
183    1.63032576   4.11815842   1.96901235
184    0.70264077  -1.63657538   0.41852271
185   -4.59307887   3.11053033   3.60296576
186   -6.29958243  -5.33268658  -4.25035040
187   -4.04252805   5.18210616  -2.24090685
188   -1.06864517  -0.55525573   2.40144027
189    1.44758625  -1.28905978   3.54250940
190    0.82971057   0.51980960   0.10381808
191   -2.61058378  -3.16884245   4.19456641
192   -1.63562345   1.38026384   3.78148418
193   -2.10240289   1.24603576  -1.60387708
194    3.93883880   0.24192637  -3.80437075
195   -4.56665900   3.24028045   0.07560167
196    0.73028716  -3.80999721  -2.63672356
197    2.64270124  -3.92026177   1.53660267
198   -2.51609698  -0.63167024  -0.84086464
199    1.58961688  -2.06539931   2.70512764
200    5.52276113  -2.70842173   1.72250636
201    4.51380190  -4.22625573   0.81212356
202    6.64394427  -2.43803970   1.89901347
203   -1.66529068   1.31086264   3.66394474
204   -2.15031829   8.18692213  -3.16746419
205    5.46893871   1.83856073   3.62055540
206   -5.83309032   2.71977072   2.87369887
207    0.65850346   7.21578331   2.76479387
208    3.87707298   0.18395480  -4.80503387
209   -3.65438029  -0.37363389   4.44348210
210    1.11943496   1.18613489   2.68629518
211    0.04312270   0.57428494  -2.25771852
212   -2.05724537   1.03059709   5.67954925
213    5.13488365  -1.02433785   2.51213378
214    1.02422079   3.44384284   6.25152095
215   -1.92693839  -5.00031991   5.13111056
216    0.53635240   2.44734284   2.90479793
217   -1.12089943  -1.57495052  -1.86596834
218   -1.34838840  -4.25022305  -2.53630693
219   -1.14143395  -5.19170148   1.33887026
220    4.04579291   3.64794431  -3.27859190
221    0.50576884   5.25111526  -1.93724907
222    0.73178623   1.32500671  -3.74103758
223   -2.18794495  -1.58520505   1.30247935
224   -1.33766994  -2.42692955   8.92372460
225    0.06813360  -0.56247039   5.05578982
226   -4.00540148  -0.45342811   1.43059752
227   -2.38802535  -3.27699433  -1.21345039
228   -1.31472281   1.20390288   4.12476674
229   -2.26683484  -1.49449427  -2.01400893
230    2.69673775  -1.00777032  -1.64140088
231    5.10301461  -0.73216681   3.98494801
232   -1.72846492   5.08722772  -0.23232788
233    1.98911284  -1.31206487  -3.58183425
234    1.89100713   1.84832171  -2.78041246
235    6.46698885   0.94307340  -3.85271957
236    1.20812349   3.99781680   2.70954927
237    2.72181433  -2.03777872  -1.62331437
238    5.67731352  -0.67570240  -0.96996629
239    3.79193879   1.81428463  -0.37448764
240    2.00882160   1.93234179   1.23531228
241    0.77296582  -3.45845036  -2.24989534
242   -0.26287979   1.14501703   1.23880649
243   -2.44091173   1.91038389   2.24759091
244    1.94683259  -5.79024755   4.09246224
245    3.88006569   1.84133530   0.07088224
246    0.85451495  -0.19256304   5.41549045
247    1.48272593   0.03561970  -2.57282580
248   -2.90721510   0.73569294   0.68687839
249   -1.48874892  -5.50632535   1.27486132
250   10.78118163   1.42934630  -1.22544300
251    0.67458594   3.24775506   2.37956603
252    0.95930492   2.89382395   1.70481750
253   -0.61956632  -3.93217890   6.44067490
254   -0.79654356   3.74233918   0.21077371
255    2.69689249  -2.99833116   0.76277903
256    2.34332036   2.66970581  -0.11415349
257   -1.07810685  -2.25309064  -3.46672320
258   -1.83687683  -1.15948122   3.35855848
259    3.46135475  -6.63106705   1.20255925
260   -3.07382938   1.54844039  -5.33521456
261   -0.42218368  -3.14930458  -2.22795877
262   -5.11073874  -1.37871775  -2.81491190
263    0.75676473  -2.47548849  -2.40941350
264    0.10116742  -4.79216437  -4.42196460
265   -1.74659288   1.24437363  -3.84994062
266   -0.50726452  -3.88447700   2.02958458
267   -0.12784427  -1.47702168  -1.21337522
268   -1.15276491  -2.97000596   8.87100128
269    0.65750349   0.67617989   2.52216151
270    1.06773674  -2.48159034   2.43919710
271   -1.35491680   6.61939216  -0.29634547
272   -0.79484669   1.20685257  -0.56734816
273   -3.78767841  -1.10279965   2.06963703
274   -0.07137967   3.33304215   0.47217410
275    3.01074366   3.31104727  -1.42033565
276   -2.74557599  -4.26383633   0.89826095
277    0.50099905  -1.97089194   1.98455295
278    7.08586764   3.80227020  -1.89497954
279   -0.70402877  -0.48921592  -1.49856922
280    0.30415019   0.45894788  -2.16156026
281    1.82257727  -1.39029362   2.17300124
282   -1.33429708  -3.79056693   2.79718902
283    2.36144720   2.70373206   1.43118736
284    2.20321577   7.38729918  -0.60595830
285    1.73276162  -2.90289258  -1.48213793
286   -1.81733471  -0.65999693   3.58078916
287   -2.62778461  -1.53735676   2.90612259
288    2.46629812   2.38764035  -0.70196076
289    0.11225418  -3.51157628  -1.78346077
290    2.13263635   0.21612488   5.36389831
291    0.98309309   4.25228389  -0.76929857
292   -2.48347001   2.59331184  -3.38263075
293    1.70705130  -4.36093548   0.10544833
294   -4.50300351   4.21140090   3.38271229
295   -2.68241893   1.39243556  -1.31569891
296   -1.08316085   3.80207076  -0.72013519
297    2.80582697  -1.11014575   3.25243861
298    0.56398302  -1.38999097  -1.92335729
299    3.86017556  -1.99914063  -0.10304286
300   -1.84923648   1.00414915   7.25801935
301   -3.21868225  -2.30414218   1.87957318
302   -1.91175054  -1.50551499   0.39052693
303   -2.85639304  -2.99671978   0.39238563
304    2.13225502  -5.23170769   5.59964245
305    0.71360651   6.70103608   2.01756139
306    2.86900555   1.17119453  -3.58053949
307    1.70957066  -0.43329128  -1.04000153
308   -2.24399456   2.73684614  -3.48310466
309    0.97129571   3.90743171   0.17066584
310   -3.33168940   1.62831635   2.75805422
311    2.09622607   1.18135369  -1.03408509
312   -0.94579973  -0.50225524  -1.17559972
313    1.81681911   1.37987297   3.62471036
314    6.47065896   3.21351211  -4.46773403
315   -5.55254526  -3.32206486   0.01314252
316   -1.60878209   2.52140625  -4.60044800
317   -1.70615860  -0.01348179  -7.07834375
318    0.18145653  -6.31513622  -1.01356957
319   -4.90757187  -1.11981233   0.24662240
320    3.44681518  -0.39989108   0.10664668
321   -2.73499042  -2.50228978   2.41235929
322   -2.05720552   1.98878238   3.13611560
323   -4.90799291  -1.29932292  -0.09097682
324    1.49389619  -1.80516486   4.94135144
325    0.72930896   0.15892645   1.23145085
326    1.80236691  -0.79643878  -4.86139583
327    3.38453556  -2.71219950  -4.03881142
328    0.31734790  -1.58397871   2.67037775
329    2.28454211   1.87642661  -4.35410790
330   -0.16231293   1.62229794  -1.83571531
331   -0.94746853   2.94005468  -2.68852519
332    2.10171870   1.04982298  -6.03577066
333    1.15661917   3.82820163   1.39924702
334    1.96579970   4.35597127   0.85690236
335    0.89266043   1.65214018   1.20603781
336   -3.13850677  -2.66880691  -1.02307799
337    0.57923814  -1.60290633   1.52645201
338   -0.30218412  -2.58869072  -1.05106113
339    1.53425565  -0.40415548  -1.28150115
340    6.21091345  -2.28919879  -4.57503619
341    0.61988637   1.07853537   1.25517354
342   -3.37627732  -5.23357683  -4.38605049
343    1.00940535  -0.44479814  -1.20092800
344    2.04208981  -1.58428088  -0.13862784
345    2.29997186  -3.16128584  -1.07019158
346   -3.87035320   0.89172724  -0.99353707
347   -0.49108140   5.01110549   3.18917489
348    1.39808938   2.13595036   4.99641678
349   -6.60937430   1.83507500   0.70500302
350    3.90345977   0.10305566   4.69156004
351    6.73697723   6.32659274   2.75437735
352    4.90168010   1.72092453   1.15997022
353    6.18520265  -5.37948624  -0.24207367
354   -4.58874527  -5.27630045   2.39092407
355    3.84353553   1.32742135  -2.46156070
356    1.67372999  -0.50506421  -3.46275042
357   -0.31769109  -0.25871676  -1.94392584
358    2.52837470   1.73032496   2.00305821
359   -1.71408503  -1.99123292  -2.98522018
360   -3.51842351   3.78804649   0.54261480
361   -0.52292200  -0.23840867  -5.45103058
362   -2.26374373   0.55842093   2.17787937
363    0.55984777  -0.93109844  -1.27145220
364   -3.70889826  -3.97649481   0.60653494
365   -1.55945940   4.93329819  -0.96283787
366   -1.78477891  -6.78093366  -4.43099888
367    5.81938990  -0.25637952   4.03872745
368    0.69015986  -2.11012717  -6.74324100
369   -3.36154351  -4.44696388  -1.56147497
370   -2.10755788  -0.71245184   3.31247774
371   -4.51075978  -4.19429200  -2.03648107
372    2.27375092  -0.32024417   1.93128140
373   -2.45641714   5.78133669  -2.58842479
374   -3.88697451  -4.68760806  -0.24006915
375   -3.69411643   1.65103798   3.57127450
376   -4.02554080  -2.78638581   2.17747999
377    1.92052046   3.28231542  -2.35382297
378   -2.29030764   2.27886871  -2.06690137
379    3.50311639   3.26567463   1.66399350
380    2.89105150   1.95159585   0.91065944
381    0.17063038   1.48030244  -1.28279060
382   -0.13748196   2.02665299  -1.12277061
383   -3.29110598   0.40818617   3.44671693
384    0.52842811   4.30950582   4.24378605
385    1.60317273   0.03783992   0.52484189
386   -7.83088624   1.72574394   4.84060698
387    3.85349611  -1.66035352  -1.30877472
388   -0.91829270  -4.85393333   0.56198014
389    6.19424544  -4.30349482   3.40577668
390    3.43909119   2.09699222   2.55539702
391    0.02607983   0.24867167  -1.55935703
392    2.63277801  -2.11775609  -1.41676103
393    1.98219191   1.15029722  -3.22524368
394    1.05826925  -1.63718188   2.46227805
395    0.46609273  -2.22327306   2.08614487
396    0.11404557   1.50958002  -0.68135762
397    3.09071867   3.13037452  -0.24632482
398    3.51959320  -0.68241650   2.26225622
399    5.47792376   0.58958712   2.66685648
400    4.37217108  -2.83059457  -3.45929063
401   -5.12940429   1.43116994   3.57472422
402    5.01034753  -0.48534393   1.64230859
403   -0.14945573  -7.92170434   2.37033308
404   -3.98930299   6.52220982   2.97977385
405   -0.75123937   2.77411275   2.91731693
406   -0.92609238   1.63443019   0.83511534
407   -3.75570643  -4.44303401   1.07173759
408    4.17221030  -5.00501848  -4.06712248
409    0.53750809  -2.52307776  -0.78731039
410    0.56731814  -0.58832314   1.07521741
411    4.08474036  -1.22815802  -6.95547008
412   -1.10016982   1.78139501  -0.56342430
413    1.65442319  -0.22983201   3.38971126
414   -0.96928655  -2.01419306   9.36882438
415   -2.91512488  -1.94640132  -1.13546342
416   -2.81720861  -2.54371208   7.20407239
417   -3.95832665  -1.92965629  -0.22662681
418   -3.13188464   3.73856570   1.01831703
419   -5.63414107   4.45177928  -0.52005753
420    0.96739835  -1.02941964  -0.26062287
421    5.54598495   5.25228624  -0.66980933
422   -3.02867753   3.43575091   4.95462867
423   -0.99238451  -1.77249487  -7.22970075
424    5.93909626  -1.04507882   0.68163505
425   -3.16771522  -1.41449860   2.21854811
426   -3.57407695  -0.66034203   2.12785142
427   -0.76929191  -2.11111819  -1.90188531
428   -0.50167321   2.40837581   2.79607341
429    0.81847348  -1.81414629  -5.36714516
430   -2.73306082  -1.48833777  -1.09025355
431   -1.38441687  -1.45997342  -4.58081357
432   -3.72347484  -2.22735435   1.96201559
433    3.78805097  -0.07592238  -5.67678208
434    0.40824975  -4.22125985   1.57504182
435   -1.26867697   2.79338382  -0.65355298
436    0.73757753   0.03335176   4.12184043
437   -0.60284759   0.48796377  -3.51195003
438    2.35625539   0.65806009  -4.74613479
439   -8.04544644  -1.99966616   1.61098097
440   -0.58252375  -1.32326738  -0.07269548
441   -0.10574151  -3.36211997  -2.42767611
442   -2.67561304  -6.61692689   4.99515162
443    2.66794037   0.86623026  -0.62520617
444    2.12553351  -3.75647082   0.91552227
445   -2.23836115  -4.60935687  -2.57264172
446   -0.44420258   2.14273523  -2.21160217
447    0.25576591  -1.91391480  -4.59174085
448    2.34945307  -0.24860517  -0.87022410
449   -2.29802077   1.67153455   0.32593572
450    0.20797860  -1.63406951  -0.74432003
451   -2.66856085  -1.37095828   2.98403417
452   -0.78130949   1.73687277   1.26083512
453   -1.65066488  -1.11140743  -1.61057415
454    5.23811508  -2.94005569   1.85592335
455   -0.20078736  -4.21244183   2.17591023
456   -6.73431866   1.62100276   2.93011322
457    2.71413063   3.72720985   2.29187160
458    0.02714164  -3.86805534  -1.11451275
459   -2.85728219  -1.50934155   3.08645991
460   -0.22405854  -2.26520398   4.27037695
461   -3.64477296   2.32794177   2.87469806
462    2.06066520   0.02430386  -2.64416968
463    4.17818958   1.41506639  -5.10103712
464    2.00571646  -3.51268871  -0.43559120
465   -0.46509894  -0.83288683  -0.80796073
466    3.10695656   0.74268757   2.01465969
467   -0.24273312   0.34434998   2.10516987
468   -0.32505040  -0.65545132   4.30142050
469   -5.38294253  -0.12106403   4.21467231
470    2.09793860   2.73883197  -0.21380473
471    1.47007667   2.61817407  -1.30442392
472   -1.77809778  -1.11304070  -2.68754461
473   -3.66903547  -0.74920373   5.15327161
474   -2.74781235   0.47998361  -0.64502601
475   -2.57846680  -0.17970417  -1.69562595
476   -8.65867034   2.49512634  -0.31459846
477    0.02509254   5.53484705   1.94193599
478   -4.10026103   0.10367807   0.35255697
479    2.30404853   0.22966018   1.36787388
480    3.45337103  -1.95873525  -2.65942276
481   -5.35459202  -4.95479699   0.73884008
482    1.54846753  -1.47734154   0.70831050
483    1.83036970   0.82523739   0.92536831
484    0.84894617 -10.56827007  -1.73327498
485    0.32539748   1.61315216  -1.67751581
486   -2.38362675   1.05064314  -1.15585018
487   -4.64761191   3.31978045   1.94125149
488    1.32058885  -3.49628759  -3.56093273
489    2.04148660  -5.35716576   0.13885242
490    1.96263316   5.51330254  -1.97154957
491   -1.35328480  -2.20884179  -2.15297805
492   -0.88612377  -2.91408720   0.91005355
493   -2.55048946  -3.50558869   2.66063979
494    3.41864068   0.38852208   1.64275304
495   -4.86223642  -1.71155920  -0.94911319
496    1.39288868   1.42668276   3.62731254
497   -2.17166410   2.16165557  -3.15858460
498   -0.43499275  -1.22217959  -2.64540830
499    4.65346090  -0.08727411   2.69827601
500   -0.02975192  -0.82807862  -2.02849940
501   -0.51431047  -0.44282491  -0.53913807
502   -2.52303350   2.46397514  -5.00877460
503   -2.13089602  -0.37442001   2.64934064
504   -0.22906828  -1.68929694  -1.78421781
505    0.59518119  -2.38435442   2.37883786
506    2.62246518   4.14180785  -5.22089835
507   -3.88178909  -0.11197850   0.91476707
508    1.60903731   1.61537777   1.51732220
509   -2.33312128   0.64887673   0.27580442
510   -2.09996114  -0.04416216   1.58653376
511   -2.44187286   0.08780868   3.62903520
512    0.27316182   0.20802347   1.35005701
513    2.73257732   1.89200400   0.59868733
514   -1.35241881   0.21560239  -1.81782814
515   -0.56927860   0.23240263   0.31723552
516    1.65219389   3.71691464   3.92814148
517    2.26835335  -5.84456429   1.08137435
518    2.32224896  -1.55631836  -0.05207245
519    3.33036961  -3.48572591   4.41148620
520    4.74202341   1.30671473   3.44804259
521   -3.69232294  -3.15465873   0.60352838
522   -3.06764707   4.16062399   2.87548260
523    0.83800546  -4.20550325  -1.60371466
524    0.25994046  -5.69647537  -3.10165212
525    0.18160863  -0.62783974  -0.76473127
526    1.96969809   3.34583933  -0.08285699
527    1.74264113   0.48908549  -1.92465487
528   -3.27221281   0.08500206   1.07522482
529   -3.12457304  -0.46044191   3.53982426
530   -5.52013840  -1.70904415  -3.88677461
531   -0.12819962   2.01146161  -3.46505454
532   -0.11901530   1.25107609   1.08827287
533   -1.36351080  -4.12726685  -2.49670841
534   -7.68313325   0.79681071  -0.33174419
535    0.61748507  -1.44815682   1.64630811
536   -0.22457842   2.91729563  -1.33449892
537   -0.50860779   3.41195899   8.93674563
538    2.56378851   3.00486983  -5.63397620
539    0.54532398  -2.60267073   1.56728111
540   -1.46644836  -0.22822749   0.96579381
541   -6.15502927  -2.57720960  -2.14021336
542   -0.63793632   0.21195492  -8.62403200
543    2.01352996   0.52672813   4.17755000
544   -2.09697839   0.30544341  -0.69898135
545    1.78535538   0.91113449   0.14953477
546   -1.24008235   5.51432401  -3.60359749
547    1.77912158  -3.79032214  -1.77517329
548    0.36716534  -0.67763345  -3.15608788
549   -0.18307940   6.64192820   0.00515686
550    2.20445795   2.80452282   2.38466718
551   -1.71048499  -2.57416929  -4.45607509
552    4.26425745   0.23050539  -2.49806664
553    1.76491671   4.66167756  -5.48740432
554   -1.84865126   0.20270292   3.74568338
555   -4.54786730  -3.34126662   1.12093908
556   -3.89183717  -4.39275621  -4.11271170
557   -2.25802628  -0.99575938   1.52166477
558    1.08829162  -2.11508693  -0.49706520
559    2.57438151  -0.72039642  -2.22989749
560   -0.59558703   4.77552084   1.75038780
561    1.84737265  -0.92568505  -6.13575600
562    2.92111628  -2.08004061  -5.25428283
563   -2.32439705   4.66197361   0.77115121
564   -1.47634577  -0.96253395   2.69353556
565   -4.32827481   4.88129845  -0.51117987
566   -0.53244481   1.58141814  -2.29852897
567    7.12419579   0.75799438  -6.15455209
568    0.04815193   3.82584589  -3.03245296
569    6.95886392   1.41966355  -3.29566187
570    1.57688586   2.61989241   0.86688700
571    2.21664493   4.77812002   2.24333183
572   -1.79037672  -1.88582768  -1.40673443
573   -3.15144293  -1.49776708  -2.87814556
574   -3.88958851   2.77852656  -2.97980192
575   -0.32927247   4.05579845  -4.55397709
576    3.84947445   0.29410985  -2.26453602
577   -1.08153280  -0.22373034   3.32421594
578   -1.85123161   4.85593196   7.97601319
579   -5.93361055   6.51383726   3.13025541
580    2.29891535   7.99365516  -4.32321591
581    1.45725540  -4.28966567  -4.52018666
582    2.01100698  -5.05660068  -2.69989431
583    5.88771692   2.50454590   1.43643703
584    0.83264693  -2.00890860  -0.62202850
585    1.93506881   3.38780532   5.57517180
586    1.87586187  -1.64996959   1.46733512
587    2.79794733   0.31301776   4.00911987
588    3.95703605  -4.35127181   2.24918145
589    1.46120393   1.57537503  -5.16755326
590   -3.23821653  -2.17346818  -1.01003272
591   -3.08712739   1.92122163   2.34871321
592    1.28119987   1.15809562  -0.79507755
593   -3.55146005  -1.51844264   1.54671762
594   -4.14811620   9.38376392   2.93843940
595    0.56793964  -3.50559310  -0.40600644
596   -2.51000561   0.17506149  -0.98701394
597    0.32959656  -2.09284765   1.09766109
598    0.89960982  -0.98026720  -1.09050484
599   -1.18423328  -0.36633883   2.29427413
600   -0.65218894  -0.66976989   0.74848131
601   -1.45541419   1.01829672   0.27743391
602   -3.42582979  -2.32453958  -1.18001489
603   -4.05051758  -1.60551937  -4.73159824
604    0.92686205   2.53049742   0.12166251
605   -3.24527012  -3.90038536  -2.51356547
606   -3.88994254  -1.66136996   4.31195262
607    2.86483276   2.90999427  -1.81174888
608    3.22335573   0.69475368  -2.02388177
609    3.73024494  -5.15552494  -3.85846147
610    2.12835454   1.96958074  -4.59245081
611   -3.80895077  -0.36469890  -0.87548030
612   -0.84426232   2.23655278  -0.46828850
613   -1.44326672   5.30715842   0.39156851
614   -3.19446086  -4.71101720   2.33741297
615    0.15419867   3.72025942  -1.27052760
616   -5.48954328  -0.70350754  -5.51657971
617   -3.41147208   0.76394494  -1.27162338
618   -7.49966972   0.93436470   3.99480808
619    1.60904229   0.49297493   1.92367771
620    4.80972555   0.00875529   3.37342580
621   -4.81479982   2.35662958   0.70921738
622    2.56907582  -0.76140614  -4.01469984
623   -2.58294052   2.30894265   1.33247098
624   -4.63495087   3.06936269   1.62125479
625    2.57598706   1.18473311   2.14508229
626    0.39071406  -0.39989486   3.10318272
627    3.09889083   3.43608773  -0.03685392
628   -4.70391881   0.99304315   4.61924141
629    0.19057164  -1.71170396  -5.85188730
630   -2.92359337   1.31841406   2.01478022
631   -1.27513334   0.04640154  -5.39614857
632   -2.86970470  -1.34484919   2.72330735
633   -0.67180616  -1.07306244   4.87574383
634    4.23943612  -5.45241099   0.33742643
635   -0.51703273   4.94937715   0.71304661
636   -2.89708158  -2.54423836  -4.55936682
637    0.09730438   0.59855232  -0.76219494
638    3.97330599   1.17990556   5.26081591
639    1.35139311  -0.82833603   2.51362244
640    1.38903943   3.85399527  -3.99062895
641   -6.22894622   0.63455204  -2.78880589
642    0.13358203   5.66328217   0.44434710
643    7.71153561  -3.20970227  -2.96365808
644   -1.77159668  -2.57422314  -1.58504249
645    4.87291828   2.23559858  -4.22433091
646   -7.18140938  -3.49155571  -2.78264441
647    4.37317066   4.68309273   2.16468386
648    4.14673403  -1.32431171  -4.90095974
649    1.19236894   0.21277113   0.66823631
650    2.11064358   0.18121436  -1.95479141
651    2.64759278   2.90851019  -2.25123769
652   -0.41680740  -2.62833927   0.95411112
653   -2.86328482   1.70729148  -0.64259950
654   -0.82513807  -1.73915745  -1.24759975
655    3.97834733  -0.54154512   2.71670021
656   -0.80142767  -0.59740185   4.78249195
657   -5.04065376  -0.60807746   3.39415259
658   -0.06948258   5.78715548   0.39853832
659    1.96370424  -1.81912862  -2.84718917
660    1.93647471   6.24264599  -4.96053054
661    3.18432751   3.12137053  -2.58315602
662   -1.56105425   0.15021943  -1.58959574
663    0.43827121   2.91459185   3.30801320
664    6.25662648  -0.90744455  -4.29866318
665   -5.58472891  -2.61463648   1.28958632
666    5.32348160  -2.72569285  -1.37688714
667   -2.83978728   1.07392291   1.04560184
668   -0.39791521   1.00287864   0.51370480
669    4.47276312  -0.91958256  -4.56063592
670    0.19169022  -1.52445869   1.43090911
671   -0.85491887   3.65093423  -4.70905134
672   -5.58311575   3.44549131  -5.86699137
673    1.73232192  -3.33961757   4.00288654
674   -3.40024196   0.74926104  -4.03073741
675   -0.81690199  -0.85425592  -4.74361616
676   -6.28362774  -0.95978477   1.34242200
677   -4.22153588   3.50044833  -1.09331540
678   -3.13173238   4.44137046   2.65504297
679   -1.46835166  -0.05674240   0.49693936
680    3.28620927  -1.22045059   0.49898016
681    0.82053159   4.02495378   0.71136468
682    4.34899754   0.07426340   3.52064919
683   -2.24073718  -1.77054081   0.97766069
684   -2.31518164   0.43028403  -2.19227315
685    1.94678402  -2.09477629  -5.65171631
686   -0.27420243   4.50889837   2.99402441
687   -0.32581919  -2.63855384  -3.89283652
688    2.43957415   4.57393419   5.17554033
689    2.47324690  -2.97107350   1.01575416
690   -4.97130929   1.91183965  -3.70388258
691    2.45560055  -3.60576577  -2.95631010
692    1.36551743  -3.84953634  -2.80270631
693   -0.20188860  -0.03353895   0.52295725
694    4.25171059   0.24845977  -2.98455358
695   -2.60802310   2.36038728   8.40912074
696   -2.04993207  -0.47769894   1.10749005
697    4.80437935  -5.81918571  -1.28890115
698   -1.27126420  -6.43495539   0.03016678
699   -3.90739164   0.22465487  -7.11147546
700   -0.70496402   2.27552784   2.98729550
701    4.37525775   1.89563598  -0.93847995
702   -4.28895913   1.19684114  -0.94407396
703   -2.30979262   2.14653124   1.49105378
704    2.05392679   0.02102069  -1.01004855
705   -0.65893921   3.06747269   1.43471125
706   -1.46996272  -0.85181172  -0.70072128
707    2.06463747  -0.06587618  -0.06174637
708   -3.77783097  -2.18292001   0.57119324
709   -3.40068605   3.21992486  -2.43158168
710   -2.20625180  -1.01437696  -3.67383983
711    1.82589018  -6.38235161  -5.24954540
712   -5.39155919  -0.00940933  -0.88928012
713    3.28208742  -3.78613215   1.35297155
714    0.79840235   0.18536146   6.67844392
715    3.50460311   0.67272447   1.27106792
716   -0.08287777  -4.62585058  -2.60985685
717   -3.56880303   2.29558534  -1.44212360
718    2.46808252  -2.16553288  -1.43680421
719   -1.23376699   5.76591941  -2.70135833
720   -0.33469753   3.02853911  -2.47391383
721    1.65816631  -4.18210245   1.55848952
722    2.26035959  -2.33936474  -0.47338258
723   -4.16327285  -5.26481768  -1.39346580
724   -3.66158177  -2.26735667   2.74564549
725    3.70231609   4.98087150   1.36415598
726   -0.06656507  -0.81112919  -3.30031066
727    0.20126110  -6.51055458  -0.27864725
728   -0.34738353   0.55657979   4.75760237
729    2.10535988   1.48406630   3.52071964
730   -3.87488098  -2.48928807  -2.24900695
731   -5.59747038   4.34061090   1.24269395
732    3.18604587  -4.45065256  -3.70646953
733   -3.09586439   1.76869853   2.22975827
734    5.51007914   1.97061719   4.16458697
735   -1.99335348   1.28913581  -1.75923634
736   -0.51888543   5.14522307   2.59390310
737    1.52340547   0.85744623  -3.76943813
738    3.74483187   3.32197236  -2.26275576
739    4.13891456   2.40559373  -1.81685623
740   -0.44147286  -2.86039067   2.18302977
741    1.50047344  -7.48683349   0.23703061
742   -0.41529404  -5.45440937   4.19585867
743   -2.03881945  -0.09115154  -3.05960157
744   -2.07191576   5.38756133   0.06237928
745    1.05927904  -4.51181774   2.13663765
746    1.59579951  -0.16393369   3.50586741
747    2.04828560   1.53761303   3.72396459
748   -2.14592291  -1.42887398  -0.64965196
749    0.95659229   0.18849711  -6.06780128
750    3.62905685  -2.80775241  -3.14975203
751   -1.34090209   2.56429405   3.48066307
752   -2.34456468  -1.86562972   2.17078926
753   -2.63885424  -1.24569292  -3.25973849
754   -1.53248333   5.88842517  -0.77400670
755   -2.05902225  -1.86749360  -3.94133293
756    0.93166749  -4.67156227   1.21464750
757    0.79801253  -2.83849581  -0.29096107
758    3.77113154  -4.20668101   2.36435676
759    3.75604764  -2.33688876   0.10843663
760   -2.61270358   3.30366366   0.31683942
761    0.54862553  -1.30014164  -2.02454627
762   -2.65490655  -1.51870579  -3.44696606
763    3.42088148   3.23942699  -0.46648368
764   -0.78640164  -1.85197146   1.76502729
765    0.69302095   4.69140361   4.73301901
766    3.60060739  -2.71802808   1.97525935
767    1.74263828  -2.61304351  -2.05625317
768    0.36514245   3.61999033  -2.35762571
769    0.99866305  -2.27694489   0.51717284
770   -7.60929526  -1.32706827   3.03268254
771    5.10237945  -4.25310043   0.29607151
772   -1.57378502  -0.19688958  -2.36419204
773    0.69244989  -2.78697538  -2.07949588
774   -2.55692228   0.22873559   2.63063713
775   -0.81932985  -0.04262459   1.89425825
776   -1.80309363  -1.82691581   4.07945630
777    0.61209134  -2.74384060   3.94677565
778   -3.18470958   0.26418961   2.83525169
779    2.79770553  -0.64883781   1.09757770
780    0.68966858   3.48618878  -0.11431550
781    2.44433560   5.46712345   1.13404016
782   -5.46682423  -0.59154596  -4.29079412
783    2.08866831  -2.83203881  -1.44849848
784   -2.22456439  -5.37957601  -2.90269895
785    3.64964440  -4.80395495   2.96661248
786   -1.19237813   1.29160832  -0.25205410
787   -0.54487735  -0.16839384  -2.05725101
788    1.16971498  -0.86401824   1.45340062
789    4.04670667  -2.56557946  -2.93507437
790   -0.10264061   4.73738009  -0.71708989
791   -1.51287646   0.53132399  -3.93825363
792    2.73300851  -5.14322068  -2.82806605
793   -0.93036300  -0.04988692  -0.42501098
794    3.60501966   3.18386085   0.18241180
795    3.27769943   0.52788973  -3.50398691
796   -6.81323198   1.52088321   3.64013462
797   -5.58594705   3.70777522   4.35552487
798    5.34773899   4.19915536  -0.33868075
799    4.57586892   1.96720967   4.00441936
800    5.64524551  -0.64523028   2.29141756
801    0.63100139   0.01055841  -0.18557217
802   -1.89208829   2.64212425   3.66920493
803    1.50451261  -2.79498449   0.50823568
804   -3.89520956   4.86044010  -1.58898728
805   -0.09578794   1.21119887  -0.97227496
806    1.75161512  -2.71806120  -1.72615913
807   -4.60666926   2.38923287  -0.78844751
808   -0.25878416  -4.10026964   1.77338014
809   -0.48504341   6.10615450  -0.60012189
810    1.31694502  -0.61422726   3.33803493
811    4.45053783  -2.31095470  -1.10682834
812    0.59710926  -1.94190715  -3.71923351
813    1.23015272  -0.59630874  -2.65839467
814   -3.17846696  -1.70852546  -1.40156520
815   -1.65588363  -2.90991227   0.46619155
816   -2.41428745   0.34194823   1.30503004
817   -3.84260032  -5.78204572   0.70625721
818    2.10580425   4.16341020   2.43505352
819    0.24736887  -8.45933834   2.21501164
820    0.71235356   1.29480949  -2.74521922
821    3.60303768  -1.62012605  -0.27247032
822    2.85400225   0.29883821  -6.90208369
823   -3.16404218  -0.50272909   2.00519629
824   -1.03828074  -4.35047824  -5.24765995
825   -3.09067694   3.44427932  -4.93183755
826   -3.17868761  -1.23871568  -1.89409444
827    4.54111332  -3.42121430  -0.91323402
828   -3.97513726   3.54694071   4.95363131
829    1.11577368   1.75956306  -1.13221340
830   -1.97129099  -4.68261787  -1.95978156
831   -4.45389801  -0.08791210   1.22103858
832   -1.58340801   0.49770538   5.68542988
833    1.81998397   0.17434898  -4.52519478
834   -4.02645706   5.88210750   3.07136690
835    0.65022149   0.79524648  -1.70322569
836    1.08964644  -5.11077490  -6.27401452
837    2.95996159  -1.33304613   4.38603252
838   -1.52851513  -5.08105524   2.42471211
839    6.35240069   4.58762081   3.70232669
840    2.66424719  -3.45524145   5.18467965
841   -5.27973821  -3.44331467   0.45881210
842    1.10870513  -3.25872149  -1.33567702
843    3.78161391  -1.61208865  -2.63572288
844   -1.05323653   1.50369254   0.11298794
845    2.97910790  -1.94543998  -2.98098994
846   -0.01816551   6.83367352   4.84697482
847   -0.43406210  -0.96618900   2.41941713
848   -2.46634668  -2.21869540  -0.06424156
849   -4.60935921   2.34996584  -1.43187268
850    4.71040845  -0.05695471  -0.08714539
851    6.50907331  -1.93571408   1.24726128
852    0.01247939   0.18363425   2.88560269
853   -0.19736254  -3.72012503  -3.54801023
854    4.24886706  -0.79119037  -1.92338545
855   -1.58931294  -0.65915582   2.12681663
856   -3.32810503  -1.64158602  -2.73469712
857   -6.41410181   1.15152031   0.15930519
858   -5.05340748   3.42798156  -1.21744869
859   -1.29713848  -1.73418537   7.56045617
860   -1.05208705   2.30270253   0.86746814
861    1.68757580   1.61172749   0.37279672
862   -5.05819664   2.61255566  -2.24676684
863   -0.12507637   2.05951228  -0.22527777
864   -0.41082189   1.43482375  -0.87811466
865   -1.27956709   1.90148344   5.05616447
866    2.41481448   1.02322909   1.40527871
867    0.97186619   3.13323638   1.59370509
868    2.96777262  -1.36637512   5.65538075
869    3.52379300   2.00764627  -0.09708758
870   -3.99591715   5.53839026   2.52764291
871    1.71173845  -2.61711877   2.20967865
872   -4.83179097   3.08464399  -2.75716882
873   -2.14036945   1.30725949   0.35113938
874   -1.81936946  -5.49343405   3.54349622
875   -2.94495404  -3.84683212  -3.09109318
876   -7.00436589  -0.85007716  -5.06108714
877    1.57863909  -1.38121468   0.84863855
878    0.66240782   4.25698575  -3.78650110
879    3.19865311   1.47366635   0.36736555
880   -0.54794291  -0.67385542   2.67551218
881    2.95935944  -3.93975998  -1.08329705
882   -0.24627037   3.43299865   2.04418047
883    0.89578177  -1.06083885  -0.33671060
884   -0.44174683  -5.28712264  -2.68281983
885   -1.03154109  -3.72543276  -8.24951900
886   -4.73518621  -5.91881261   2.03464323
887   -5.85330317  -0.68020405  -0.26436040
888    0.54960440  -0.11284235   0.03583007
889   -1.06048098   3.11143073  -3.62112662
890   -0.91068365  -0.93727801  -3.51163054
891   -0.75161880  -0.18317093   1.76227549
892   -1.85524464  -5.93287345  -7.37644510
893    2.03631020   1.06129980   0.50902324
894   -1.96738705   3.66030917  -4.14761271
895   -5.46052643   0.78528066  -1.12728624
896    3.11276219   1.19590988  -1.72822730
897    2.88616433  -0.73420702   0.81124159
898   -9.44423854   0.18319229  -3.59153735
899    2.97895888   0.28401498  -5.86256005
900   -1.95386348   3.77107831  -2.15703611
901    1.86995009  -2.60107914   0.97912443
902   -2.60301983   2.76410682   1.76600624
903    0.14834265  -0.53236372   1.72822160
904   -1.70969308  -2.22976986  -2.82486895
905   -0.41240516  -4.56115481   2.29802978
906    1.33003920   1.42508935   0.37004098
907   -5.16123317  -0.39822877   0.96631962
908    1.61697363  -3.24314837   0.72138909
909   -3.38869120  -6.15441987  -2.24932439
910   -2.61390343   3.62911803   0.84845175
911    2.24083525  -0.44942918   5.36061659
912   -6.49821336   0.93702425   0.20877380
913   -0.09989559   2.17393227   2.46425283
914    2.52054395   1.84785948   1.13275503
915    0.73483513   2.75538956   2.48649056
916    0.03521447  -5.58378758   4.04922203
917    2.13458372  -9.30610365   0.95854745
918   -1.32404658   0.98964627  -0.16576558
919    2.51367923  -4.38390532  -0.55040974
920   -1.09986083  -2.32041591  -3.88139148
921   -1.60008172   0.63185819  -5.54191745
922   -0.47590130   3.08823178  -1.29340310
923    0.52989325   0.17252810  -0.87455404
924   -2.07499421   1.36149034  -4.30600182
925   -3.14976370   2.99885093   1.14201735
926   -3.36525546   3.44663175   1.64975374
927   -2.49535192   1.26678717  -1.82617807
928   -1.60911087  -0.93619180  -5.99285696
929   -3.01958561  -0.52938607   2.86495247
930   -3.87054760  -9.11299734   3.63296616
931    0.32796524  -0.44824119  -2.33457596
932    2.64938037  -1.24605086  -1.17814701
933    0.56142887   0.89583457  -6.18084840
934    0.45441435  -0.01690469  -1.67333189
935   -0.97801411   1.55452754  -3.37763845
936   -3.28008600  -2.14870553   2.13036484
937    2.20796301   1.30253619   3.45007390
938    3.27760876  -1.60895887  -5.81582589
939    0.36974218  -2.77392001  -2.42114249
940   -1.38794951  -1.66494404   0.90622961
941   -5.34833557  -1.12251461  -3.30840513
942   -1.18283179  -2.69678459   3.10885552
943    0.77754535  -1.66580292   4.65864708
944   -2.77986295  -4.15650058   1.44157727
945   -2.65102844   5.10343956   3.60052048
946   -2.84163303  -0.04454268   2.85744945
947   -5.79093916  -1.38639122  -2.93148426
948    6.77122089  -1.16255888  -1.44872015
949    1.29210550  -0.48516298  -3.47641538
950    1.27453976  -1.29311307  -0.69641336
951    4.39512198   3.75731913   1.91694993
952  -10.34494149  -4.76021911  -3.11081076
953   -1.30320464  -1.57954966  -2.19849274
954    1.75846009   2.43968283  -1.08585098
955   -5.92947244   1.14385612   0.98807851
956   -0.89684827  -0.26950001   1.29518599
957   -2.62533576   7.64863695  -1.95538370
958   -0.58851124   0.37617150   2.58567274
959   -2.06597748  -0.65467855   0.05002006
960    0.73754692   2.26260242   5.35383489
961    0.79597347  -3.12565717  -7.48830979
962   -1.74799865  -5.03144998   1.46186964
963   -1.49982689   3.18359636  -4.00909810
964   -2.04735563  -2.05307144  -7.69022723
965    1.44336319   0.09896597   0.70294949
966   -1.60927644  -0.44435806  -2.21030252
967   -1.05533570  -0.14362126  -1.82780085
968    2.93543329  -1.29185671  -2.78857857
969    2.40929028   7.78626295  -0.28949473
970   -4.06239652   3.83313723  -4.66082296
971   -3.07153401   2.50450692  -4.35145081
972    0.93583307   3.02165409   3.33209780
973    3.66558859  -2.19019719  -3.00603169
974    0.87734157  -1.37904093   2.36417302
975    2.49590247   1.93651711  -0.99035617
976   -5.72737382   4.18335928  -1.59886479
977    0.96954410   4.67501933  -0.15054062
978   -4.29532575  -1.96378534   3.13015828
979    0.98111920  -0.03429915  -0.54471840
980    5.95885389  -3.72128518   1.69629338
981    0.47405077  -1.50132120  -2.52556732
982   -2.13315231   0.06962673  -2.16105609
983   -2.67069241   4.07046057   1.08827710
984    2.16345173   0.10251649  -0.81695105
985   -2.24413447   1.29935693   2.76809755
986   -0.90991632   1.58868909  -1.08497532
987   -1.23058972  -4.04337009  -2.72700900
988    1.08867375   0.02239636  -1.28389393
989   -1.18431618   7.25899914   6.74829286
990    2.14652435  -3.36114174   2.31492015
991   -0.58169099  -3.05210497   4.09119972
992    2.74071362   0.42130832 -10.47515925
993    1.55176504  -0.51997384   1.23230142
994   -2.82692244  -0.48425713  -4.38963478
995   -3.02750991   0.88608614   3.22608978
996   -0.91034956   1.50959246   0.15218419
997    4.09569415  -1.19082999   0.97804227
998    1.02593757  -1.06820938   0.45499286
999   -3.05880000  -0.60612076  -1.55383768
1000   4.27265410  -2.75737442   0.75671691
1001   2.65594309   3.00218267   4.65345294
1002  -2.44319792   7.09844815   1.63227421
1003  -4.24269878  -3.06406941   4.12697001
1004   0.04837439   1.22428957   1.18017733
1005  -5.28412557  -3.28751210   2.64445440
1006   6.97805227  -0.97742593  -0.72393024
1007   1.32729268  -3.50070789   0.75818777
1008  -2.49217661   4.47108484  -0.35215153
1009  -0.12007715  -1.65155705   0.15246586
1010   1.37939461  -1.11404688  -3.02326400
1011   1.07020744   0.32719639   0.19963785
1012  -2.48232910   3.04930678  -0.14234527
1013  -1.22361216   5.16160150  -3.15608421
1014  -1.97162427  -0.98935725  -0.94986553
1015   1.61910744  -1.66071971   4.29890985
1016   6.43992807   0.89630948  -2.96948560
1017   0.21550547  -3.51624900   2.39774480
1018   0.58389807  -1.86364582  -1.96318506
1019   1.59095770  -2.32280220  -1.95170982
1020   1.34870526  -3.23629343  -1.20877146
1021   1.25639356  -1.24207465   5.62860569
1022  -3.93565898   0.80811168  -0.95781674
1023  -0.44683251   0.67834527  -1.36766594
1024  -6.43448939   1.52870524  -0.03142403
1025  -3.98984117   5.10495955  -4.86826933
1026  -0.53256818  -0.53114218   0.59600857
1027   2.32272895  -4.50245622  -4.60893061
1028  -1.75624635  -0.96677577  -3.67878557
1029   3.01978071   2.14292578  -0.10615391
1030   0.25673554  -0.94291349  -0.65242603
1031  -0.85620639   2.80160715   1.06947596
1032  -0.44200859  -1.20233432   0.98305454
1033   3.07488750  -0.61833144  -2.90284062
1034   1.43354118  -1.23388276  -0.57773769
1035  -0.39391222  -5.09826225   1.11849356
1036  -0.97434649   1.86229042  -1.21212458
1037   0.76446022  -2.28357347  -2.17977167
1038   6.19065622  -0.55210080   2.22692013
1039  -2.67157801  -1.14982281  -2.93493988
1040  -1.15307006  -2.75742594   3.45838613
1041   0.67637924  -5.60636341   0.45841952
1042   1.57137041  -2.40487171  -3.54060899
1043   2.43003296  -3.56500966  -1.75890720
1044   1.10271019  -2.48015294   2.09840576
1045  -3.54684290  -0.52340732   2.31672895
1046  -2.97430763   0.18403703   3.89383472
1047   1.03259080   2.15937337  -4.48187932
1048  -2.62223457  -1.16289281  -1.22750468
1049   0.88011954  -0.30497351  -0.16242755
1050   0.48479437   1.08763136   5.11705006
1051   5.13487994  -2.79588139   2.48927788
1052   4.27400694  -3.24473085  -0.48367309
1053   0.37387918  -4.23338612  -0.04445003
1054  -0.61384926   0.56548458   4.30316465
1055   1.58105056   1.82137240  -3.73002340
1056  -0.65342120  -3.06353679  -1.54367850
1057  -0.85146904   3.29276620   5.04059274
1058   3.76958534  -1.51333481  -0.45133223
1059   3.05833284  -3.55543448  -0.27962314
1060  -1.11822393  -1.28340085   4.56090676
1061   2.96614726  -2.40011272  -1.79223757
1062   0.11842253  -1.48665046  -0.87664143
1063  -3.80371515  -2.34674104  -1.09704836
1064   0.24250837   3.96443483   3.79764748
1065  -2.55605778  -3.80581895   2.19581891
1066  -4.76081994   0.13942393   2.26152606
1067  -2.01994367  -2.56102983  -1.29617409
1068  -2.54228673  -2.62776317   4.15173706
1069  -1.10187535   3.38676262   4.53472480
1070   3.43279879   3.17561012   3.61494101
1071  -0.95461033   0.82109490  -1.81938532
1072  -6.30919369   1.83783157   1.08061952
1073  -5.74344420  -3.87067027   1.89444742
1074  -1.76095991   1.21023223   5.00204673
1075   0.20992267  -0.59552873   4.74406455
1076   1.39490798   1.20771565   0.11843826
1077   5.52157130  -1.74782066   0.41280431
1078  -0.70793357   1.24314580   1.32653017
1079  -1.48103431   9.23397711  -4.27811109
1080   5.66398232   4.94347904   0.57410520
1081   3.37403101  -3.40364359   2.10237778
1082  -2.67010821   0.68162694   4.82155482
1083   1.16019795  -2.07810845  -3.87116276
1084  -0.85815194  -0.05920582  -2.23662055
1085  -1.15983341  -0.40720872  -1.76017497
1086  -0.25475092  -0.58242024  -4.41740025
1087  -2.69014331  -3.16332578   0.07545267
1088  -4.84392058  -5.91769705   0.97542846
1089   0.12493262  -0.50795429  -1.66850428
1090   8.95449557   2.81523328  -1.81712164
1091  -1.17016727  -1.46750288  -4.52672663
1092  -1.12191435  -6.49709235  -4.46971787
1093  -5.18657381  -0.24700908  -3.19307544
1094   3.08262690   2.56686163   0.60278544
1095  -1.33596941  -0.09957958  -1.96396505
1096  -1.57106150   0.72015336  -3.66795047
1097   0.67773844  -1.18353141  -0.25351686
1098   2.25682255  -3.45220309   0.45417138
1099   1.40795366  -0.98734018  -2.80683416
1100   0.27078600  -0.95269350   2.65891710
1101  -0.08701411  -6.19030141  -0.11955997
1102  -0.47237931  -4.18234813  -2.19046340
1103  -0.61083652   0.51317062   1.58523450
1104   3.07189052  -3.20023710  -4.79286097
1105  -0.34744913   0.25613407  -3.53146427
1106  -0.25944936  -2.18005910   1.63635645
1107   0.36828407   4.29699073   1.09755915
1108  -3.29255835  -3.06953069  -2.59719540
1109  -4.56829281   2.24963086  -1.31951731
1110   2.17102593   1.86071740  -2.57910363
1111   5.23673423  -1.82155814  -3.95529722
1112  -0.26444123   2.12466579   1.71638540
1113   0.67456236  -0.67207362   0.33350672
1114  -3.73294467   0.56582417  -0.94001167
1115   2.15726175  -1.68285523   2.31689483
1116   2.01525373   1.78656527  -0.70154161
1117   1.17744957  -5.20265791  -4.55494317
1118   0.16363041   3.44717905  -0.44992641
1119   4.56611610   3.84992140   0.32595995
1120   2.22486261   3.96689886  -0.46463456
1121  -2.05302169  -5.22722652  -1.81120521
1122   0.97568633  -1.46029271  -3.53320788
1123  -2.89687819  -0.25957749  -0.74335167
1124   2.14745020  -2.19634455  -1.72066214
1125   1.98688176  -1.12423694   0.82218671
1126  -1.89011910  -0.02960437  -2.03777099
1127   3.63960578  -0.90263570   0.49317523
1128  -4.20120700  -1.69780413  -0.23591132
1129  -0.60310608  -2.04018466  -0.92294433
1130   7.44796986   0.38933360   3.77803186
1131  -3.56472395   0.67408581  -2.70854982
1132   0.56570373  -0.25547864  -1.14411438
1133   4.60667589  -7.68547777   3.79244633
1134   3.29898576   3.00684669  -2.18942281
1135  -2.18428690   0.47101603   4.20568443
1136  -0.60035793   3.99638114  -1.69389099
1137   5.33384744  -3.85260798   1.52094309
1138  -5.18197815   4.08511432   1.90412425
1139   0.26106325   2.09551892   2.10595241
1140   0.53912202   3.49179152  -1.81381695
1141   2.18566453   2.17351241   0.75784034
1142   2.86210070  -1.50417058  -0.11330583
1143  -1.09802176   0.64759855  -3.14027556
1144   2.77951197  -0.02444851   1.14561430
1145   0.49714754   4.50648096  -1.62745335
1146   0.20594714   0.81893344   0.99339714
1147   2.71145166   4.02853463   6.49673195
1148   0.43509800  -3.95209128   6.99671915
1149  -6.68260888  -2.78140401  -0.66267362
1150   3.88254986   2.89829004   5.82909237
1151  -0.50709367   5.83352036  -0.66225953
1152   5.41473477  -0.06590330  -4.86362189
1153   2.20636986   1.31049711   1.40461607
1154  -4.84631583   0.49417313   2.15496882
1155   0.48011833   1.27636309   4.40897049
1156  -2.38900301   2.14392155   2.55135398
1157  -4.21392029  -3.83786944  -2.86370762
1158  -7.22351174   1.71833491   1.70855147
1159  -0.08788871   7.49191725  -4.07355851
1160   0.90710011   1.03186789   2.44024088
1161   0.44780061  -4.16382832   0.05905002
1162  -5.66021562   1.44599215  -0.01517205
1163   0.85072652  -0.19481372   3.18965283
1164   1.27201882   2.72577704   4.94270345
1165   3.61493391   1.59529092   2.37226385
1166  -1.12595642   2.68404049  -2.11889838
1167  -1.42923369  -0.93026342  -3.75429805
1168  -3.21525466  -1.25394905  -1.56515428
1169  -3.77462733  -2.55829381  -0.81799833
1170   2.59671957   4.71203741   2.30424360
1171  -7.70607412  -0.18094119   2.40967713
1172  -1.57279893   0.60600934   2.18809513
1173  -3.68079719   0.01385352  -2.39919457
1174  -3.16896323  -4.34502939   3.91523808
1175  -1.09946301  -1.80087809  -4.88582197
1176   0.15047282  -3.49779778  -1.70029718
1177   1.67168494  -0.36219827   1.88303908
1178  -1.87303062  -0.63541965  -3.40284700
1179  -1.09554162  -3.96222550  -0.38887558
1180   2.66393780  -5.65258724  -0.76271103
1181   2.15814211  -0.95746369  -1.62123418
1182   5.36078640   5.74367788  -4.51561989
1183   0.81117968   5.10855242  -5.19862955
1184  -2.74938426  -2.28474232   3.12936884
1185  -2.48709715  -3.31778051  -3.40643291
1186   5.21385689   4.58586954   3.61860943
1187   2.36145344  -1.34806433  -1.58580275
1188   3.67758757   4.07542159  -6.10478993
1189   0.18861242  -0.54749931  -4.65707498
1190   0.89198924  -0.48590042   3.88962450
1191   0.83740735   1.60746991  -0.85810680
1192  -0.73000250   2.34256027  -0.05624749
1193  -2.13530833   3.79138266   2.53761101
1194  -5.21311690  -3.18423562   1.39503804
1195  -0.68642204   3.15067877  -4.06754772
1196   1.04570486  -1.16386402  -0.92118821
1197   1.77683523  -5.73418454  -3.97147090
1198  -3.89132372   4.61162309  -0.66949824
1199   3.51534193  -3.42396671   2.24729523
1200   4.57502757  -0.53513860  -1.23025015
1201  -0.47950276   4.18127401  -2.27326678
1202   0.81547184  -4.80731756   2.35694869
1203  -3.24009349   0.81368530   2.73544580
1204  -0.95798821   0.14433931  -2.01898991
1205  -1.61154070   1.21738232   6.54782884
1206  -4.78366495  -2.64941926  -0.82463630
1207   2.69190159  -5.68361011  -2.88897442
1208  -0.28842324   1.67411482   1.60970239
1209   1.94452268  -3.93422848   2.12194736
1210   1.62285467   4.42854842  -4.01277213
1211   1.13025032  -1.40966336  -0.17728888
1212   7.26642858   0.46680839  -3.41325888
1213   0.64309287   2.83560613   2.05476902
1214   1.44648312  -5.81799599   3.29893882
1215   4.26512156   0.09438641   1.60421623
1216   1.01487397   4.92613820  -3.96994110
1217   3.75996167   4.78936817   5.43620162
1218  -1.29493180  -2.74212074   1.34592267
1219   2.30344032  -0.53979653  -0.85354112
1220  -2.20049681  -1.78141096  -2.07731660
1221  -2.29345926  -1.19044993   0.83792697
1222  -2.46222342  -0.61871061  -1.06473592
1223  -5.35243665  -6.05004571  -0.07907700
1224  -1.90688438  -9.19547354  -0.80544159
1225  -4.23818589   4.44540840  -4.01931861
1226   2.05144752   0.08830132  -0.44966498
1227   0.40204321  -0.58396123  -4.86283542
1228  -3.55877091   0.43632758   1.80902694
1229   4.65365389   1.92224154  -1.82234961
1230  -0.70466555   1.76117588  -2.40347984
1231  -3.67202086   1.66110050  -3.83198089
1232   2.66317374  -0.82348950   2.84874556
1233   3.20364375   1.57641768  -5.24566685
1234  -3.30221009  -4.77485370   0.36558518
1235  -2.49862623   3.46594786   1.13932013
1236  -0.10068788  -1.05146628   1.21246051
1237   3.57500014   1.83047798  -2.18917341
1238  -1.93746094  -2.77045724  -1.77113863
1239  -1.69620370  -1.88406083  -2.41352536
1240  -2.19228615  -2.26365709  -1.61295275
1241   1.25562183   4.54773364  -0.64462180
1242  -2.98377900  -0.01004406  -2.72159715
1243  -2.58073044  -1.76247755   2.07337658
1244  -5.33684283  -3.64190515   1.05848140
1245  -3.29370973  -0.74089490   0.21042906
1246   0.74675557  -2.17651274   1.24559906
1247  -5.88660362   1.06511278   1.66010898
1248  -2.47400018  -3.50886706  -0.70088000
1249   3.63880415  -0.48646941   8.87620752
1250  -0.82671961   0.03176548   0.11038971
1251  -3.83662066  -1.35241500   1.01102596
1252  -2.75830228   3.62047226   1.78033670
1253   1.54177153  -3.43853722  -2.22838467
1254   0.60516876   0.94550289  -0.68359417
1255   6.81267093  -3.13770527   2.96948037
1256  -2.29145344   1.87720978   0.43781097
1257   0.48809525  -2.61101049  -4.56904771
1258  -0.22339100  -2.66749155   1.40073178
1259   3.37427736  -2.57462941   3.75254402
1260   0.76258592   2.16527372   4.31390452
1261  -1.76524732  -0.98478855  -1.81772680
1262  -0.17429329   3.23710988   3.30316397
1263   1.81590082  -1.93064202  -0.76676793
1264  -2.54188146   1.99740423   2.30469191
1265  -1.51924868   2.65118966   1.92345003
1266  -3.87432294  -5.22664050  -0.09049780
1267   0.82875084  -0.79929244   4.34187561
1268   0.44833645  -3.31164498  -1.67920259
1269  -4.02175062   1.45056869  -1.95790849
1270   2.10644784  -2.61732349   5.64266281
1271  -4.64301872  -4.65056873  -2.17035280
1272  -0.82373206   1.86158083   0.13088800
1273  -4.76645169   1.91530474  -0.10977227
1274   0.42147538   2.36105578   4.45839102
1275  -2.57996098  -6.04521899  -3.29515896
1276   6.27845374  -0.86871932   0.78581804
1277   3.36097200   3.20879571  -1.98887618
1278  -2.33551963   2.13477686  -2.83800447
1279  -1.10766468   2.35971707  -1.32499795
1280  -1.71613962   1.95097417   2.45860656
1281  -1.75788873  -0.93882049  -1.74399495
1282   3.50902255   0.82096719  -4.74015467
1283   2.55662172  -1.80866240  -2.50655546
1284  -3.30480923   1.61764045  -3.19091172
1285   0.94429342  -2.45943408  -1.27746194
1286  -1.30846949   6.49386356  -2.69012454
1287   5.09904863   0.94578419   3.92539434
1288  -0.16692352  -2.79677679  -0.63409909
1289  -4.82877497   2.86258984   2.25010607
1290  -3.67823439   1.79167705   1.20537912
1291   1.88116719   2.92968581  -8.34231022
1292  -6.18044928  -8.35120894  -0.19541929
1293  -1.34292620   0.89465888   2.69669874
1294  -3.99563419   2.22524512   5.86558206
1295   4.42521541   1.70424575   2.61946408
1296   0.88189130  -1.50561293   0.36801609
1297  -0.29006499  -0.87243810   2.20775987
1298   0.02108921   0.57773687  -1.51971926
1299  -3.80515245   0.94353430   0.40540306
1300   0.63407044   2.11534305  -0.97722666
1301  -2.36610756  -0.44616165  -0.61254608
1302  -2.43189174   4.41385102   5.96547231
1303  -4.67846753  -2.66264077  -3.81737988
1304   1.58447978   2.50155431   0.96616546
1305  -3.99790993  -3.46349155   3.19757062
1306   0.10353990  -1.99810285   0.55454701
1307  -2.18750891  -0.14410676   0.43041456
1308   2.10559358   3.92083581   0.53706402
1309   0.11377991   2.26626547   0.85796439
1310   1.42468149   1.13181376   0.47641807
1311  -1.32958886   1.34208540   1.39857334
1312  -2.52975533  -0.33972917   2.16239104
1313   5.34999992  -4.63954774   5.49007319
1314  -3.55091599   0.63252577  -1.96328661
1315   2.62003446  -1.05513885   0.48235365
1316  -6.10506719   0.49224666  -1.65913496
1317   2.38682649  -3.01874415  -2.70002085
1318   2.97312869  -4.54813442   5.55015056
1319   5.02095029   4.97396440   1.10738875
1320  -0.25760647  -2.05798394   0.67793098
1321   1.39932843  -6.45799641   1.67028514
1322  -4.32075299  -3.91545702  -1.77740157
1323   2.17232280   1.19522285   1.75811605
1324   1.72427039  -6.38437065  -2.89622598
1325   0.43949854  -4.34322477   1.38809096
1326   1.11814141   4.29718779  -4.54178076
1327  -0.58257158  -0.40907223  -2.91591773
1328   1.34497423   0.28945241  -1.62226948
1329   1.07944298   0.63953791  -0.06449515
1330  -1.71323440  -2.42387233   1.78391464
1331   1.51872639  -1.72041361  -0.33137672
1332  -5.26311665   0.83277159   3.95164981
1333  -0.49470704   0.29180692  -0.15334773
1334  -3.82043430   2.64440805  -3.29581657
1335   2.30452306  -2.83454643   2.67649434
1336  -0.93341004   0.64606271  -2.85365979
1337  -0.84125832   1.85457337  -1.00099965
1338   2.40103527   0.23607635  -6.84690642
1339   1.52328384   0.89103973  -2.33620466
1340   3.74531251   3.80210557  -2.42745521
1341  -2.37847189  -3.61009314   9.86046669
1342   6.84705545   1.21989401  -0.15036932
1343  -1.33904530  -1.65020234   2.71361622
1344   1.25001453   2.55655603  -3.41950410
1345   3.11486751   0.19856274   1.77055976
1346   1.36912617  -1.81255526  -1.28719406
1347  -1.60254862   0.80190318  -0.76623905
1348   2.06322908   1.80696023  -3.22133622
1349   4.81764049   5.27103505   0.23768076
1350   4.47699789  -3.94608513   1.16970709
1351  -0.90118591   2.24840286   2.21326618
1352  -0.83794541   1.43406187   1.23017814
1353   0.41663607  -2.53465586  -4.17336959
1354  -3.25487798  -3.89584938   1.18947984
1355  -0.94157515  -0.25410374  -4.24515781
1356   3.11484891  -1.28944586  -4.53882654
1357  -2.38066201  -0.46861770   1.65601615
1358  -0.25059425  -0.47062831  -8.31227879
1359   0.03746005  -7.56257244  -3.04041515
1360   1.66364195   0.09432131  10.16739144
1361   1.18875350   1.43022025  -3.45318802
1362   1.20090098   3.03558641  -7.80524747
1363   2.65539671   2.06409175  -1.37844220
1364   0.46596607  -4.61738571  -4.23649898
1365   1.41980991  -3.26766454  -3.77706639
1366   3.27754147   2.66319207  -0.14421528
1367   2.40578267   4.37296948  -1.23215346
1368  -5.75305945   0.38730754   0.64216963
1369   2.12998259   4.58506997   1.37492843
1370  -0.43571902  -1.93368489   2.48499209
1371  -0.04956990   4.91266377  -5.03230867
1372  -5.94981466   3.56093274   0.85316851
1373  -2.21051536  -5.12204680   3.84292164
1374  -1.45129976   4.02307104   1.97059697
1375   7.10051400   0.68571132  -2.82326356
1376   1.48503909   4.59718635  -6.30020270
1377   4.98732107   3.14805355  -2.70390110
1378  -2.14137489  -2.49468075   1.31312414
1379  -1.20486834   1.04339413   1.28192503
1380   2.69767196  -1.16722760  -1.56631929
1381   2.32947482  -4.04978554  -4.89255649
1382   2.74637615   0.77348017   3.14641460
1383  -0.98416043  -2.31446858  -1.40162452
1384  -1.85401308   0.72139484  -0.86063862
1385  -1.31558579   2.63249475   6.06390591
1386  -2.23986417   4.58642814   4.08579908
1387  -2.05496137  -1.18448583  -1.73376571
1388  -3.02389206  -5.36435289   0.32924846
1389  -4.18094887  -4.01624649  -2.98955663
1390  -1.19529422  -2.30765431   3.59554457
1391  -2.40624235   0.02337553   1.59214752
1392   4.62635239  -2.28549864   2.20193031
1393  -4.37777601   0.69568072  -1.14143361
1394  -1.41849506  -1.41102165   4.94892764
1395   2.08884740  -0.05912679   3.60377904
1396  -2.02281987   4.06213956  -4.37643277
1397  -4.08334503  -3.95615996   5.49510813
1398   5.99864827  -0.36408812   1.45982760
1399  -6.00459184  -1.15620893  -0.50475558
1400  -1.12964503  -0.14928470   1.16617570
1401  -1.21222341   2.10512684  -3.58930564
1402  -2.86684414  -2.97479707   4.87181939
1403  -4.81257935   0.81769436  -1.13792324
1404   3.55489208  -2.62907227   3.16773768
1405   3.87610963  -6.05684478   2.63749919
1406  -3.73816976   1.48023297  -1.32359241
1407  -4.86204053  -1.04141115   2.07600395
1408  -0.14260852  -0.04529761   4.54022029
1409   2.79109803   2.98711378   2.20020319
1410  -3.63369295  -0.94960173  -0.56886275
1411  -1.45139605   4.19178267   3.78655052
1412   5.15455029   1.80009180  -1.55353504
1413   3.48379575  -3.11652384   5.68074682
1414   0.89776769  -1.24816408   0.59440520
1415  -3.52325154  -0.64081764   0.10856560
1416   1.75979145   7.20071016   3.44118241
1417   1.50040850   2.66851488   1.12812282
1418   6.76271261  -1.72172228   1.77614939
1419   0.22748428  -3.93495620   1.86271374
1420   1.50366973  -0.07619664  -0.13246612
1421  -0.31525272   3.54733044   1.42967779
1422   3.35713654   1.97810152   1.85863145
1423  -3.00607114   2.21103595   3.33361562
1424  -2.02509027  -3.07212740   7.33704049
1425  -1.20231101  -8.09367381  -5.04649152
1426   2.00870308  -2.88032579   0.18720896
1427   3.04702588   2.93921719   2.72304861
1428   4.06955225  -1.29170306  -1.30659283
1429   1.61743598   2.17542644  -1.37181211
1430  -0.93551482  -5.89669948  -2.78624235
1431  -1.12869415   0.50870718   3.43758988
1432   7.23537837   2.97524998  -0.79250350
1433   6.03855439  -1.11974404   1.61943983
1434   1.87353785  -0.24806181   3.04824525
1435   1.34313674  -2.50572026   1.40018851
1436  -1.07134292   2.57669799   0.59390227
1437   1.04300469   1.70133242   0.43636240
1438  -0.67649763   2.21066012  -1.10688183
1439   3.48975990  -3.87228462   3.38055776
1440  -2.77785963  -2.01114617  -4.69465496
1441  -0.58595991   5.76958763  -2.13555218
1442   2.18531726   0.63687327   1.65761893
1443  -1.09761580   4.04816839   2.32567622
1444   4.74703825  -2.57273294   0.78123124
1445  -1.05220167  -6.82398647  -0.93556163
1446  -2.47693034  -0.29117843  -0.24536938
1447  -1.33049968   1.31890979  -1.53918837
1448  -6.25780865  -0.23143404  -2.61988524
1449   3.25756717  -2.01045301   3.61463909
1450  -1.60310403  -2.51609880   0.40961235
1451   1.83816999  -6.08818458  -1.14820413
1452   5.29381709   3.84062141  -2.57742358
1453  -3.14614822   4.07684065  -1.52148230
1454  -0.38708829  -2.60614281  -0.91375668
1455   3.91470102   0.83620340  -0.90082633
1456  -0.32999679   1.71420656   0.31524646
1457  -1.97504882  -2.72917277   3.60328430
1458   4.09945071   6.96052737  -0.06368204
1459   1.40002704   4.10199274  -3.62565846
1460  -2.43161471  -0.07881438  -2.56871510
1461   2.91210067  -4.41689186   1.57260204
1462   0.33471427  -1.98205686  -4.53694571
1463  -5.56832056  -2.52010056  -2.92472549
1464   0.10686010  -3.45695935   0.07062267
1465   2.45022863  -2.06581717  -3.57353272
1466  -2.96547260   0.45420316  -4.90699039
1467   3.38649178   1.14217651  -3.65256831
1468   5.25901357  -2.29733042   1.19010291
1469  -0.43359522   3.38780486  -1.50134539
1470  -0.22017622   4.38384013   0.62067875
1471  -4.61019715  -0.58022370   3.92891792
1472  -1.77715638   3.73434046  -2.02168819
1473   4.03355678  -1.22682570  -0.75118779
1474  -0.05315662   1.99712328   0.58897671
1475   0.32686590   5.81715122  -0.09687835
1476  -2.66567797   4.23572236  -1.69136075
1477   1.50101910  -3.08945831  -1.28782248
1478   2.11878348   0.67913856  -0.68825012
1479  -1.12523372  -0.43943177  -2.65568679
1480   3.47330177   0.29255106  -1.99767807
1481   0.01440426   0.18196904  -0.51174009
1482  -2.28173820   2.32187346   8.40333973
1483   3.75140883  -1.29665945  -5.20957113
1484   5.34918584   2.82633714   3.71410490
1485   1.19358625  -2.08976670   2.21324712
1486  -1.31655155  -2.17747350  -0.33445734
1487   4.70649129  -0.24126282   2.04812443
1488  -0.33545264  -3.06429824   0.11690072
1489  -3.76994594  -1.79170724   2.26668710
1490  -1.04206603  -2.70923614   1.18481852
1491   5.86469658  -5.10917787  -3.50515214
1492  -0.02695182  -2.09241094  -1.45113940
1493  -1.96555764  -0.41101537  -2.94393760
1494   2.57802974   6.41168216  -2.46668480
1495   0.54676466  -0.52279469   2.89231714
1496   1.45829285   1.72924800  -0.30315323
1497   2.41574317   2.25148692  -8.07908529
1498   0.73415835  -3.90007040  -6.47023503
1499   4.63256446  -1.82398282  -1.47899170
1500  -2.43398410   0.17365515   0.64464583
1501  -2.53862170   2.06568023   0.48659560
1502   4.23701141   2.47618660   1.11222353
1503   0.48761631  -3.61933585   8.22148705
1504  -2.42718333  -0.18025285  -3.63939211
1505  -0.88000094  -5.76264687  -1.52656294
1506  -6.93996481   1.46376694  -4.64386653
1507  -1.23354073  -0.96040940  -3.71279948
1508  -1.33663666  -1.04136280  -2.54135208
1509  -1.00639487  -0.75015153   1.09951628
1510   3.11655763  -1.77456738  -3.42250766
1511   5.94625950   1.62224290  -1.47113933
1512  -1.17569991   0.10597311   0.07226506
1513  -0.18503555  -5.30295792   0.29634543
1514  -3.95885435   1.98437962   2.05502429
1515  -0.50250440   4.89245698   2.85833033
1516   1.22125673  -2.12082240  -0.82217368
1517   0.32207484   5.57104336   0.91463107
1518   3.28784258   0.87475725   0.57928395
1519   1.72900793   3.51358879   1.17487508
1520  -1.99981484  -3.60400549  -1.94895575
1521  -4.72857659   0.54663492   3.38925221
1522  -4.65352418   2.19432956  -2.06777614
1523  -0.40333701   1.58933073   0.11389134
1524   0.39592603   3.47025714  -1.48081487
1525   8.04230956   2.59348557   8.41542063
1526  -1.12364740   4.95772520  -2.58095664
1527  -1.69483452  -4.74106943  -3.04978671
1528   2.15085101   1.06312923  -3.10213165
1529   1.34931827  -3.21186309  -7.55544590
1530  -2.25880150   1.66163329   1.00752713
1531  -1.45846623  -0.24285816  -6.31558028
1532   1.99196118  -0.26295915  -4.04665996
1533   3.82613081   5.51551812   2.41015749
1534   0.47751767  -2.29656745   6.64982361
1535  -3.56718605   5.14538227  -0.17297603
1536   0.98200946   2.56660935  -4.31178264
1537   1.58317077  -0.70257072   0.30044813
1538  -0.14395390   0.08208010  -2.80677005
1539  -0.14215992   0.21632738   3.23540931
1540   3.41975234  -6.89752234   5.81244372
1541   0.76147335  -0.87668011  -0.07892263
1542   1.31390664  -3.02420398   1.59742295
1543  -1.07471319  -2.99663057  -0.51604423
1544   5.06549602   3.92337933   3.18358339
1545   1.87741443   3.46947052  -5.45983712
1546   0.90608452   1.78436819   0.35641157
1547  -1.91616053   2.33947386  -0.16084120
1548  -1.99487756   3.99630618   1.83779786
1549   0.17008056   1.88251440  -3.68020724
1550   1.57273636  -5.35291246  -3.16283716
1551   0.92332465   0.23536406   1.53772578
1552  -1.01944233  -0.10734009  -0.47983869
1553   1.95737978   3.33297207   1.61960173
1554   1.86340821   1.76678349   1.65197108
1555   3.88818712   1.42073254   0.49033613
1556   3.08992529   7.05316781  -1.56631878
1557  -3.15956431  -0.77854300   3.41065967
1558  -2.13638438  -0.14195888   3.73013455
1559  -0.96730421  -3.72750959   4.16871549
1560   2.90097117  -0.61330143   1.33078500
1561   4.01060670   5.78757804  -1.19463934
1562   1.28473533  -0.22617936  -1.13949921
1563  -1.62696391  -6.78479101  -0.48526753
1564   0.32804519  -0.23382263   1.39680124
1565  -1.40939027   0.76424479   5.64197688
1566   0.29476714  -1.00601230   0.85175457
1567   0.86609128  -0.41683773  -1.16295546
1568  -3.79979165  -1.53714649  -3.20861052
1569  -2.02643310  -3.29078186  -3.68698122
1570   2.82947731  -2.62618419   2.07375971
1571   2.06698706  -5.98147028   0.47862724
1572   0.23934051   0.84330377   1.25275794
1573   0.79669206  -5.06382866   2.15978980
1574   4.76769170  -2.34110360  -2.19843968
1575   1.43996510  -3.36846111   3.08846082
1576  -1.00290988   2.86409743   4.39729619
1577   2.54462316  -0.52215121   0.79661296
1578   0.29353320   0.13165810  -0.92083312
1579  -1.10433041   0.98378525  -2.89578258
1580   3.22671930   2.40773175  -3.28279531
1581   3.60815373   0.79422401  -2.56669999
1582  -1.78686592   4.58804612   0.77827651
1583  -1.33285057  -4.95310399  -2.85242453
1584   7.17770108   0.62516389  -5.62397221
1585   3.06254102  -2.36580757  -1.13044106
1586   0.56751720   2.08735816   3.42062233
1587  -0.78747184   3.54395310  -2.66568341
1588  -3.93765898  -2.83767513   2.87173377
1589   0.51524511  -0.06781356   1.43875505
1590  -1.54871826   5.60255193   1.56943840
1591  -3.35991858  -3.30619475   3.24815366
1592  -0.28327032  -3.01584817  -1.39080763
1593  -0.50141085   0.73263930   6.03850807
1594   2.07830393   0.24198244   2.48171790
1595  -0.07895925  -2.00482489   1.72201894
1596  -3.96366179  -1.39601459  -5.00350432
1597  -1.69229500   0.65224149  -1.41374149
1598  -0.09980843  -4.05525447   0.57887620
1599   0.13360713   0.53414098   1.42763420
1600   2.13408404   1.91286739   3.27494969
1601   5.28411634  -1.06053292   0.63161386
1602   6.20860787  -1.04121450  -1.89273534
1603   1.81024597  -0.56449054   2.82522958
1604  -2.68864805   6.30689851  -1.72933005
1605   5.24623598  -2.09437621  -7.41499934
1606   3.43553065  -3.95999486   1.18585314
1607  -3.50417750   1.17314865  -0.75265621
1608  -5.08633754  -0.23760291   0.90793204
1609   2.74471113  -1.42330606   1.86817130
1610  -3.96357031  -1.54552319  -6.14054870
1611  -2.46726090   0.05652563   1.84965958
1612  -2.72488801   5.72943665  -5.28716572
1613  -2.45322882  -0.17838742  -0.27452866
1614  -1.86921400  -1.07597051   5.24877963
1615   1.28060372  -2.83248209  -1.80972519
1616  -1.03576094  -2.45458244  -6.22620505
1617   4.54223420  -3.98585750  -0.69881101
1618  -1.22132066  -1.01150161  -1.18738094
1619  -1.67922562  -1.47781270   3.84987624
1620  -0.38379751  -4.67427282   0.31774541
1621  -3.16755577   0.82353612  -6.27258308
1622   1.44799106   2.29134142   1.54001842
1623  -1.30720228  -0.87617236   1.65210479
1624  -0.12524191  -1.22510963   3.10204925
1625  -0.93523135   6.63977682   0.61331935
1626  -3.66942706  -0.77233309  -3.07831484
1627   2.63367730   0.13747494  -6.57909718
1628  -2.45658953  -4.14123816  -4.88725363
1629  -2.76383131   2.97601474  -3.87696394
1630   4.83032112   1.29657841   3.30797027
1631   0.86897549  -0.37563830   0.57547529
1632  -1.86643768   1.06548928  -6.88488642
1633   6.75114943   5.82148822   1.28912694
1634   2.86581538   3.00386063  -2.40849304
1635  -3.02608303  -1.09542854  -3.44175503
1636  -4.21789745   0.20500028   2.33144135
1637   2.58002477  -4.88702269   4.26647875
1638  -2.54832588   7.11992618  -0.90633115
1639   0.19248640   1.96812230   5.36529324
1640  -0.83864670   0.03407982   3.35448571
1641  -1.29371355   0.38723402  -1.19202908
1642   4.81159108   3.67398914   1.36563675
1643   1.47403424  -6.69433167  -4.26710868
1644  -4.44971665  -5.20865169  -0.13095096
1645   3.00594593  -3.98660070  -3.13040082
1646   1.85214118  -2.40114551   2.96463059
1647  -1.10046441  -0.42358063  -4.33737163
1648  -0.21583446  -1.87997879   3.47183504
1649   4.90392118   5.00307451  -1.23417247
1650   0.05432376  -4.13588052   0.48084869
1651  -2.80645474  -2.45752699  -3.06097864
1652   6.06634601  -4.88156943  -0.19063796
1653  -0.13719834  -3.21428449   0.84174800
1654  -7.21760000   0.60953098  -0.83117568
1655  -4.92021144  -1.33582820  -0.34066515
1656   0.15711885   8.14433437  -1.57109935
1657   3.87866985  -0.77270547  -1.53626109
1658   2.46784114  11.83594927  -0.51098367
1659   1.22999333  -2.48297845   0.40862399
1660   4.10982595   0.19299313  -0.33349870
1661   2.23204551  -0.83594897   3.04488507
1662  -1.97838417   2.51088210  -6.05544057
1663   6.22216510   0.94124072   0.79358581
1664   5.17237623   3.09341021  -1.76607323
1665   0.85151538   0.54314302   5.28680451
1666   0.07504655   1.02066565  -2.63262425
1667   1.61956110   0.54746306  -0.15147472
1668   2.04455235   2.69548022  -4.02257536
1669   4.95792530  -2.14069748  -1.98837335
1670   1.66740025   0.02225255  -6.42413947
1671   0.75917166  -1.77888655   5.06602560
1672  -2.48275209   2.58052060   1.34818185
1673   1.60115879   0.04772972  -3.74451365
1674  -0.29019562  -1.19259275  -2.59055308
1675   4.97630465  -2.93650221  -2.44306790
1676  -2.98150448   0.20478794  -2.50481663
1677  -1.42162701   1.49299814  -1.46038589
1678  -0.67123855  -8.97601212   1.72137091
1679  -0.03514067  -1.52129382   0.08223281
1680   4.48690609   1.39744945  -1.62071556
1681   2.59331917   2.64158886   2.94922792
1682  -3.27587849  -6.05441068   2.62794112
1683   2.60157656   0.86578079  -0.50983453
1684  -1.75372343  -2.56555233   3.14212053
1685  -2.96163098   5.75742204   2.27597789
1686  -1.52717002   0.59251526  -0.68169799
1687  -0.88623815   2.15284145  -4.62432028
1688  -4.67794255   4.11371993   4.01482594
1689   4.13683542  -0.80980863   0.58078652
1690   3.60659321  -0.08477714   2.22716677
1691  -1.15222551  -4.04444239   5.24740461
1692   0.46258977  -6.74402722   0.51888452
1693   0.53151777   1.10712868   2.97746060
1694  -2.12337255  -5.27440658  -0.40445189
1695   3.52486793   2.97782478  -0.13928126
1696   1.39007515  -1.61833700  -1.73006434
1697   0.55291760  -1.79562972   2.95492516
1698  -2.98129102   3.23169653  -3.67634239
1699   3.64946385  -3.94635300  -0.61082720
1700   0.88203307   5.02304658  -2.97413086
1701  -1.42511841  -0.50960703  -2.04522411
1702  -3.89987991   2.69051291  -3.36622937
1703  -0.02103964   5.47080741  -1.17608592
1704   2.85537150  -2.23916405   1.76219770
1705   1.25827380   3.80068304   0.09024702
1706   2.45708721   2.60668294   3.61769720
1707  -4.07516617   2.82442595  -1.01723043
1708   4.34058427  -3.05385386   4.94744446
1709  -1.65141511  -4.43855843   0.78937336
1710  -1.59632555   2.36110630  -0.81520038
1711   0.45019618   1.16745503  -3.17690883
1712   2.43861965  -1.84653679  -0.95198316
1713   2.41801183   5.48137592   1.79935447
1714   0.73695562   4.01859460  -2.24972418
1715  -1.86011407  -2.20884509  -2.06911436
1716   1.45265062   1.56676224  -5.12914780
1717   4.85181545   1.04192763   1.09955938
1718   3.05220870   1.83360908  -0.11597023
1719   3.05671440  -2.25360300  -1.73187707
1720   3.78877093  -3.83964440   2.41489068
1721  -1.08174675   0.76212287   2.74969758
1722  -2.09453380   0.90298433   0.40567372
1723  -0.51729804   2.27299805  -0.17148177
1724  -2.39235402   2.73205255  -1.59052794
1725  -1.05417114   0.02827367   2.94512628
1726   2.61915319   4.92532285   1.90520663
1727  -3.02803841  -1.30655235   6.66851812
1728  -0.59419548  -0.45861916   1.20724607
1729  -2.24389662   0.54235164   0.11559782
1730   1.30012796   1.73689423  -0.43059903
1731   5.12986765   3.69061756  -2.97416695
1732   2.66684000   3.57890083  -2.34554235
1733  -2.40616917  -0.42083739   2.38224132
1734   2.39788702  -0.76332522   1.71995834
1735  -1.71822484   3.79689327  -1.23484240
1736  -0.41161425   4.33539652   1.80386181
1737   4.15620918  -0.89931311   4.56053832
1738  -6.87068416   5.36170836   0.82685667
1739  -2.23688223   1.28840450   5.79646406
1740   2.72679299   2.80690344   0.04745837
1741  -1.79828616   5.25328886  -1.49404810
1742   1.78001222   1.22252907   1.27858799
1743   0.86807597   5.26340590  -3.00517712
1744  -2.65814916  -4.57217654  -0.33832927
1745  -0.79091816   3.25574139  -3.49009016
1746  -8.58947995   0.63321017   4.24917969
1747  -3.72757338  -5.14428847   1.64789858
1748   0.85475803  -1.41948443  -1.59190550
1749  -3.32449062  -0.18394230  -2.56331540
1750  -0.50361278  -1.58607178   0.27175553
1751  -0.67968505  -2.29524777   4.35296036
1752   2.37286581   2.25520305  -0.24576588
1753  -3.31753156  -3.40802190   2.80300640
1754   2.49701112  -5.35853361   0.23141591
1755   3.17000779   0.58063996   0.23591353
1756  -0.08609938  -4.59396223   0.46908971
1757  -1.70732925  -1.63967951  -3.71051176
1758  -2.65724229   1.96925907   6.05424664
1759   3.93724620   0.80848735  -1.28913495
1760   6.25710208  -2.37067096  -4.59857713
1761   1.60044931  -3.00419787  -0.63431444
1762   0.21020220  -6.62015577  -1.07432134
1763   0.53456237  -0.22553821   2.97382545
1764  -3.55528696   1.99335601   4.08932489
1765  -9.45939379   1.27869703   0.39876247
1766  -2.48984750  -4.97524956  -0.98146771
1767   1.91485147   3.65548284   2.30262033
1768   2.37309320   0.63003249  -0.48170859
1769  -3.60539240   1.28004733   2.19075358
1770   5.76104408  -3.08546986   3.01358627
1771   2.26692710   2.64885380   3.28790650
1772   0.97627857   3.38188869   3.10579927
1773   4.45089668   0.20691564  -1.24943720
1774  -2.70084786   0.91277254  -3.23477165
1775  -1.29434463   2.66337787   2.80188431
1776  -2.43286766   0.41915719  -1.93517800
1777   2.49975271   4.59257032   1.46042476
1778  -2.56634957   1.07916878  -2.72387870
1779   0.73478863   5.51322805   3.85393502
1780  -0.18407650   1.64960928   0.53581328
1781  -0.96695336   2.59293868  -1.01570343
1782   0.38898150  -1.62462849  -0.04635547
1783  -4.44247837  -3.83804682  -4.42678906
1784  -2.16201511   0.68355452   0.85162735
1785   2.10441482  -5.45860153   3.10721237
1786  -2.81684416   1.23790576   2.12743235
1787  -2.14776232  -1.94908073  -0.54532404
1788  -0.91454716   3.03626073   0.30640188
1789   2.50565066   5.63114518   4.32980528
1790  -2.95484121   0.26012754  -0.30389430
1791  -2.77417858   1.03444378  -0.46583185
1792  -1.56897718   1.62492123  -3.73535755
1793   1.00086224  -2.67019085  -0.76929884
1794   5.92232278   5.01283937   4.01169578
1795  -0.09225712   0.45005481   5.97106472
1796   6.41913985   1.96504116   3.91400430
1797  -0.32567709   0.06937648  -5.34450340
1798  -0.14358045  -3.74129396  -0.28077961
1799   0.25140626   3.54118348  -4.50231364
1800  -1.74841930  -3.47700063  -0.73454117
1801   5.36720721   1.77346818  -3.27887463
1802  -0.07121666  -6.62142839   0.66747637
1803   2.32345517  -4.42027636   3.93947518
1804  -0.09524619   2.31677522  -1.05202415
1805   3.26433719   1.68183681   1.65062209
1806  -1.03894843   4.88156621  -0.46346322
1807  -1.98027761  -1.83307639  -1.95234776
1808   3.37135210   2.01441743  -8.02181032
1809   3.83106582   3.07556334  -1.31994735
1810   0.62575634   5.44354336   7.51407852
1811   3.13587233   1.96502305  -3.41439687
1812  -1.80337384  -1.52233031  -6.62574485
1813   1.06214598   4.71305863  -2.40593961
1814  -5.31112023   0.81248251  -6.78749199
1815  -0.47475628  -0.91836736   1.39009869
1816   0.85351778   4.44302538  -0.96205420
1817  -2.48971129  -0.55528083  -0.84931676
1818   1.21251851   1.22854711   4.04953580
1819  -0.30159988  -2.48333136   5.74064237
1820  -6.45558394  -8.17192532  -4.37201379
1821   0.14142312  -1.50488911   2.54911656
1822   2.97277461   0.39230705  -0.47191672
1823   2.60463558   4.47542935  -1.36480767
1824  -1.52088019   3.23763444   1.13086429
1825   2.66236916   2.87173610  -0.90779230
1826   0.82890888  -3.58749047  -2.40528865
1827  -2.64462798   1.89756818   2.21826153
1828   0.35931851  -3.79487011   0.02124055
1829  -2.87629119  -0.70161888   3.38901197
1830   0.26303898   2.10278360   2.61886081
1831  -0.01506013  -7.06422457  -3.05889231
1832  -0.51079521  -2.49915523   0.40355389
1833  -3.90815079   4.54204539  -1.30787492
1834   2.12304592  -5.52976637  -1.14553711
1835   0.38985653  -0.49678417   0.81598227
1836   1.22248617   5.85979369  -0.46031572
1837  -2.07020720   2.48939707   0.35026942
1838  -3.22547557   0.84937694  -1.30817379
1839  -3.26571966   1.18619137   0.98385909
1840  -4.65758241   1.51899137  -3.82744837
1841  -1.42743177   1.00484989   0.22809860
1842  -2.73310631   1.06749770  -0.26823731
1843  -0.01744983  -4.69100233   1.88693435
1844  -0.76492883  -2.44088316  -1.55023267
1845   0.43274794  -3.22984045  -4.30850695
1846  -2.22894381  -0.47622821   3.65175992
1847   1.41204056  -0.64780959   0.30183052
1848   0.76230978   6.89415580   3.56059383
1849  -4.95407759   2.22054287  -2.56422587
1850   0.35275681  -2.43918680   0.28120252
1851  -2.27193758   4.69187206  -1.37611212
1852  -1.81026306   0.74977443   4.61414509
1853  -3.56779361  -0.01845020  -0.62065429
1854  -5.60224739  -1.47708094  -1.78681390
1855   1.84550719  -0.08968799   1.78928220
1856   4.63802147   1.62260673  -6.66235666
1857   1.63866853   4.15399429   2.00550252
1858  -0.28411742   3.21782940  -2.12530186
1859   0.23772683  -2.87594979   0.32732859
1860  -0.00936146   1.11271502  -0.24251948
1861  -0.29511049  -3.77619598   5.26272587
1862   1.32724309   2.48054375   3.75680659
1863   2.40194077  -1.26010742   1.02005660
1864  -0.03768598  -0.59836773  -1.36368240
1865  -0.77766170  -0.85500542  -3.84407622
1866   0.37480757   0.71072044   2.72219633
1867   0.07286366  -6.24418204  -1.92710089
1868   5.16583951   0.62250787   2.07758579
1869   6.80289066   2.15554039  -2.45631604
1870   0.84126878   1.52752978  -5.29921753
1871   0.16641938 -11.23402058  -5.29194023
1872   0.20478398  -2.60391964   2.32690536
1873  -2.09479898  -4.10512984   0.94012463
1874  -0.22136153   1.42920243  -0.80929262
1875   1.72035500   0.37733835   3.60741666
1876   2.31064475   4.47575185  -0.00390410
1877  -0.20593241  -0.83043476  -2.68677753
1878   0.63425792   1.86482419   1.91013370
1879   2.95611218   6.30415223  -1.80603026
1880  -5.05648901   1.17209382   1.06638150
1881  -4.97816428  -5.78306198  -2.33197341
1882   1.91168998   3.63734981  -2.68657984
1883  -2.27695365   0.27201156  -4.92401047
1884   3.74052053   0.30139333  -0.91515815
1885   3.48457181   1.99518643   0.64126453
1886  -2.51275388  -2.38973997   0.29331804
1887  -0.10264823  -0.42186141  -0.54543258
1888  -2.28895089   5.58961438   2.90575845
1889  -4.19659504  -2.57380395   1.81753891
1890  -1.05101939   2.73056652  -1.85958332
1891  -1.52266346   1.51773226  -1.40119552
1892   1.17790457  -1.43897439  -4.82488393
1893   1.65264569  -0.47714852  -3.00906541
1894  -2.74296984   4.59396830  -0.74026393
1895  -0.85210794  -4.52081878   0.10563426
1896  -0.65834711  -0.20659279  -1.97257905
1897   1.20846763   4.52756511  -4.10178043
1898  -1.21801324   0.30845838  -4.78828704
1899   2.02302333   0.42144674   3.21929591
1900   0.91065289  -0.28158721   0.88593890
1901  -0.49590603  -3.21294917   0.53088283
1902   0.05758226   2.33528020  -0.66620101
1903   0.13830270  -3.92329457   0.63669850
1904   0.40488623  -2.33082866  -1.39044504
1905  -0.68651661   5.07429947   1.84519756
1906   6.83690055   1.67581200   0.44484556
1907   5.38161123   2.99147896   0.65581508
1908   2.20127598  -3.18291958   2.01682008
1909   3.36925379  -2.89117360  -0.65171210
1910   4.29963192  -0.86382281   1.11736054
1911  -1.67602057  -2.55703408   1.96631055
1912  -5.95789768   2.15677555   1.03938107
1913   3.23690690   3.60387252  -3.54106370
1914  -2.73915583   2.55633919  -2.89202543
1915  -6.35414526  -3.20107439   0.20327663
1916  -0.44071502   2.06398070   2.38872218
1917  -2.50996476  -6.24966058   7.31732216
1918  -0.49376125  -1.25958636   0.19996757
1919  -2.28279842  -0.16989581  -4.22661601
1920  -0.19296913  -5.00507338  -0.63933531
1921  -0.78376388   0.41064512   5.99703735
1922  -0.59885018  -0.78807782  -0.75333529
1923  -1.89783058  -0.23099664  -3.17140712
1924   0.63636974  -1.83905490  -8.32384767
1925  -0.41863630  -2.51518024  -2.04339835
1926  -1.60112201   1.53652017  -1.02845672
1927  -1.24452638   3.23334192  -0.62546500
1928   3.42728042   1.72264667   0.17732976
1929   4.34170498  -2.95204915  -2.05223015
1930   1.24536470  -2.80704829  -2.56382546
1931   1.22737360  -2.04238462   1.95618080
1932   6.65059173   4.59536756   1.95336104
1933  -1.19944663  -2.56980455   0.04141163
1934  -1.73005876  -1.21121777  -1.62417946
1935   4.92324002   2.72894106  -2.79703322
1936   1.75967192  -0.93357425   1.25380644
1937   2.24970807   4.34472035   4.37772662
1938   4.70867089  -0.81893120   3.85351755
1939   1.44968942  -5.95336975  -0.14601631
1940   3.05720154   1.21633410   5.10770792
1941   2.32176960   3.15695696  -1.22748969
1942  -5.59868629   7.62204071  -0.60218321
1943   5.04227907   5.07023769  -3.21931087
1944   3.53369317   2.59954419   2.66908845
1945   3.04536042  -4.49572682   3.06335771
1946   0.88189230  -1.16618616  -1.72383135
1947   2.09076347   0.02512682   1.04585981
1948  -1.73192693  -0.90883284   1.35922944
1949   1.40763721  -0.84595654   5.40408197
1950  -3.84245771   1.52677560  -4.15381553
1951  -1.91397899  -0.49535900  -2.02673231
1952   4.81752167   2.62216238  -2.57657785
1953  -0.84220287  -6.90164994  -0.52550701
1954  -2.43366980  -5.61502508   1.68034707
1955  -0.26101273   0.51665005  -2.75356292
1956  -0.25769805   1.77250764   0.13866642
1957  -5.24071258  -1.54689118  -5.41084872
1958   1.48026693   0.74285185   1.82165962
1959  -2.47215749  -2.86258946  -2.93750583
1960   0.67161213  -2.00458805  -1.74683049
1961  -3.53667477  -3.09023783  -2.35692079
1962   1.07697973  -3.32185344  -0.12031494
1963  -4.87404476   3.20833700  -0.95583135
1964  -1.11908020  -0.87942680  -2.10670494
1965  -0.89103320   2.20906965   5.08946611
1966   3.21224532   6.09417712   6.31644903
1967   3.42016927  -6.54827449  -3.31870867
1968   1.93789979   1.42703955 -10.16020147
1969   0.17753150  -2.75168581  -6.13012512
1970  -2.69682102  -2.07271350   1.48230817
1971   0.27558881  -3.76280335   0.76318607
1972  -1.41272506   0.54877023   0.63333460
1973   0.24045287  -4.27354901  -0.89746001
1974   0.62764798   0.41292821  -3.05216425
1975  -1.91479397   0.11015141   1.28612253
1976   1.16227809  -0.68439386  -0.46101016
1977  -3.30110585  -0.58626179   5.82751935
1978  -1.47808211  -1.24323793  -0.37369526
1979  -0.24433968  -3.61318050  -0.28816005
1980   1.83132071   0.90595233   1.82548311
1981   4.87735103   1.73554851  -5.03669294
1982   1.03040948  -1.43293466   3.36869015
1983  -1.70639463   1.07518081   0.48154445
1984   5.78515503  -2.17706343   3.36088813
1985  -2.65125173   0.20900695   3.09627572
1986  -2.57729028  -0.41331603   0.89746862
1987   7.61105544   5.17545411   0.31496676
1988   0.93899797  -1.89763652  -0.64400626
1989   2.31229989  -1.79649480  -2.37708640
1990  -0.01081111  -2.10244041  -0.35513747
1991   6.79513394  -3.39663288   3.15433841
1992  -0.18896850  -1.77428047   5.24279196
1993   3.40700374   0.35307886   6.24516525
1994  -0.01062109  -1.78615612   1.35223228
1995   1.34579251  -3.16999221   0.35420236
1996   4.15875873  -3.03143217  -0.51735583
1997  -1.12531672   0.21029405  -4.70372235
1998   2.62969136  -3.21887067   7.26895246
1999  -3.50227047  -1.02652283   0.36531341
2000   2.49950162  -1.27791760   3.55878991
2001  -1.41813195  -5.30412042   7.14664335
2002   2.61193402  -1.47344020  -5.73581382
2003   3.53920969  -3.32586909  -0.55412767
2004   2.41028296   2.65218445   2.90171950
2005   5.15638012   0.77109777  -0.03134818
2006  -0.38573164   3.07824270  -0.80306210
2007  -1.64734778   0.46950748  -0.68127447
2008   4.82537284  -2.98505408  -0.50172285
2009   0.25970572   1.76639451   0.82240844
2010  -1.09115453  -1.36079426  -0.62397946
2011   1.49904778  -1.07107259   2.93695606
2012  -1.40915177  -6.66446561  -0.38216858
2013   2.24647817   3.31069088  -3.93291402
2014  -0.00959569   3.28895269   2.67963455
2015   1.47928561   0.33542028   2.18988872
2016   4.12547053   1.54608040   0.40890046
2017   0.46913215  -3.82322351   2.82181732
2018   0.94491887  -2.18777027  -3.71317558
2019   0.78724007  -1.12541181  -2.99749257
2020   1.25026445  -0.74185118   1.70972341
2021   0.31954012  -2.69403686  -2.96221073
2022  -0.44411026   5.15441951  -2.47034252
2023   0.25408384   3.28151137   1.17417456
2024   2.84565111   1.26015544  -3.49901175
2025  -4.00727722   4.57247236   4.82595097
2026  -4.04245546  -1.23841937  -2.50752006
2027   4.03096639   1.54229168   1.21936109
2028  -1.53602926  -5.46289695  -5.65567818
2029  -1.05264618   4.24277734  -2.35369924
2030  -4.52470058  -3.79624319   1.71084575
2031   0.67364906  -0.51588515   2.43031509
2032  -0.15417334   5.18763779   8.15218249
2033  -1.82567772   3.66680960   0.19765619
2034   3.46490312  -1.49665250  -0.53916901
2035  -2.13151483  -1.94570418  -0.37958402
2036   4.87045674   0.32077931  -0.30422292
2037   4.32481066   1.73689704   0.13607635
2038  -2.20021213   1.15859562   0.77964707
2039   2.73406199   7.06428088  -1.70470847
2040   1.09858934  -0.41187186  -4.53938957
2041   2.16758885  -1.48714045   0.97607088
2042   0.20693585   2.92739734  -0.92030447
2043  -1.64625589  -4.93082060  -0.15497430
2044   2.03730334  -2.35267422  -1.80507553
2045   1.99080037  -0.79959283   1.15396529
2046   0.28232288   4.93375351  -2.89412709
2047   0.81190890  -0.13667602   1.31663162
2048   2.00159069  -1.50881159  -3.94906714
2049   2.22923305  -3.03925894   3.74891572
2050  -0.52616326  -3.15252215   1.02592103
2051  -0.42970289  -3.42473679  -2.40790632
2052   0.49116833   2.58383437   3.28633907
2053   1.84899130   4.77529706   2.69931117
2054   4.11306477   1.07772823   3.54254283
2055   0.83502125  -0.64772348   0.18850205
2056  -5.12633427  -4.86718878   2.15900971
2057   0.14150592  -1.02368437   3.98367473
2058   3.59204139   3.33649401   1.23182918
2059   0.31685275  -1.77224594  -2.34337266
2060  -4.14730664  -4.91108559  -1.87810050
2061  -1.44090131  -1.53155332  -2.19826519
2062   2.67057251   0.73519293  -3.36755015
2063  -2.57397048   2.00097725  -0.16371410
2064   3.70069582  -1.69126647  -0.31880978
2065   3.44420247  -1.26960626  -0.58053594
2066  -1.02113167  -5.00378040  -3.10550808
2067   4.24595384   3.47248158   6.90336514
2068  -5.36379519   0.32662980   4.86354927
2069  -2.82367769   0.14758630   1.47894242
2070  -0.17147939  -3.13476034  -0.27854295
2071   1.50662294   1.08948989   2.35746697
2072  -2.64145865   0.03830914  -1.19517822
2073   8.11055762   0.93187259  -0.02769641
2074   1.20832650  -0.65578400  -7.52356060
2075  -1.13748425   7.95524379   0.71900393
2076   1.72809655  -1.79837568   4.47331441
2077   0.24395358  -0.96615104   2.93286921
2078   2.42699887  -3.38344347   5.25309275
2079  -4.90032251  -0.81856255  -0.79822975
2080  -1.33484242  -1.89356307   2.43477140
2081  -0.50610967   1.59565378   0.13796984
2082  -1.55402863   0.09696689   2.51666930
2083   1.99843699   0.52218333   0.68883288
2084  -2.05725568   1.82132742  -1.92525359
2085  -0.72832111   2.28250386  -1.77045910
2086   3.67222250  -0.45489996   3.21157837
2087   1.51321476  -5.27046840  -1.24090811
2088  -0.96724067  -0.00731778   1.14407010
2089   7.56837230  -0.15722707  -2.43616552
2090   1.26692928   2.72103669   1.08307092
2091   2.64391799   0.34181487   4.73078008
2092   4.10924571   1.52549936   5.82318766
2093  -4.29621821   3.32104660  -4.00601657
2094   4.61188367  -6.96816347   3.78030890
2095   2.19797174  -0.83299877  -5.74194652
2096   2.09503139   1.12127840  -0.53423685
2097   1.26989442   2.08081491   1.46282509
2098   3.25739752   0.42086137   3.79857361
2099  -1.19379331   6.73172834  -1.46005958
2100   0.37990054  -0.57324881  -1.41110656
2101   3.19939564  -1.83781983   1.02438409
2102   2.32046587   0.58333252  -1.99315777
2103   4.96118746   4.59006911   1.54854168
2104   3.59404876  -3.41824642  -1.83787201
2105  -0.98395339  -2.00781425  -3.05013304
2106   5.36698884   2.91218312  -7.22617928
2107   0.97156807   2.09662546  -1.66775631
2108   2.74447590  -0.63696997   1.20070284
2109   3.32316235  -3.71273862   1.35381334
2110   5.02541001  -0.37689811   0.17925644
2111   0.62709830  -0.29515926   1.68348045
2112   1.72427188  -0.37481466   5.28881725
2113   2.35859010   4.37203926   0.10324686
2114  -0.80944761  -2.66198892   2.56462917
2115  -2.49717585   1.88761233  -0.28382261
2116  -1.12907832   0.01915733   1.92199579
2117  -0.44224045  -2.93086463  -1.85200363
2118  -3.06614801  -5.22362982   3.34105143
2119  -0.44553794  -2.83310975   1.63153365
2120  -0.46129030  -2.52554531   2.53287851
2121   2.70404070  -0.19921340   0.34536891
2122   7.41405136   0.48770125   1.36161282
2123  -0.83481986  -4.68962978  -2.60140238
2124  -3.18846630   1.45028694  -4.47321756
2125  -1.61409678   3.03210104   4.92885889
2126   0.52033399  -1.66322145  -0.26377307
2127  -0.85133686   4.45494203   1.11538970
2128   2.51001541  -4.36331619  -3.22213035
2129  -2.94148567   1.32451674  -3.14486834
2130   2.57570942  -1.61347057  -2.19694855
2131  -2.21331505  -1.01010500   0.37765149
2132  -1.80449028   0.28606183   0.51623748
2133  -1.17343637  -0.64681105   3.02693872
2134  -1.33350789   2.68829523   0.19256695
2135   4.86139862  -0.61009442  -1.49745923
2136  -1.36474831  -1.88739470   1.40448425
2137  -4.98569468  -4.66129822   1.13482696
2138   1.84110733   3.37556412   4.57511681
2139   2.84233952   6.90703581  -0.00038342
2140  -4.74995088  -3.91912953  -3.71838130
2141  -1.16379131   1.20628630   2.33963681
2142   0.86689243  -1.07900391   0.59319060
2143  -0.10524792  -0.33634196   0.71149662
2144   0.58318238  -1.24803949  -2.03438357
2145  -1.24712066  -3.58181997  -1.37306692
2146   0.65341524   2.04938306   2.63047131
2147  -0.41562263   3.49659670  -4.03793398
2148  -0.72885980  -0.18093502  -1.79043230
2149  -3.09809649   1.85965121   0.57640096
2150  -0.76760238   7.19884509   3.57717350
2151   2.96853900  -4.21223699   1.60226883
2152   1.22096063  -1.50674593  -5.95118364
2153   1.94684878   1.40589654   1.03080445
2154   3.33061216   0.98359055   2.31899436
2155   0.63628866  -0.88905913  -0.33802834
2156  -0.41300669  -1.40844309   1.45551245
2157  -3.64921297   0.31311558  -3.76318246
2158  -1.94933274  -3.55454029   1.03573656
2159   0.21959705   0.42835536   1.62824712
2160   1.66798069   4.26609159  -0.66040039
2161  -6.08780423   2.49876229   2.95562543
2162  -1.10648736   1.39046829   0.67244895
2163  -4.52980107   2.62009244  -0.49663211
2164  -0.17792844   6.92182237  -1.23298693
2165  -4.45659498   3.62477678  -2.18201351
2166  -1.13695729  -2.66344410   2.18982741
2167  -0.31410284   0.20307419  -0.94471464
2168   3.71476451   0.29771985   2.09074304
2169  -1.11637942  -6.40395771  -1.59387191
2170  -2.90934434  -1.20604956   1.39559244
2171  -4.26520332   0.87057270   0.77594224
2172   0.28095229   1.41176485   3.00817969
2173  -3.38428243  -0.27520358  -1.61772214
2174   4.90370332   2.97323036  -2.38787567
2175   1.72747526   2.47825101   5.70568559
2176   0.25217459   6.72518967   2.71503776
2177   1.27877060  -0.35774450  -4.50096097
2178   0.71544490   0.68243062  -0.38437658
2179   0.20747789   0.88936387   0.31562981
2180   4.27567747  -0.93161818   0.50632042
2181   0.89217277  -1.67518936  -2.89462102
2182   0.81268328   6.35673711  -0.48905474
2183  -0.54542815  -2.87398702   1.56764382
2184   3.36826632   7.69743500   0.20405263
2185   0.39626890  -0.80588423  -6.69275848
2186   4.45784661  -3.50332604   1.88833180
2187   2.12236709   1.58778309  -2.24653833
2188   3.28433044   0.22497274  -3.39461855
2189   2.96793568   3.46705761  -0.96637766
2190   3.07189320   4.73122081   3.30737709
2191  -0.96241414  -0.06402758  -5.28090783
2192  -3.68363675  -2.17665579   3.52916181
2193  -1.13978921   4.97454616  -3.41776434
2194   2.11405516  -0.09392908  -0.62507711
2195  -1.56413230   3.94568292  -4.94199175
2196  -2.84996999   1.91658277  -2.04454694
2197  -0.53028393   0.73705457  -5.05456532
2198   5.52191829   7.29868037  -1.99286179
2199  -0.51870576  -2.80754028  -2.05045877
2200  -2.27579443  -0.58074661   0.40260431
2201  -1.57423338   2.60839173   4.91005065
2202   0.86637356   0.65927443  -1.38684583
2203  -2.33608292   4.16823293  -0.62860929
2204   1.49514292   3.28521148  -0.70265853
2205   2.49403415  -5.84863127   0.58228570
2206   8.87483867   3.27887887   2.19261890
2207   0.65222199  -1.11972127  -1.00564441
2208   0.69907607  -3.00532552  -3.15825075
2209   2.83070465  -1.21085089   1.99450386
2210   1.23449577  -0.13934791  -6.51037517
2211   2.05630000  -2.84850703   2.77870094
2212   1.40289412  -1.01663582   0.41971387
2213  -2.73569317  -1.58267119   3.08045435
2214  -3.17044475  -0.42831688   1.58202357
2215  -7.20619949  -2.01559770   1.12093078
2216  -2.00131794   3.39532621   2.31905399
2217   5.73709453   2.47347992  -3.23092273
2218  -0.08379357  -4.91548271   2.75443055
2219   3.34166125   0.53197808  -1.94951611
2220  -4.11042646   1.19115426   2.50522156
2221  -1.04074815  -1.39052311   0.20402823
2222  -5.38598088   6.76887632  -1.30132535
2223   1.38592364  -0.55227520   1.37355761
2224   2.83677196  -0.01854720   1.48685751
2225  -0.85187489  -0.78234878   3.04299349
2226   3.16316114   5.97844478  -5.15641291
2227   9.22736409  -1.48061406  -1.33114798
2228  -2.45844871  -3.49373982   0.78636412
2229   6.60914028  -3.03050761   2.70621256
2230   0.59289757  -4.72866231  -2.82320478
2231  -3.24568146  -2.48882703  -2.37567902
2232  -0.72960129  -5.71518422   1.08468505
2233  -1.53084603   7.48921225   0.63112639
2234  -3.32096669   0.17541667   2.64236811
2235   1.89921231  -1.65569456  -3.87113820
2236  -3.14197060  -2.55834966  -5.02956083
2237   0.92786540   1.60320210  -3.71206999
2238  -0.58953066  -2.64914719  -3.36311564
2239   4.23470758   1.15675235  -3.94179201
2240  -3.35257942   3.08369127  -0.80561933
2241  -2.06521703   3.53180255  -1.15589170
2242  -2.41518089   1.64150140  -2.56664867
2243   3.36110749   0.53215512  -1.55679266
2244   3.32343619   1.68549476  -1.70373770
2245  -1.35433911   0.99801335  -3.06824912
2246   3.48984862  -0.95580992   4.70935335
2247  -6.89714411  -4.79624129   0.13648015
2248  -0.80622253  -8.79914191   1.26937274
2249   1.68301660   1.61767501  -1.50022542
2250  -2.09974303   4.73414190   0.42009648
2251  -5.75010509   3.03462422  -2.83367148
2252  -2.36617912  -0.19106754   1.47564945
2253   3.63817200  -1.93867017   1.90659455
2254   0.48724297   4.14965822  -1.04117269
2255   3.36577781  -2.99019989   0.96765757
2256   1.15848740  -4.05589386  -0.30437954
2257  -3.98609767  -0.00373727   0.04109093
2258  -4.12861942   4.47959573   1.07478834
2259   1.97580597  -4.29213001  -1.52673558
2260  -1.62682611   2.24063196  -0.36875992
2261   5.30340397  -1.40088425  -0.04467000
2262   3.76638922   2.46577986  -1.31596386
2263  -0.14749029   1.09837319   2.70365540
2264  -0.59032796  -1.02249386   0.83634529
2265   4.78841337  -2.37138071  -4.47082348
2266   0.37523899  -0.39408122  -1.33676403
2267   5.14713787  -0.95774138   2.17035299
2268   1.01696742   4.80944562  -2.29567472
2269   2.20941767  -8.62613159   1.36277249
2270   0.95629128  -3.90540958   0.41761942
2271   1.11535892   1.43229941  -0.10133724
2272   0.90499239  -2.13764917  -4.05241854
2273  -4.25981225   1.78954399  -4.82076277
2274  -0.36209134   1.83653740   0.75382782
2275   2.31267551  -6.15564799   1.75220916
2276   0.37548957  -0.29431785   2.25906249
2277   2.90256537   0.28233146   3.59112100
2278   0.00000000   0.00000000   0.00000000
2279   0.00000000   0.00000000   0.00000000
2280   0.00000000   0.00000000   0.00000000
2281   0.00000000   0.00000000   0.00000000
2282   0.00000000   0.00000000   0.00000000
2283   0.00000000   0.00000000   0.00000000
2284   0.00000000   0.00000000   0.00000000
2285   0.00000000   0.00000000   0.00000000
2286   0.00000000   0.00000000   0.00000000
2287   0.00000000   0.00000000   0.00000000
2288   0.00000000   0.00000000   0.00000000
2289   0.00000000   0.00000000   0.00000000
2290   0.00000000   0.00000000   0.00000000
2291   0.00000000   0.00000000   0.00000000
2292   0.00000000   0.00000000   0.00000000
2293   0.00000000   0.00000000   0.00000000
2294   0.00000000   0.00000000   0.00000000
2295   0.00000000   0.00000000   0.00000000
2296   0.00000000   0.00000000   0.00000000
2297   0.00000000   0.00000000   0.00000000
2298   0.00000000   0.00000000   0.00000000
2299   0.00000000   0.00000000   0.00000000
2300   0.00000000   0.00000000   0.00000000
2301   0.00000000   0.00000000   0.00000000
2302   0.00000000   0.00000000   0.00000000
2303   0.00000000   0.00000000   0.00000000
2304   0.00000000   0.00000000   0.00000000
2305   0.00000000   0.00000000   0.00000000
2306   0.00000000   0.00000000   0.00000000
2307   0.00000000   0.00000000   0.00000000
2308   0.00000000   0.00000000   0.00000000
2309   0.00000000   0.00000000   0.00000000
2310   0.00000000   0.00000000   0.00000000
2311   0.00000000   0.00000000   0.00000000
2312   0.00000000   0.00000000   0.00000000
2313   0.00000000   0.00000000   0.00000000
2314   0.00000000   0.00000000   0.00000000
2315   0.00000000   0.00000000   0.00000000
2316   0.00000000   0.00000000   0.00000000
2317   0.00000000   0.00000000   0.00000000
2318   0.00000000   0.00000000   0.00000000
2319   0.00000000   0.00000000   0.00000000
2320   0.00000000   0.00000000   0.00000000
2321   0.00000000   0.00000000   0.00000000
2322   0.00000000   0.00000000   0.00000000
2323   0.00000000   0.00000000   0.00000000
2324   0.00000000   0.00000000   0.00000000
2325   0.00000000   0.00000000   0.00000000
2326   0.00000000   0.00000000   0.00000000
2327   0.00000000   0.00000000   0.00000000
2328   0.00000000   0.00000000   0.00000000
2329   0.00000000   0.00000000   0.00000000
2330   0.00000000   0.00000000   0.00000000
2331   0.00000000   0.00000000   0.00000000
2332   0.00000000   0.00000000   0.00000000
2333   0.00000000   0.00000000   0.00000000
2334   0.00000000   0.00000000   0.00000000
2335   0.00000000   0.00000000   0.00000000
2336   0.00000000   0.00000000   0.00000000
2337   0.00000000   0.00000000   0.00000000
2338   0.00000000   0.00000000   0.00000000
2339   0.00000000   0.00000000   0.00000000
2340   0.00000000   0.00000000   0.00000000
2341   0.00000000   0.00000000   0.00000000
2342   0.00000000   0.00000000   0.00000000
2343   0.00000000   0.00000000   0.00000000
2344   0.00000000   0.00000000   0.00000000
2345   0.00000000   0.00000000   0.00000000
2346   0.00000000   0.00000000   0.00000000
2347   0.00000000   0.00000000   0.00000000
2348   0.00000000   0.00000000   0.00000000
2349   0.00000000   0.00000000   0.00000000
2350   0.00000000   0.00000000   0.00000000
2351   0.00000000   0.00000000   0.00000000
2352   0.00000000   0.00000000   0.00000000
2353   0.00000000   0.00000000   0.00000000
2354   0.00000000   0.00000000   0.00000000
2355   0.00000000   0.00000000   0.00000000
2356   0.00000000   0.00000000   0.00000000
2357   0.00000000   0.00000000   0.00000000
2358   0.00000000   0.00000000   0.00000000
2359   0.00000000   0.00000000   0.00000000
2360   0.00000000   0.00000000   0.00000000
2361   0.00000000   0.00000000   0.00000000
2362   0.00000000   0.00000000   0.00000000
2363   0.00000000   0.00000000   0.00000000
2364   0.00000000   0.00000000   0.00000000
2365   0.00000000   0.00000000   0.00000000
2366   0.00000000   0.00000000   0.00000000
2367   0.00000000   0.00000000   0.00000000
2368   0.00000000   0.00000000   0.00000000
2369   0.00000000   0.00000000   0.00000000
2370   0.00000000   0.00000000   0.00000000
2371   0.00000000   0.00000000   0.00000000
2372   0.00000000   0.00000000   0.00000000
2373   0.00000000   0.00000000   0.00000000
2374   0.00000000   0.00000000   0.00000000
2375   0.00000000   0.00000000   0.00000000
2376   0.00000000   0.00000000   0.00000000
2377   0.00000000   0.00000000   0.00000000
2378   0.00000000   0.00000000   0.00000000
2379   0.00000000   0.00000000   0.00000000
2380   0.00000000   0.00000000   0.00000000
2381   0.00000000   0.00000000   0.00000000
2382   0.00000000   0.00000000   0.00000000
2383   0.00000000   0.00000000   0.00000000
2384   0.00000000   0.00000000   0.00000000
2385   0.00000000   0.00000000   0.00000000
2386   0.00000000   0.00000000   0.00000000
2387   0.00000000   0.00000000   0.00000000
2388   0.00000000   0.00000000   0.00000000
2389   0.00000000   0.00000000   0.00000000
2390   0.00000000   0.00000000   0.00000000
2391   0.00000000   0.00000000   0.00000000
2392   0.00000000   0.00000000   0.00000000
2393   0.00000000   0.00000000   0.00000000
2394   0.00000000   0.00000000   0.00000000
2395   0.00000000   0.00000000   0.00000000
2396   0.00000000   0.00000000   0.00000000
2397   0.00000000   0.00000000   0.00000000
2398   0.00000000   0.00000000   0.00000000
2399   0.00000000   0.00000000   0.00000000
2400   0.00000000   0.00000000   0.00000000
2401   0.00000000   0.00000000   0.00000000
2402   0.00000000   0.00000000   0.00000000
2403   0.00000000   0.00000000   0.00000000
2404   0.00000000   0.00000000   0.00000000
2405   0.00000000   0.00000000   0.00000000
2406   0.00000000   0.00000000   0.00000000
2407   0.00000000   0.00000000   0.00000000
2408   0.00000000   0.00000000   0.00000000
2409   0.00000000   0.00000000   0.00000000
2410   0.00000000   0.00000000   0.00000000
2411   0.00000000   0.00000000   0.00000000
2412   0.00000000   0.00000000   0.00000000
2413   0.00000000   0.00000000   0.00000000
2414   0.00000000   0.00000000   0.00000000
2415   0.00000000   0.00000000   0.00000000
2416   0.00000000   0.00000000   0.00000000
2417   0.00000000   0.00000000   0.00000000
2418   0.00000000   0.00000000   0.00000000
2419   0.00000000   0.00000000   0.00000000
2420   0.00000000   0.00000000   0.00000000
2421   0.00000000   0.00000000   0.00000000
2422   0.00000000   0.00000000   0.00000000
2423   0.00000000   0.00000000   0.00000000
2424   0.00000000   0.00000000   0.00000000
2425   0.00000000   0.00000000   0.00000000
2426   0.00000000   0.00000000   0.00000000
2427   0.00000000   0.00000000   0.00000000
2428   0.00000000   0.00000000   0.00000000
2429   0.00000000   0.00000000   0.00000000
2430   0.00000000   0.00000000   0.00000000
2431   0.00000000   0.00000000   0.00000000
2432   0.00000000   0.00000000   0.00000000
2433   0.00000000   0.00000000   0.00000000
2434   0.00000000   0.00000000   0.00000000
2435   0.00000000   0.00000000   0.00000000
2436   0.00000000   0.00000000   0.00000000
2437   0.00000000   0.00000000   0.00000000
2438   0.00000000   0.00000000   0.00000000
2439   0.00000000   0.00000000   0.00000000
2440   0.00000000   0.00000000   0.00000000
2441   0.00000000   0.00000000   0.00000000
2442   0.00000000   0.00000000   0.00000000
2443   0.00000000   0.00000000   0.00000000
2444   0.00000000   0.00000000   0.00000000
2445   0.00000000   0.00000000   0.00000000
2446   0.00000000   0.00000000   0.00000000
2447   0.00000000   0.00000000   0.00000000
2448   0.00000000   0.00000000   0.00000000
2449   0.00000000   0.00000000   0.00000000
2450   0.00000000   0.00000000   0.00000000
2451   0.00000000   0.00000000   0.00000000
2452   0.00000000   0.00000000   0.00000000
2453   0.00000000   0.00000000   0.00000000
2454   0.00000000   0.00000000   0.00000000
2455   0.00000000   0.00000000   0.00000000
2456   0.00000000   0.00000000   0.00000000
2457   0.00000000   0.00000000   0.00000000
2458   0.00000000   0.00000000   0.00000000
2459   0.00000000   0.00000000   0.00000000
2460   0.00000000   0.00000000   0.00000000
2461   0.00000000   0.00000000   0.00000000
2462   0.00000000   0.00000000   0.00000000
2463   0.00000000   0.00000000   0.00000000
2464   0.00000000   0.00000000   0.00000000
2465   0.00000000   0.00000000   0.00000000
2466   0.00000000   0.00000000   0.00000000
2467   0.00000000   0.00000000   0.00000000
2468   0.00000000   0.00000000   0.00000000
2469   0.00000000   0.00000000   0.00000000
2470   0.00000000   0.00000000   0.00000000
2471   0.00000000   0.00000000   0.00000000
2472   0.00000000   0.00000000   0.00000000
2473   0.00000000   0.00000000   0.00000000
2474   0.00000000   0.00000000   0.00000000
2475   0.00000000   0.00000000   0.00000000
2476   0.00000000   0.00000000   0.00000000
2477   0.00000000   0.00000000   0.00000000
2478   0.00000000   0.00000000   0.00000000
2479   0.00000000   0.00000000   0.00000000
2480   0.00000000   0.00000000   0.00000000
2481   0.00000000   0.00000000   0.00000000
2482   0.00000000   0.00000000   0.00000000
2483   0.00000000   0.00000000   0.00000000
2484   0.00000000   0.00000000   0.00000000
2485   0.00000000   0.00000000   0.00000000
2486   0.00000000   0.00000000   0.00000000
2487   0.00000000   0.00000000   0.00000000
2488   0.00000000   0.00000000   0.00000000
2489   0.00000000   0.00000000   0.00000000
2490   0.00000000   0.00000000   0.00000000
2491   0.00000000   0.00000000   0.00000000
2492   0.00000000   0.00000000   0.00000000
2493   0.00000000   0.00000000   0.00000000
2494   0.00000000   0.00000000   0.00000000
2495   0.00000000   0.00000000   0.00000000
2496   0.00000000   0.00000000   0.00000000
2497   0.00000000   0.00000000   0.00000000
2498   0.00000000   0.00000000   0.00000000
2499   0.00000000   0.00000000   0.00000000
2500   0.00000000   0.00000000   0.00000000
2501   0.00000000   0.00000000   0.00000000
2502   0.00000000   0.00000000   0.00000000
2503   0.00000000   0.00000000   0.00000000
2504   0.00000000   0.00000000   0.00000000
2505   0.00000000   0.00000000   0.00000000
2506   0.00000000   0.00000000   0.00000000
2507   0.00000000   0.00000000   0.00000000
2508   0.00000000   0.00000000   0.00000000
2509   0.00000000   0.00000000   0.00000000
2510   0.00000000   0.00000000   0.00000000
2511   0.00000000   0.00000000   0.00000000
2512   0.00000000   0.00000000   0.00000000
2513   0.00000000   0.00000000   0.00000000
2514   0.00000000   0.00000000   0.00000000
2515   0.00000000   0.00000000   0.00000000
2516   0.00000000   0.00000000   0.00000000
2517   0.00000000   0.00000000   0.00000000
2518   0.00000000   0.00000000   0.00000000
2519   0.00000000   0.00000000   0.00000000
2520   0.00000000   0.00000000   0.00000000
2521   0.00000000   0.00000000   0.00000000
2522   0.00000000   0.00000000   0.00000000
2523   0.00000000   0.00000000   0.00000000
2524   0.00000000   0.00000000   0.00000000
2525   0.00000000   0.00000000   0.00000000
2526   0.00000000   0.00000000   0.00000000
2527   0.00000000   0.00000000   0.00000000
2528   0.00000000   0.00000000   0.00000000
2529   0.00000000   0.00000000   0.00000000
2530   0.00000000   0.00000000   0.00000000
2531   0.00000000   0.00000000   0.00000000
2532   0.00000000   0.00000000   0.00000000
2533   0.00000000   0.00000000   0.00000000
2534   0.00000000   0.00000000   0.00000000
2535   0.00000000   0.00000000   0.00000000
2536   0.00000000   0.00000000   0.00000000
2537   0.00000000   0.00000000   0.00000000
2538   0.00000000   0.00000000   0.00000000
2539   0.00000000   0.00000000   0.00000000
2540   0.00000000   0.00000000   0.00000000
2541   0.00000000   0.00000000   0.00000000
2542   0.00000000   0.00000000   0.00000000
2543   0.00000000   0.00000000   0.00000000
2544   0.00000000   0.00000000   0.00000000
2545   0.00000000   0.00000000   0.00000000
2546   0.00000000   0.00000000   0.00000000
2547   0.00000000   0.00000000   0.00000000
2548   0.00000000   0.00000000   0.00000000
2549   0.00000000   0.00000000   0.00000000
2550   0.00000000   0.00000000   0.00000000
2551   0.00000000   0.00000000   0.00000000
2552   0.00000000   0.00000000   0.00000000
2553   0.00000000   0.00000000   0.00000000
2554   0.00000000   0.00000000   0.00000000
2555   0.00000000   0.00000000   0.00000000
2556   0.00000000   0.00000000   0.00000000
2557   0.00000000   0.00000000   0.00000000
2558   0.00000000   0.00000000   0.00000000
2559   0.00000000   0.00000000   0.00000000
2560   0.00000000   0.00000000   0.00000000
2561   0.00000000   0.00000000   0.00000000
2562   0.00000000   0.00000000   0.00000000
2563   0.00000000   0.00000000   0.00000000
2564   0.00000000   0.00000000   0.00000000
2565   0.00000000   0.00000000   0.00000000
2566   0.00000000   0.00000000   0.00000000
2567   0.00000000   0.00000000   0.00000000
2568   0.00000000   0.00000000   0.00000000
2569   0.00000000   0.00000000   0.00000000
2570   0.00000000   0.00000000   0.00000000
2571   0.00000000   0.00000000   0.00000000
2572   0.00000000   0.00000000   0.00000000
2573   0.00000000   0.00000000   0.00000000
2574   0.00000000   0.00000000   0.00000000
2575   0.00000000   0.00000000   0.00000000
2576   0.00000000   0.00000000   0.00000000
2577   0.00000000   0.00000000   0.00000000
2578   0.00000000   0.00000000   0.00000000
2579   0.00000000   0.00000000   0.00000000
2580   0.00000000   0.00000000   0.00000000
2581   0.00000000   0.00000000   0.00000000
2582   0.00000000   0.00000000   0.00000000
2583   0.00000000   0.00000000   0.00000000
2584   0.00000000   0.00000000   0.00000000
2585   0.00000000   0.00000000   0.00000000
2586   0.00000000   0.00000000   0.00000000
2587   0.00000000   0.00000000   0.00000000
2588   0.00000000   0.00000000   0.00000000
2589   0.00000000   0.00000000   0.00000000
2590   0.00000000   0.00000000   0.00000000
2591   0.00000000   0.00000000   0.00000000
2592   0.00000000   0.00000000   0.00000000
2593   0.00000000   0.00000000   0.00000000
2594   0.00000000   0.00000000   0.00000000
2595   0.00000000   0.00000000   0.00000000
2596   0.00000000   0.00000000   0.00000000
2597   0.00000000   0.00000000   0.00000000
2598   0.00000000   0.00000000   0.00000000
2599   0.00000000   0.00000000   0.00000000
2600   0.00000000   0.00000000   0.00000000
2601   0.00000000   0.00000000   0.00000000
2602   0.00000000   0.00000000   0.00000000
2603   0.00000000   0.00000000   0.00000000
2604   0.00000000   0.00000000   0.00000000
2605   0.00000000   0.00000000   0.00000000
2606   0.00000000   0.00000000   0.00000000
2607   0.00000000   0.00000000   0.00000000
2608   0.00000000   0.00000000   0.00000000
2609   0.00000000   0.00000000   0.00000000
2610   0.00000000   0.00000000   0.00000000
2611   0.00000000   0.00000000   0.00000000
2612   0.00000000   0.00000000   0.00000000
2613   0.00000000   0.00000000   0.00000000
2614   0.00000000   0.00000000   0.00000000
2615   0.00000000   0.00000000   0.00000000
2616   0.00000000   0.00000000   0.00000000
2617   0.00000000   0.00000000   0.00000000
2618   0.00000000   0.00000000   0.00000000
2619   0.00000000   0.00000000   0.00000000
2620   0.00000000   0.00000000   0.00000000
2621   0.00000000   0.00000000   0.00000000
2622   0.00000000   0.00000000   0.00000000
2623   0.00000000   0.00000000   0.00000000
2624   0.00000000   0.00000000   0.00000000
2625   0.00000000   0.00000000   0.00000000
2626   0.00000000   0.00000000   0.00000000
2627   0.00000000   0.00000000   0.00000000
2628   0.00000000   0.00000000   0.00000000
2629   0.00000000   0.00000000   0.00000000
2630   0.00000000   0.00000000   0.00000000
2631   0.00000000   0.00000000   0.00000000
2632   0.00000000   0.00000000   0.00000000
2633   0.00000000   0.00000000   0.00000000
2634   0.00000000   0.00000000   0.00000000
2635   0.00000000   0.00000000   0.00000000
2636   0.00000000   0.00000000   0.00000000
2637   0.00000000   0.00000000   0.00000000
2638   0.00000000   0.00000000   0.00000000
2639   0.00000000   0.00000000   0.00000000
2640   0.00000000   0.00000000   0.00000000
2641   0.00000000   0.00000000   0.00000000
2642   0.00000000   0.00000000   0.00000000
2643   0.00000000   0.00000000   0.00000000
2644   0.00000000   0.00000000   0.00000000
2645   0.00000000   0.00000000   0.00000000
2646   0.00000000   0.00000000   0.00000000
2647   0.00000000   0.00000000   0.00000000
2648   0.00000000   0.00000000   0.00000000
2649   0.00000000   0.00000000   0.00000000
2650   0.00000000   0.00000000   0.00000000
2651   0.00000000   0.00000000   0.00000000
2652   0.00000000   0.00000000   0.00000000
2653   0.00000000   0.00000000   0.00000000
2654   0.00000000   0.00000000   0.00000000
2655   0.00000000   0.00000000   0.00000000
2656   0.00000000   0.00000000   0.00000000
2657   0.00000000   0.00000000   0.00000000
2658   0.00000000   0.00000000   0.00000000
2659   0.00000000   0.00000000   0.00000000
2660   0.00000000   0.00000000   0.00000000
2661   0.00000000   0.00000000   0.00000000
2662   0.00000000   0.00000000   0.00000000
2663   0.00000000   0.00000000   0.00000000
2664   0.00000000   0.00000000   0.00000000
2665   0.00000000   0.00000000   0.00000000
2666   0.00000000   0.00000000   0.00000000
2667   0.00000000   0.00000000   0.00000000
2668   0.00000000   0.00000000   0.00000000
2669   0.00000000   0.00000000   0.00000000
2670   0.00000000   0.00000000   0.00000000
2671   0.00000000   0.00000000   0.00000000
2672   0.00000000   0.00000000   0.00000000
2673   0.00000000   0.00000000   0.00000000
2674   0.00000000   0.00000000   0.00000000
2675   0.00000000   0.00000000   0.00000000
2676   0.00000000   0.00000000   0.00000000
2677   0.00000000   0.00000000   0.00000000
2678   0.00000000   0.00000000   0.00000000
2679   0.00000000   0.00000000   0.00000000
2680   0.00000000   0.00000000   0.00000000
2681   0.00000000   0.00000000   0.00000000
2682   0.00000000   0.00000000   0.00000000
2683   0.00000000   0.00000000   0.00000000
2684   0.00000000   0.00000000   0.00000000
2685   0.00000000   0.00000000   0.00000000
2686   0.00000000   0.00000000   0.00000000
2687   0.00000000   0.00000000   0.00000000
2688   0.00000000   0.00000000   0.00000000
2689   0.00000000   0.00000000   0.00000000
2690   0.00000000   0.00000000   0.00000000
2691   0.00000000   0.00000000   0.00000000
2692   0.00000000   0.00000000   0.00000000
2693   0.00000000   0.00000000   0.00000000
2694   0.00000000   0.00000000   0.00000000
2695   0.00000000   0.00000000   0.00000000
2696   0.00000000   0.00000000   0.00000000
2697   0.00000000   0.00000000   0.00000000
2698   0.00000000   0.00000000   0.00000000
2699   0.00000000   0.00000000   0.00000000
2700   0.00000000   0.00000000   0.00000000
2701   0.00000000   0.00000000   0.00000000
2702   0.00000000   0.00000000   0.00000000
2703   0.00000000   0.00000000   0.00000000
2704   0.00000000   0.00000000   0.00000000
2705   0.00000000   0.00000000   0.00000000
2706   0.00000000   0.00000000   0.00000000
2707   0.00000000   0.00000000   0.00000000
2708   0.00000000   0.00000000   0.00000000
2709   0.00000000   0.00000000   0.00000000
2710   0.00000000   0.00000000   0.00000000
2711   0.00000000   0.00000000   0.00000000
2712   0.00000000   0.00000000   0.00000000
2713   0.00000000   0.00000000   0.00000000
2714   0.00000000   0.00000000   0.00000000
2715   0.00000000   0.00000000   0.00000000
2716   0.00000000   0.00000000   0.00000000
2717   0.00000000   0.00000000   0.00000000
2718   0.00000000   0.00000000   0.00000000
2719   0.00000000   0.00000000   0.00000000
2720   0.00000000   0.00000000   0.00000000
2721   0.00000000   0.00000000   0.00000000
2722   0.00000000   0.00000000   0.00000000
2723   0.00000000   0.00000000   0.00000000
2724   0.00000000   0.00000000   0.00000000
2725   0.00000000   0.00000000   0.00000000
2726   0.00000000   0.00000000   0.00000000
2727   0.00000000   0.00000000   0.00000000
2728   0.00000000   0.00000000   0.00000000
2729   0.00000000   0.00000000   0.00000000
2730   0.00000000   0.00000000   0.00000000
2731   0.00000000   0.00000000   0.00000000
2732   0.00000000   0.00000000   0.00000000
2733   0.00000000   0.00000000   0.00000000
2734   0.00000000   0.00000000   0.00000000
2735   0.00000000   0.00000000   0.00000000
2736   0.00000000   0.00000000   0.00000000
2737   0.00000000   0.00000000   0.00000000
2738   0.00000000   0.00000000   0.00000000
2739   0.00000000   0.00000000   0.00000000
2740   0.00000000   0.00000000   0.00000000
2741   0.00000000   0.00000000   0.00000000
2742   0.00000000   0.00000000   0.00000000
2743   0.00000000   0.00000000   0.00000000
2744   0.00000000   0.00000000   0.00000000
2745   0.00000000   0.00000000   0.00000000
2746   0.00000000   0.00000000   0.00000000
2747   0.00000000   0.00000000   0.00000000
2748   0.00000000   0.00000000   0.00000000
2749   0.00000000   0.00000000   0.00000000
2750   0.00000000   0.00000000   0.00000000
2751   0.00000000   0.00000000   0.00000000
2752   0.00000000   0.00000000   0.00000000
2753   0.00000000   0.00000000   0.00000000
2754   0.00000000   0.00000000   0.00000000
2755   0.00000000   0.00000000   0.00000000
2756   0.00000000   0.00000000   0.00000000
2757   0.00000000   0.00000000   0.00000000
2758   0.00000000   0.00000000   0.00000000
2759   0.00000000   0.00000000   0.00000000
2760   0.00000000   0.00000000   0.00000000
2761   0.00000000   0.00000000   0.00000000
2762   0.00000000   0.00000000   0.00000000
2763   0.00000000   0.00000000   0.00000000
2764   0.00000000   0.00000000   0.00000000
2765   0.00000000   0.00000000   0.00000000
2766   0.00000000   0.00000000   0.00000000
2767   0.00000000   0.00000000   0.00000000
2768   0.00000000   0.00000000   0.00000000
2769   0.00000000   0.00000000   0.00000000
2770   0.00000000   0.00000000   0.00000000
2771   0.00000000   0.00000000   0.00000000
2772   0.00000000   0.00000000   0.00000000
2773   0.00000000   0.00000000   0.00000000
2774   0.00000000   0.00000000   0.00000000
2775   0.00000000   0.00000000   0.00000000
2776   0.00000000   0.00000000   0.00000000
2777   0.00000000   0.00000000   0.00000000
2778   0.00000000   0.00000000   0.00000000
2779   0.00000000   0.00000000   0.00000000
2780   0.00000000   0.00000000   0.00000000
2781   0.00000000   0.00000000   0.00000000
2782   0.00000000   0.00000000   0.00000000
2783   0.00000000   0.00000000   0.00000000
2784   0.00000000   0.00000000   0.00000000
2785   0.00000000   0.00000000   0.00000000
2786   0.00000000   0.00000000   0.00000000
2787   0.00000000   0.00000000   0.00000000
2788   0.00000000   0.00000000   0.00000000
2789   0.00000000   0.00000000   0.00000000
2790   0.00000000   0.00000000   0.00000000
2791   0.00000000   0.00000000   0.00000000
2792   0.00000000   0.00000000   0.00000000
2793   0.00000000   0.00000000   0.00000000
2794   0.00000000   0.00000000   0.00000000
2795   0.00000000   0.00000000   0.00000000
2796   0.00000000   0.00000000   0.00000000
2797   0.00000000   0.00000000   0.00000000
2798   0.00000000   0.00000000   0.00000000
2799   0.00000000   0.00000000   0.00000000
2800   0.00000000   0.00000000   0.00000000
2801   0.00000000   0.00000000   0.00000000
2802   0.00000000   0.00000000   0.00000000
2803   0.00000000   0.00000000   0.00000000
2804   0.00000000   0.00000000   0.00000000
2805   0.00000000   0.00000000   0.00000000
2806   0.00000000   0.00000000   0.00000000
2807   0.00000000   0.00000000   0.00000000
2808   0.00000000   0.00000000   0.00000000
2809   0.00000000   0.00000000   0.00000000
2810   0.00000000   0.00000000   0.00000000
2811   0.00000000   0.00000000   0.00000000
2812   0.00000000   0.00000000   0.00000000
2813   0.00000000   0.00000000   0.00000000
2814   0.00000000   0.00000000   0.00000000
2815   0.00000000   0.00000000   0.00000000
2816   0.00000000   0.00000000   0.00000000
2817   0.00000000   0.00000000   0.00000000
2818   0.00000000   0.00000000   0.00000000
2819   0.00000000   0.00000000   0.00000000
2820   0.00000000   0.00000000   0.00000000
2821   0.00000000   0.00000000   0.00000000
2822   0.00000000   0.00000000   0.00000000
2823   0.00000000   0.00000000   0.00000000
2824   0.00000000   0.00000000   0.00000000
2825   0.00000000   0.00000000   0.00000000
2826   0.00000000   0.00000000   0.00000000
2827   0.00000000   0.00000000   0.00000000
2828   0.00000000   0.00000000   0.00000000
2829   0.00000000   0.00000000   0.00000000
2830   0.00000000   0.00000000   0.00000000
2831   0.00000000   0.00000000   0.00000000
2832   0.00000000   0.00000000   0.00000000
2833   0.00000000   0.00000000   0.00000000
2834   0.00000000   0.00000000   0.00000000
2835   0.00000000   0.00000000   0.00000000
2836   0.00000000   0.00000000   0.00000000
2837   0.00000000   0.00000000   0.00000000
2838   0.00000000   0.00000000   0.00000000
2839   0.00000000   0.00000000   0.00000000
2840   0.00000000   0.00000000   0.00000000
2841   0.00000000   0.00000000   0.00000000
2842   0.00000000   0.00000000   0.00000000
2843   0.00000000   0.00000000   0.00000000
2844   0.00000000   0.00000000   0.00000000
2845   0.00000000   0.00000000   0.00000000
2846   0.00000000   0.00000000   0.00000000
2847   0.00000000   0.00000000   0.00000000
2848   0.00000000   0.00000000   0.00000000
2849   0.00000000   0.00000000   0.00000000
2850   0.00000000   0.00000000   0.00000000
2851   0.00000000   0.00000000   0.00000000
2852   0.00000000   0.00000000   0.00000000
2853   0.00000000   0.00000000   0.00000000
2854   0.00000000   0.00000000   0.00000000
2855   0.00000000   0.00000000   0.00000000
2856   0.00000000   0.00000000   0.00000000
2857   0.00000000   0.00000000   0.00000000
2858   0.00000000   0.00000000   0.00000000
2859   0.00000000   0.00000000   0.00000000
2860   0.00000000   0.00000000   0.00000000
2861   0.00000000   0.00000000   0.00000000
2862   0.00000000   0.00000000   0.00000000
2863   0.00000000   0.00000000   0.00000000
2864   0.00000000   0.00000000   0.00000000
2865   0.00000000   0.00000000   0.00000000
2866   0.00000000   0.00000000   0.00000000
2867   0.00000000   0.00000000   0.00000000
2868   0.00000000   0.00000000   0.00000000
2869   0.00000000   0.00000000   0.00000000
2870   0.00000000   0.00000000   0.00000000
2871   0.00000000   0.00000000   0.00000000
2872   0.00000000   0.00000000   0.00000000
2873   0.00000000   0.00000000   0.00000000
2874   0.00000000   0.00000000   0.00000000
2875   0.00000000   0.00000000   0.00000000
2876   0.00000000   0.00000000   0.00000000
2877   0.00000000   0.00000000   0.00000000
2878   0.00000000   0.00000000   0.00000000
2879   0.00000000   0.00000000   0.00000000
2880   0.00000000   0.00000000   0.00000000
2881   0.00000000   0.00000000   0.00000000
2882   0.00000000   0.00000000   0.00000000
2883   0.00000000   0.00000000   0.00000000
2884   0.00000000   0.00000000   0.00000000
2885   0.00000000   0.00000000   0.00000000
2886   0.00000000   0.00000000   0.00000000
2887   0.00000000   0.00000000   0.00000000
2888   0.00000000   0.00000000   0.00000000
2889   0.00000000   0.00000000   0.00000000
2890   0.00000000   0.00000000   0.00000000
2891   0.00000000   0.00000000   0.00000000
2892   0.00000000   0.00000000   0.00000000
2893   0.00000000   0.00000000   0.00000000
2894   0.00000000   0.00000000   0.00000000
2895   0.00000000   0.00000000   0.00000000
2896   0.00000000   0.00000000   0.00000000
2897   0.00000000   0.00000000   0.00000000
2898   0.00000000   0.00000000   0.00000000
2899   0.00000000   0.00000000   0.00000000
2900   0.00000000   0.00000000   0.00000000
2901   0.00000000   0.00000000   0.00000000
2902   0.00000000   0.00000000   0.00000000
2903   0.00000000   0.00000000   0.00000000
2904   0.00000000   0.00000000   0.00000000
2905   0.00000000   0.00000000   0.00000000
2906   0.00000000   0.00000000   0.00000000
2907   0.00000000   0.00000000   0.00000000
2908   0.00000000   0.00000000   0.00000000
2909   0.00000000   0.00000000   0.00000000
2910   0.00000000   0.00000000   0.00000000
2911   0.00000000   0.00000000   0.00000000
2912   0.00000000   0.00000000   0.00000000
2913   0.00000000   0.00000000   0.00000000
2914   0.00000000   0.00000000   0.00000000
2915   0.00000000   0.00000000   0.00000000
2916   0.00000000   0.00000000   0.00000000
2917   0.00000000   0.00000000   0.00000000
2918   0.00000000   0.00000000   0.00000000
2919   0.00000000   0.00000000   0.00000000
2920   0.00000000   0.00000000   0.00000000
2921   0.00000000   0.00000000   0.00000000
2922   0.00000000   0.00000000   0.00000000
2923   0.00000000   0.00000000   0.00000000
2924   0.00000000   0.00000000   0.00000000
2925   0.00000000   0.00000000   0.00000000
2926   0.00000000   0.00000000   0.00000000
2927   0.00000000   0.00000000   0.00000000
2928   0.00000000   0.00000000   0.00000000
2929   0.00000000   0.00000000   0.00000000
2930   0.00000000   0.00000000   0.00000000
2931   0.00000000   0.00000000   0.00000000
2932   0.00000000   0.00000000   0.00000000
2933   0.00000000   0.00000000   0.00000000
2934   0.00000000   0.00000000   0.00000000
2935   0.00000000   0.00000000   0.00000000
2936   0.00000000   0.00000000   0.00000000
2937   0.00000000   0.00000000   0.00000000
2938   0.00000000   0.00000000   0.00000000
2939   0.00000000   0.00000000   0.00000000
2940   0.00000000   0.00000000   0.00000000
2941   0.00000000   0.00000000   0.00000000
2942   0.00000000   0.00000000   0.00000000
2943   0.00000000   0.00000000   0.00000000
2944   0.00000000   0.00000000   0.00000000
2945   0.00000000   0.00000000   0.00000000
2946   0.00000000   0.00000000   0.00000000
2947   0.00000000   0.00000000   0.00000000
2948   0.00000000   0.00000000   0.00000000
2949   0.00000000   0.00000000   0.00000000
2950   0.00000000   0.00000000   0.00000000
2951   0.00000000   0.00000000   0.00000000
2952   0.00000000   0.00000000   0.00000000
2953   0.00000000   0.00000000   0.00000000
2954   0.00000000   0.00000000   0.00000000
2955   0.00000000   0.00000000   0.00000000
2956   0.00000000   0.00000000   0.00000000
2957   0.00000000   0.00000000   0.00000000
2958   0.00000000   0.00000000   0.00000000
2959   0.00000000   0.00000000   0.00000000
2960   0.00000000   0.00000000   0.00000000
2961   0.00000000   0.00000000   0.00000000
2962   0.00000000   0.00000000   0.00000000
2963   0.00000000   0.00000000   0.00000000
2964   0.00000000   0.00000000   0.00000000
2965   0.00000000   0.00000000   0.00000000
2966   0.00000000   0.00000000   0.00000000
2967   0.00000000   0.00000000   0.00000000
2968   0.00000000   0.00000000   0.00000000
2969   0.00000000   0.00000000   0.00000000
2970   0.00000000   0.00000000   0.00000000
2971   0.00000000   0.00000000   0.00000000
2972   0.00000000   0.00000000   0.00000000
2973   0.00000000   0.00000000   0.00000000
2974   0.00000000   0.00000000   0.00000000
2975   0.00000000   0.00000000   0.00000000
2976   0.00000000   0.00000000   0.00000000
2977   0.00000000   0.00000000   0.00000000
2978   0.00000000   0.00000000   0.00000000
2979   0.00000000   0.00000000   0.00000000
2980   0.00000000   0.00000000   0.00000000
2981   0.00000000   0.00000000   0.00000000
2982   0.00000000   0.00000000   0.00000000
2983   0.00000000   0.00000000   0.00000000
2984   0.00000000   0.00000000   0.00000000
2985   0.00000000   0.00000000   0.00000000
2986   0.00000000   0.00000000   0.00000000
2987   0.00000000   0.00000000   0.00000000
2988   0.00000000   0.00000000   0.00000000
2989   0.00000000   0.00000000   0.00000000
2990   0.00000000   0.00000000   0.00000000
2991   0.00000000   0.00000000   0.00000000
2992   0.00000000   0.00000000   0.00000000
2993   0.00000000   0.00000000   0.00000000
2994   0.00000000   0.00000000   0.00000000
2995   0.00000000   0.00000000   0.00000000
2996   0.00000000   0.00000000   0.00000000
2997   0.00000000   0.00000000   0.00000000
2998   0.00000000   0.00000000   0.00000000
2999   0.00000000   0.00000000   0.00000000
3000   0.00000000   0.00000000   0.00000000
3001   0.00000000   0.00000000   0.00000000
3002   0.00000000   0.00000000   0.00000000
3003   0.00000000   0.00000000   0.00000000
3004   0.00000000   0.00000000   0.00000000
3005   0.00000000   0.00000000   0.00000000
3006   0.00000000   0.00000000   0.00000000
3007   0.00000000   0.00000000   0.00000000
3008   0.00000000   0.00000000   0.00000000
3009   0.00000000   0.00000000   0.00000000
3010   0.00000000   0.00000000   0.00000000
3011   0.00000000   0.00000000   0.00000000
3012   0.00000000   0.00000000   0.00000000
3013   0.00000000   0.00000000   0.00000000
3014   0.00000000   0.00000000   0.00000000
3015   0.00000000   0.00000000   0.00000000
3016   0.00000000   0.00000000   0.00000000
3017   0.00000000   0.00000000   0.00000000
3018   0.00000000   0.00000000   0.00000000
3019   0.00000000   0.00000000   0.00000000
3020   0.00000000   0.00000000   0.00000000
3021   0.00000000   0.00000000   0.00000000
3022   0.00000000   0.00000000   0.00000000
3023   0.00000000   0.00000000   0.00000000
3024   0.00000000   0.00000000   0.00000000
3025   0.00000000   0.00000000   0.00000000
3026   0.00000000   0.00000000   0.00000000
3027   0.00000000   0.00000000   0.00000000
3028   0.00000000   0.00000000   0.00000000
3029   0.00000000   0.00000000   0.00000000
3030   0.00000000   0.00000000   0.00000000
3031   0.00000000   0.00000000   0.00000000
3032   0.00000000   0.00000000   0.00000000
3033   0.00000000   0.00000000   0.00000000
3034   0.00000000   0.00000000   0.00000000
3035   0.00000000   0.00000000   0.00000000
3036   0.00000000   0.00000000   0.00000000
3037   0.00000000   0.00000000   0.00000000
3038   0.00000000   0.00000000   0.00000000
3039   0.00000000   0.00000000   0.00000000
3040   0.00000000   0.00000000   0.00000000
3041   0.00000000   0.00000000   0.00000000
3042   0.00000000   0.00000000   0.00000000
3043   0.00000000   0.00000000   0.00000000
3044   0.00000000   0.00000000   0.00000000
3045   0.00000000   0.00000000   0.00000000
3046   0.00000000   0.00000000   0.00000000
3047   0.00000000   0.00000000   0.00000000
3048   0.00000000   0.00000000   0.00000000
3049   0.00000000   0.00000000   0.00000000
3050   0.00000000   0.00000000   0.00000000
3051   0.00000000   0.00000000   0.00000000
3052   0.00000000   0.00000000   0.00000000
3053   0.00000000   0.00000000   0.00000000
3054   0.00000000   0.00000000   0.00000000
3055   0.00000000   0.00000000   0.00000000
3056   0.00000000   0.00000000   0.00000000
3057   0.00000000   0.00000000   0.00000000
3058   0.00000000   0.00000000   0.00000000
3059   0.00000000   0.00000000   0.00000000
3060   0.00000000   0.00000000   0.00000000
3061   0.00000000   0.00000000   0.00000000
3062   0.00000000   0.00000000   0.00000000
3063   0.00000000   0.00000000   0.00000000
3064   0.00000000   0.00000000   0.00000000
3065   0.00000000   0.00000000   0.00000000
3066   0.00000000   0.00000000   0.00000000
3067   0.00000000   0.00000000   0.00000000
3068   0.00000000   0.00000000   0.00000000
3069   0.00000000   0.00000000   0.00000000
3070   0.00000000   0.00000000   0.00000000
3071   0.00000000   0.00000000   0.00000000
3072   0.00000000   0.00000000   0.00000000
3073   0.00000000   0.00000000   0.00000000
3074   0.00000000   0.00000000   0.00000000
3075   0.00000000   0.00000000   0.00000000
3076   0.00000000   0.00000000   0.00000000
3077  -2.36888057   3.49124437   3.07696192
3078  -1.30565358   2.37584310   0.92667275
3079   1.82747095   1.27472333  -3.99728622
3080   5.43760487   5.64680324   1.28411405
3081  -4.35067751  -4.67548214  -3.80896353
3082   3.73989267  -0.43262008  -2.48894380
3083   0.90318693   4.28908873  -2.97495631
3084  -1.73652712   1.83292396  -0.10590941
3085  -6.04389649   2.98172718  -1.28590223
3086  -7.96652357  -1.50385138   7.43314248
3087  -2.21577545  -2.61168289   5.50461358
3088  -6.01389916   1.13676323  -0.53254046
3089   0.84020918  -0.38794471   5.27757342
3090   3.05746937   3.80624816  -2.69270441
3091  -0.78803677   7.19317011  -7.89433822
3092   1.06276847   4.74425082  -1.99522774
3093   5.28151175  -2.57864680   4.77324558
3094   0.25884920   4.56761583  -1.67978172
3095  -0.68205270  -0.34765039   3.96264855
3096   0.30693895  -7.18868072  -2.87624407
3097   1.56726239  -2.98025179   0.19279186
3098  -2.90820049  -1.96204820  -2.82178859
3099  -4.01164044  -1.73467558   4.45908906
3100   2.92601991   0.28884137  -0.32877381
3101  -3.81073740  -4.35764691   5.01139279
3102  -7.17625367   7.72230497   2.62799316
3103  -2.33034917  -3.91454205   1.75189925
3104   2.98133232   3.91682838   0.90021804
3105  -2.25068831  -0.44815488  -5.33340098
3106   0.38915298   8.00822114   3.62530450
3107  -1.44776259  -7.35852969   1.87888365
3108   4.38380598  -6.09270455   1.75849449
3109  -0.78753130   7.29564854   5.26878730
3110   3.70281129  -2.82331626  -1.85852260
3111  -3.16745754  -3.52572394   2.16306685
3112   3.81666612   4.04336696  -2.68415443
3113  -9.84233331   1.23041540  -3.71367476
3114  -0.25550424   8.37891088   3.00183819
3115  -1.16159340  -0.23659907   0.05756940
3116   1.40431928  -4.38685573   1.25942456
3117   0.42155710  -2.69627947   2.00299454
3118  -0.34275453   1.02784206   0.91571622
3119  -0.36718359  -2.58294007  -4.70826693
3120   1.38957206   0.22306441   3.53235809
3121   5.32653669  -1.83932822   1.54169422
3122   4.89121661   5.93608229  -4.70738086
3123   0.18779000  -2.42020207   4.96808370
3124   4.01324138  -2.38910544   5.45925635
3125   9.61179972   1.14618473  -0.91556300
3126  -4.21938717   1.08583372   2.97048284
3127   7.29970458   2.30231354   0.73518145
3128   4.44565242  -2.34032550   3.99005737
3129  -0.11720402   5.11904545   3.12296138
3130  -4.77710618  -6.05304398   4.21783906
3131  -0.37103235  -0.43868266  -2.19509658
3132  -3.43545151  -1.85216269  -3.53120512
3133  -2.20011102  -7.85456010   1.80666486
3134   3.42845282  -0.41471571   1.55503592
3135   6.90102190  -5.51631385  -2.09872200
3136  -4.59174943   0.78342009   6.12305776
3137 -13.29171913  10.29665775   2.11103552
3138  -1.07230226   3.76920919   3.55122515
3139   4.83100458  -2.11090774   5.13249959
3140  -3.13061765  -4.94783545  -2.38713047
3141   0.14172638  -0.10984379   4.67621942
3142   4.20403737  -2.18048525  -6.14284273
3143   4.79099206  -1.53935476  -0.81757938
3144  -3.40505845   1.85178000   3.94225580
3145   1.31167618  -4.99570656  -1.32302613
3146   8.46755144  -4.50659996   4.74217871
3147   5.58414268  -1.51669608   6.76303814
3148   4.58982507  -2.94527290  -6.65161937
3149  -5.64568806   0.91296145   1.38403369
3150  -7.49279431  -1.71690340  -1.34549862
3151  -1.55390387  -0.23052055   2.98873393
3152   5.48006539   5.47932390  -1.35841835
3153  -4.07664577  -0.50049856  -1.28378129
3154   0.33325162  -2.21608593   1.51495006
3155  -1.64130646  -1.48237137   3.23933822
3156  -0.21910559   2.53022904  -3.22394091
3157  -0.67964598  -3.67209157   5.87611391
3158  -0.46983616   9.07479873  -1.82422928
3159  -4.29084639  -2.13791925   5.25301754
3160   6.91767311  -2.49893356  -8.57961511
3161  -0.71787402  -2.42841232   4.87551952
3162   1.49322217   1.80613716   7.41263096
3163   3.23926429   0.68987105   4.01524943
3164   1.87558442   1.20217375   3.21083637
3165   1.42612824   3.63950616  -1.73614454
3166  -1.70565996   1.86019220   1.77055895
3167  -2.01230625  -5.93382854  -4.76723869
3168   5.79008568   2.87162739  -2.17748022
3169   4.82869505  -1.63979919  -0.56943854
3170  -7.64964007  -3.32199400   1.51797204
3171   2.38362774   0.48105206   4.28689090
3172   0.45376548  -4.91705366  -2.89691739
3173  -0.72457196   0.31537082   5.90032870
3174   0.00191222   3.89628036   5.41605324
3175   7.73841351  -2.86831119   5.84712584
3176   1.81072268  -1.51898276   7.17848468
3177  -6.53030848   2.05392097  -3.81199561
3178   1.54362833   2.89684028   0.60331159
3179   5.39471249  -1.78430832  -1.04775827
3180   3.90326783   4.57892634  -5.60431157
3181  -2.14823957   5.57651673  -4.93354008
3182   1.00970086   2.34012566  -0.38967124
3183  -7.18847110   3.79648868   7.39079784
3184  -4.17329454  -0.47225319   3.33343285
3185   3.40327580  -5.00658405   5.05396166
3186  -2.55122378   1.58142912   3.10796709
3187  -1.99379446  -1.08671077  -0.48264908
3188  -1.85517389   3.03847885  -1.56995807
3189   0.88711143   4.35952569  -0.27402524
3190  -8.13766635 -12.23675360   6.91804093
3191   1.47401859  -8.90118373   1.38746172
3192   2.33274486   6.94292057   1.51890492
3193  -5.15514154  -4.36084447  -3.50531688
3194   1.17284925  -1.93856162   2.37577413
3195   2.70537181   9.19834780  -7.12986013
3196   6.55685135   2.91885225   4.11072688
3197   1.71376153   2.08429121  -1.29313458
3198  -1.55856648   4.29449543  -1.41857534
3199   1.33540534  -8.41679901   4.19233452
3200  -2.99576478  -4.80390314   1.13846522
3201  -6.29258268   2.15102120  -3.99824231
3202  -0.21888290  -5.87293637  -2.81055727
3203  -3.21975722   1.63715912  -4.18409105
3204  -4.88983842   3.22519388   5.57214491
3205  -3.01444396  -3.79809081   4.49939844
3206   0.15610287  -3.06940381  -6.69239435
3207   4.08835499   0.60507890   3.40238908
3208   0.35601269  -4.25835824  -1.82035310
3209   1.94343410  -0.68443622  -2.25064831
3210   6.12538822  -3.25770162   2.18183616
3211   0.81792072   2.49441712  -2.69687996
3212   2.17073859  -1.78146011   0.31006889
3213  -3.53343432   1.78020854  -4.63112517
3214  -1.75413284  -2.01328068  -1.44726431
3215   4.23247571   2.42494657  -2.82536925
3216  -0.04868909  -0.49587178   3.26888921
3217   0.10850712   0.74161874   0.46779737
3218  -0.87812527  -2.05785874   0.76699403
3219  -6.01661985   8.84882762  -0.18891311
3220   0.73225150  -4.14874457   4.80416128
3221   5.30140703  -0.94158523   3.80959200
3222  -3.92663608   2.68304651  -3.00748008
3223   0.37306818  -4.43945956  -1.08072061
3224  -5.09178594   2.85000410  -4.96889177
3225  -4.82229555  -4.38807395   1.69278089
3226   0.34543058   9.27776581   1.64717739
3227   0.84352897   0.56421897   2.79803512
3228  -1.39093807  -2.75137292   3.75473022
3229  -0.81384141  -3.63142788   1.88556011
3230   9.59123070  -5.78867819  -0.60307874
3231  -2.41866557  -8.68304402  -0.95129492
3232   6.46369706   8.69893827   1.17644286
3233   4.72837408   1.66161222  -2.76200088
3234   5.36327555  -2.43794400  -0.98641018
3235   0.54848362  -5.36441108   5.09893040
3236  -4.24235368  -2.90457097  -0.57096348
3237   3.98954845  -1.59805703   3.45269897
3238  -0.95168879   0.06780754   1.71767818
3239  -1.50485316  -2.01025861   1.34702708
3240   0.42863895  -8.11736722  -3.96716341
3241   0.81398825   1.67343731   2.93935424
3242   2.18716243  -3.95366475   6.58782234
3243   1.97284357  -3.66865674   6.46371877
3244  -4.23640418   1.98189210  -0.60104542
3245  -1.25612485   4.15237561  -2.13445823
3246   4.96177232   3.25222420   0.48832898
3247  -0.09603279  -1.65037419   5.31527123
3248   2.74796882   0.04137098  -1.64492681
3249   0.38238208   3.06816302   9.19380997
3250   4.51909174   4.47357305  -6.78370666
3251  -2.79109557   0.67725561  -3.45112491
3252  -1.40805720  -0.34791831  -4.67162928
3253  -0.16714239  -5.45619301  -2.87219518
3254  -5.21690516   0.64527947  -0.97459241
3255   6.65486486   3.20540863  -1.23368543
3256  -2.21624057   2.30834193   3.72788662
3257   0.15519987   2.13722900  -4.27754293
3258  -3.92454740  -1.33009387   5.15406167
3259  -4.36419630  -1.33826809   9.63071287
3260   1.37751685   2.22923144  -0.30820214
3261  -2.01190127  -1.14426681   6.50443728
3262  -1.62617914  -3.93788372  -0.11131705
3263   1.66783273  -0.56021210   9.84457204
3264  -2.88844815   0.51632104   1.32709476
3265  -5.54113234  -3.89364841  -3.89075017
3266   2.16973939  -1.63429606  -1.66876773
3267  -0.75339368   1.32831796  -5.12640549
3268   5.88974714  -0.85470874  -0.07327531
3269  -5.71472951   5.37309399   4.58694636
3270  -1.31574211   2.12009701   3.03458141
3271  -1.90864397   1.71824926  -1.66217411
3272  -2.60809821   7.93180209   1.08765322
3273   1.40073145  -6.33926979  -7.86409622
3274   0.03005683   2.02889130   3.30265498
3275   2.06348349  -1.27442928   8.16950687
3276   3.94671768  -4.56332308   7.25927882
3277  -2.39922400  -3.54193376   1.19536077
3278  -7.05634331   1.14982484   5.31902478
3279   4.01392473  -3.00674484  -7.56436488
3280   8.44807831   3.43359644  -6.40843038
3281  -5.01955081  -5.78751949   1.27912836
3282  -1.23544173  -0.17958771  -1.36766687
3283   1.91378686  -2.22955214   3.88379098
3284   8.03263226   3.11140396   4.17961448
3285  -2.29733963  -0.62371979   6.61342493
3286  -6.26417772   3.65250274  -3.25460337
3287   1.72820387  -3.18482529  -2.35158835
3288  -0.78041356  -7.62806865   6.31260912
3289   3.18015472  -3.96000724   4.08706374
3290   3.14964254   1.82227467   3.04069169
3291  -1.23235496  -6.50978206  -1.05679908
3292   2.12646263  -1.33219647   5.16213525
3293   5.07860387   0.20675666   2.87872290
3294  -3.77074037   3.33776869   1.59806873
3295  -1.09640023  -1.17153072   3.63128235
3296  -4.31293827   1.57782311  -5.69624134
3297   1.11020569  -7.31426506   2.28808879
3298   3.44715165   2.81354660   0.36005691
3299  -2.66955935  -0.54036632   5.03428476
3300   2.61975034   3.96366178   6.50567301
3301  -1.29989846   2.91826489   4.86022717
3302   0.09500479  -2.78045372  -3.56508936
3303  -0.93490929  -0.74660349   1.66962347
3304  -4.89191361   0.62075734   1.61245463
3305  -0.20671039  -3.36722084  -5.05349756
3306  -5.14763974   0.55665406  -2.40546850
3307   3.25338451   4.67276999   2.21135221
3308   1.49641002   0.06795978   0.55532055
3309   4.17158429  -0.81368357   4.71902816
3310  -6.36626537  -2.13116309   5.04632240
3311  -0.49851717   3.97323042  -1.48857701
3312  -2.65865797  -0.30441542  -3.00432098
3313   2.43514288   1.26636941   0.67503957
3314   1.76381872  -1.10212708  -5.87699227
3315   2.99703306   4.78374477   1.02909851
3316  -1.18759620   2.45448093  -1.24581464
3317  -3.93827514  -4.41200889  -2.13460967
3318   5.68429064   2.46230524  -5.77439460
3319   0.94948204   0.11912116  -5.48944054
3320  -1.15645307  -0.12849565  -1.73531101
3321  -5.76205311  -1.38135879  -0.34660417
3322  -1.55872306  -3.44813761  -6.49522304
3323  -1.22576409  -8.09499578   0.30448028
3324   0.57563725   1.45562787   6.93129716
3325  -1.76170753   1.64932977   3.71365260
3326  -3.33707580   8.29001269  -0.70530953
3327   0.73168221  -4.42639165  -5.97514097
3328  -2.08093594  -1.76041165   6.65247780
3329   5.49029043   1.53112211  -0.08512798
3330   1.31905757   6.39746515   3.67141554
3331   1.86408766  -0.27343182   2.91342338
3332  -2.28862421   0.41862829  -0.91985735
3333   2.99370974   0.78941875   6.30717836
3334   0.02003416   2.05085885   0.11067869
3335   2.17862336   2.54631592   1.69911508
3336  -3.12071062   0.27677543   3.71876460
3337   2.96775863  -3.10713210   4.83598240
3338  -2.20109465   2.02783922  -1.11229181
3339   3.55796096  -0.71941247   1.90859890
3340  -0.09002260   0.61459598  -1.27908301
3341  -7.15379037   6.70429789   0.93122334
3342   2.81681272   4.87522815   5.37172329
3343   2.91439271   1.12295233   1.26753950
3344 -12.62732220   2.81008311  -3.12613930
3345   5.05143992   1.39619722  -5.81222880
3346  -1.92170526   1.67655547  -3.53847136
3347   0.62148884   2.04327666   6.17372006
3348   2.71288509  -1.59947282  -3.70740957
3349  -0.15384334   6.91181302   4.60197811
3350  -0.74944402  -3.92421924  -5.36416957
3351  -2.75518124   2.44054077   3.40668589
3352  -0.84059890  -0.80966478  -4.55752995
3353   6.87077136  -1.43923151   4.45920390
3354   5.49373255  -6.23074597   3.98132174
3355   3.51172324   3.58000682   2.24908461
3356   3.36118537   4.35204334  -5.45185752
3357   2.32761672   1.27603422   1.65747763
3358   4.39636506   1.79230352  -0.94268536
3359   3.41902467   3.94603386   6.91315741
3360  -2.13825951  -0.51781339   3.84235440
3361   2.48937548   2.99992284   4.14721859
3362   1.24040590   6.67363476  -6.22334793
3363  -0.67758317  -0.82337779   2.55664180
3364  -1.79958446   0.71675759   2.08744320
3365   6.01043964   1.58311644   0.43881302
3366   1.42779706   1.68059819  -6.53971643
3367  -8.45831198  -0.02532481   0.35859547
3368  -1.63668969  -3.23464336  -4.97380258
3369  -0.88509326   2.49214771  -0.45478807
3370   4.81431549 -10.57523287   6.38710305
3371   4.87438283  -1.46122279   4.82063232
3372  -1.64623801  -2.89503004  -3.77584093
3373  -7.31931592   5.06885450   0.41861365
3374  -3.35503401   3.44847383  -1.02712994
3375   2.36030511   5.47421602   1.87895606
3376   3.00907397   3.92864098  -8.16088239
3377  -7.54403124   0.89606314  -0.49907141
3378  -5.23377372  -2.03865708   1.88332762
3379   1.54571367  -4.62518719   1.79327633
3380   0.24576988   5.86160298   5.73998953
3381   1.53860138  -0.46316970   2.70692657
3382  -2.76082862   3.74169818   4.00533358
3383  -0.75636645  -8.33071180  -4.68478854
3384  -3.29709467  -6.36393134  -1.05699406
3385   2.92691832  -4.53743655   0.98468206
3386  -0.94855010  -3.07729993  -2.23053892
3387   1.11010463  -0.03995176  -1.99289915
3388  -7.18165951   2.49766285   6.35509844
3389  -8.55875942   2.08209510  -2.70508668
3390  -2.54716947  -3.81134182   0.95629212
3391  -1.36337590  -8.76784568  -1.85516147
3392   4.25671256   1.15177175   0.47315737
3393  -3.29727097  -5.55559016   5.01372726
3394  -5.25805050  -0.52006184  -1.54470857
3395   6.33438844   0.02062199   1.37477798
3396   4.21408978  -0.67306709  -0.19177565
3397  -0.76061015  -3.31473260   0.73994157
3398   0.33595534   0.68118817   0.30551838
3399  -4.03165372  -1.90655467  -0.92276858
3400   0.69157164   2.80870107  -1.99820507
3401   5.17960473   1.61831670  -6.11944129
3402   1.06139919  -0.54684140   2.43407959
3403   7.82588290  -4.81141997   3.36981438
3404   3.48466812  -0.71373745  -3.42060752
3405   2.28562205   1.42248498  -2.80192366
3406  -0.47893941  -1.20604246   3.67449228
3407  -4.40967999   4.73669148   3.73890917
3408  -3.17861803  -0.49734002  -0.89386898
3409  -0.10530441  -0.65781384  -1.63434861
3410  -0.10977568  -6.41694089  -3.45594225
3411  -6.26892247  -2.42193768   0.66032832
3412   4.59231962  -0.33965672   1.97799566
3413   2.69234340   3.26797246   2.74722624
3414  -1.39305152   2.84953252   0.20635076
3415   4.53794509   0.64155964  -5.28927151
3416   2.09190186   1.44255009  -3.56225201
3417   2.82111178   2.40866835  -0.84614237
3418  -3.03420742  -2.32423374  11.33564993
3419   5.66144568   3.02761043   4.94804436
3420  -0.37797174   4.20260751  -0.31110690
3421  -3.97604768  -2.08423001  -6.02786713
3422   4.83521769  -1.93468603   1.02169674
3423   0.55910011  -6.17709966   3.55549114
3424   0.99088894   4.75252967  -6.64862544
3425  -2.64987709   6.06520861  -3.90603558
3426   0.00508675   1.00746761  -2.09816004
3427  -2.73524287   1.53738471   5.45470255
3428   4.05348182   0.69096334  -2.16235524
3429   5.83435008   5.47385945   6.03836433
3430   8.84758677  -7.03827114  -1.38893660
3431  -6.43630202  -7.38701458  -2.46430590
3432   6.06375919   0.87780171   0.03004042
3433  -0.38329715  -7.15965152  -0.20109336
3434   1.21866697   2.33672136   3.67946885
3435  -1.06728633  -0.08438169  -5.04727587
3436  -2.95784145   2.62845452  -3.32298789
3437  -0.04394864  -1.53450681   2.10434274
3438   2.25735712   1.09166721   2.16249775
3439  -0.24106723   6.57560901   1.76795547
3440  -5.46389042  -6.72001289  -1.21676175
3441   3.39032924  -0.05797549  -2.48225806
3442   5.66525005   5.14275727   4.18064673
3443   5.25382829   5.77033840   0.82021065
3444   1.99810526  -1.11505128  -2.45021178
3445   6.53950677  -2.32576875   1.46059138
3446  -2.68648999   4.35788907   5.39196903
3447  -2.78538633  -1.76869035   4.21307105
3448   9.17087774  -0.10284569  -2.52071241
3449   0.35248888   2.73211761  -0.01546646
3450   2.68253832  -0.63328795  -1.84415561
3451   0.15724135   3.58595482   5.47858333
3452  -0.43165815  -0.36467771   1.12842502
3453   7.97715707  -1.97637426  -0.59046379
3454   4.62431066  -0.16680068   2.79342117
3455   4.94549648  -0.94820238   9.61041658
3456   3.41759097  -1.45779116   6.07700993
3457   0.46924709  -2.76493858   1.43965791
3458  -0.98235786   1.71578822   0.67124724
3459   6.97491068   4.01180279  -0.93815395
3460   7.68266889   1.14803942  -2.87852337
3461  -1.65863361   3.65788029  -1.40335300
3462   0.95768801   6.11556776   8.02986469
3463  -0.69037418  -4.89536884  -0.36657857
3464   0.92131885   4.00499018   0.78769733
3465   4.83680775   1.07124603  -2.55037586
3466   4.37330393  -1.89715047  -1.06710470
3467   7.53993774   5.54519676   1.48091333
3468  -3.22878835  -2.40528137   3.93849432
3469  -3.57123537  -3.88192447   5.97243588
3470   0.00312510   0.10011130   2.09592141
3471   0.43381997  -1.97720128   0.76469608
3472  -3.67533501   6.16541479  -4.55083093
3473  -5.77523773   3.07122233   2.56361514
3474   2.21721473  -0.45147714   0.97319544
3475  -2.18862798  -1.40100834   0.19269297
3476  -2.09837883  -1.95890240   1.13728329
3477   7.50152154  -8.53755628   4.65848136
3478  -8.32542744   1.19702082  -2.74618671
3479   0.55264043  -1.89938743  -6.80662391
3480  -5.11549487   2.38618436   0.28556023
3481   3.18668706  -0.39281713   6.01069007
3482   1.62781121  -2.39078485   2.38276139
3483   5.19901044   1.74687605  -5.98834982
3484  -4.66208063  -1.31457672   1.55771041
3485  -6.11379639   3.61343018   6.29683946
3486   3.04156986  -2.43347957  -3.65004122
3487  -8.32697496   4.43064705   0.47939818
3488   2.74597363   0.05867543  -2.21551133
3489  -1.72861800   4.08657444   2.27962473
3490   2.46573543  -3.03129979   5.08837180
3491   6.61246218   5.58369043   4.74805226
3492   8.85092207  -0.57573512   0.92660564
3493   3.83939399  -1.59081220  -5.42077987
3494  -0.46299114   0.48749482  -0.27193384
3495   1.54826359   3.64414503   1.48794069
3496   2.47954071   3.59132947  -3.08144760
3497   2.93494274  10.02227480   3.47734036
3498   4.09715695   3.61208129  -4.58492905
3499   4.09983625  -1.53406690   6.84232072
3500   4.07343544  -5.53828323  -9.60193897
3501   1.50471324   2.78029539   2.18612459
3502   5.26918925   4.86859411  -3.32172451
3503   0.96473846  -3.27235189   0.22814655
3504   5.75022362   2.39360874  10.31093358
3505   4.58455051   1.77105004  -1.31987975
3506   2.25088971   0.37390910   1.79609526
3507  -4.92107915   3.48058631   2.06430158
3508   0.46572734   4.25653547   2.64244909
3509   5.30095995   1.25263711  -2.65926107
3510  -6.58399303  -2.80542171  -0.24876564
3511  -6.73577337  -2.39432223  -0.51213174
3512  -2.39808750   2.16143436  -1.93237317
3513  -9.12706583  -1.60176851  -0.88023855
3514  -1.95362750   6.34168878   1.08652759
3515  -2.16095053   2.89913261  -0.34274870
3516  -7.08476322  -1.70337696   3.27341623
3517  -1.05822825   0.28687761  -6.93528925
3518  -2.34415102   0.52821903   1.42300653
3519  -1.21634965   1.47382236  -1.40438073
3520   4.49886942  -0.63843955   4.24275447
3521  -0.80454408  -0.60938231   4.74134816
3522  -7.50587022  -7.58520084   3.64941138
3523   0.87126024  -1.94899082  -1.59639705
3524  -0.13178102   1.50823118  -1.82643792
3525   7.05668070  -2.84344207  -1.93678822
3526  -1.88949693   6.06122154   1.97663580
3527   3.22654980   2.32094850   0.78491649
3528   6.63886565   5.32330146  -2.96383357
3529   2.32929253   4.50693033   4.71102970
3530   1.42827799   0.48777962  -3.34780996
3531   3.45343861   1.63512882  -2.44376301
3532  -2.05958440  -3.86567983   7.96393923
3533  -0.50353013   2.83253380   1.40021876
3534   5.26571220   2.92128697   0.66592661
3535   2.66166044  -3.47751198  -2.16517878
3536   1.29970823  -5.73396378   4.49287493
3537  -2.83796242  -2.34614912  -6.32182234
3538  -0.85383853  -0.42402778  -5.50292616
3539  -4.52410980   3.49532578  -3.63706436
3540  -6.54171754  -1.80199901  -2.28197710
3541  -3.33253613  -0.67181200  -6.01195459
3542   1.79015593   2.66164806   0.08432243
3543   1.56990014  -3.78640236  -8.51043396
3544   2.10506326  -1.35857313   6.59098774
3545   1.70751563   5.03176003   3.44015494
3546  -3.36970881   0.01006937   6.54439140
3547  -1.80310707  -4.30172125  -6.58686009
3548   3.90247695   9.17330159  -0.76404640
3549  -2.84157945   3.29645797   0.85195143
3550   6.36469191   2.79509284  -7.71110636
3551  -0.20218156   0.97518935  -2.58968647
3552   3.90570021   6.28293976   0.85979067
3553  -0.95146807  -0.89435033  -3.29608692
3554  -2.20385497   6.21666590   4.87231372
3555   1.58552439  -5.95981290  -9.05439418
3556   5.32404310  -0.77117904 -11.85225539
3557   2.87139696   0.88990549   0.44073806
3558   1.01521201   5.46869481  -6.50108684
3559  -1.27689293  -2.31622154   1.61486867
3560   4.43479154  -7.91928175  -0.20432892
3561  -4.32675672  -2.95190554  -5.87750848
3562   3.54543945   0.45562334  -8.76974267
3563  -3.61841536   0.35512581  -2.88931460
3564  -0.54032822   3.18173095  -4.19961360
3565  -1.12095656  -1.27432272  -2.25254656
3566  -4.86780519   1.57064211  -2.65637295
3567  -3.43457688  -2.63666421  -5.00866816
3568   0.80239034   0.19172861  10.10287312
3569   5.10120804  10.70046693   3.29879977
3570   0.56672865  -0.30645244   6.19693782
3571   2.97444790   4.57402351  -2.01592844
3572  -7.93250525   2.53380042  -0.52898554
3573  -0.94693309  -0.97460146  -0.14153515
3574   7.77705427   2.09301279  -0.26325876
3575  -6.03371373   1.50672180  -4.97497690
3576  -2.18603365 -10.54625235  -3.87672099
3577  -0.10181946  -2.72276185   0.30627571
3578   2.30239742   2.04680686  -3.75654325
3579  -0.48398547  -0.91739106  -0.39425044
3580   0.39975576   0.98313156   4.48683717
3581   2.22673260   0.44522083   2.39201066
3582   0.57267632  -2.87893853   0.94677462
3583   1.20566243  -5.54836533   7.43231661
3584  -1.54906263  -0.19241210   4.08344943
3585   6.57389234  -1.08212295 -11.17523914
3586   1.79125889   5.66328028  -1.73149057
3587   5.01284885   6.04661561   2.32264152
3588   1.63237236   3.47122970   3.11027489
3589  -2.21737373  -4.81377883  -3.68704613
3590  -1.89434639   3.31634382  -1.89757111
3591  -4.53771090   2.23689728  -2.42505702
3592  -3.41352504  -4.90732491   1.49008974
3593   4.42177433   1.51657080  -3.93888833
3594   4.19797689  -6.64998326  -0.06345527
3595   0.45855663  -5.81225209   2.53831801
3596   1.28665714  -2.54493434  -1.26471869
3597   1.59770060   2.89477741   0.84632313
3598  -5.62108862   6.04692865  -4.81287837
3599  -3.91238277   2.67631907   0.65169184
3600   0.06510623  -4.03578900   7.27573621
3601   1.62649314  -0.90673512  -5.41088388
3602   8.12385544   4.66930103   4.70943946
3603   1.78107115   1.10076499   2.17542859
3604   3.97759363   6.12437861   5.89596790
3605   2.13916561   1.29950250   9.04398297
3606   0.11922232  -0.36540543   3.62526411
3607   0.07925920  -0.07897486  -3.37524162
3608  -6.95037730   4.66989189  -3.43642733
3609  -2.05832617  -6.71703547  -3.61293614
3610  -3.48259055  -0.13930516  -0.10279067
3611  -1.28090477  -3.86651957  -1.33732299
3612  -0.99513617  -2.69066965  -8.06067548
3613  -0.96745386   0.47334129  -0.66347775
3614   0.72856738   5.94416531   4.11078912
3615  -3.73234821  -3.75832886  -7.70727537
3616  -1.95598379   0.35805971   5.39271060
3617  -2.82968673  -2.44502606  -0.39582487
3618  -4.81645245   3.12417242  -4.56419564
3619  -4.35982867   5.03820372  -1.26436523
3620   0.21819239   2.17239789   4.38222113
3621  -2.64450038   1.78419764  -0.80960647
3622  -1.30046985  -3.63516508   5.16956019
3623  -3.25577427   3.45685536  -1.31093140
3624   6.75670448  -1.21776750   6.51473252
3625   1.99634904   7.99981227  -3.09395276
3626  -0.97288595  -2.99541865  -1.60485249
3627   3.76219083  -0.74363789  -1.34629123
3628   0.33466986  -4.79701894   9.00278732
3629  -1.29779971   3.74548326   1.19969925
3630  -0.33398568  -4.05007736  -3.08977312
3631  -3.55468721  -1.86379567   2.67062126
3632   8.19144048  -2.08727590  -2.81281732
3633  -3.11366990  -4.58620106   5.45134376
3634   3.75770621  -2.57268894   3.39532723
3635  -1.66638890   0.69218680  -5.64233272
3636   8.47010262   7.29298063   1.38380369
3637   7.69473522   0.69197874   0.72739021
3638  12.18368874  -4.23071424   3.71426729
3639   3.16957691   4.89155351  -1.88422443
3640   2.68625180  -6.98323293  -3.92836150
3641   3.46314982  -4.69572087   0.19278877
3642  -1.84672979  -2.68616749  -1.96413431
3643 -11.62214621   4.68378914  -4.22758946
3644   0.83180563   0.20602073   0.84712037
3645  -0.36146309  -2.80151186  -6.17792489
3646  -4.40831641   3.03847669  -3.52709425
3647  -1.26205592   0.26668084  -4.23516693
3648  -3.88080704  -2.06984402  -1.98764551
3649   0.63330969  -2.09582506  -1.50490843
3650  -4.17983836  -1.96987019  -1.70510523
3651  -0.68552472   0.13238603  -1.24880926
3652  -1.56996514   1.14938248  -3.73140370
3653  -0.68459972  -1.23879197   2.11159936
3654  -1.64503993  -2.17597016  -3.31173651
3655  -1.57815253   5.31373098  -0.14688699
3656   2.38040185   2.26291999   3.33254187
3657  -1.01722993   7.07838493  -0.98634995
3658  -0.25264791  -6.09767043   1.81339106
3659  -2.81987359   7.22805422  -3.21596960
3660   0.00416870  -6.81020630   2.65487064
3661   0.22911517  -2.66285589  -3.33821818
3662   0.73599930  -2.87804707   3.32468530
3663   5.43348937   0.02044361  -2.20437970
3664   5.62212520  -3.71825085  -1.78480798
3665  -3.39110221  10.00949570  -4.60477662
3666  -4.98092905   1.03249690   9.90580959
3667   2.62097820  -0.92970880   0.54137039
3668   2.29256691  -1.36596970   3.77307363
3669  -2.89795876   2.38880952  -5.54386482
3670   3.39674579   3.83316834   7.38002887
3671  -4.66275304   6.32376223  -2.28063111
3672  -2.99633910  -0.17091192  -3.10559199
3673   0.09761661  -1.91243705  -6.14017208
3674   3.50156828  -1.40456807  -2.27536763
3675   4.64543367   2.70524212   2.40697051
3676  -4.06309061  -1.29961097   1.64156446
3677  -0.41914331   1.57009943  -0.56290388
3678   0.34056105   0.32269518   2.04112476
3679   6.05006477   0.93554394   0.61836025
3680  -2.69613941   2.61176764  -2.12328081
3681  -1.88569171   2.54812381   1.05832684
3682  -1.93228872   5.68870335   4.27180024
3683   0.80131151   1.38673377   5.63309670
3684  -1.59733845   3.95733273  -4.51708470
3685  -1.53570614   2.91016212  -1.26472669
3686   1.87335880   0.31012725  -6.13455056
3687  -1.37017765  -4.36602165  -3.30372499
3688   3.64410706   2.63853851   4.14260862
3689  -0.75016101   0.22610246   2.76706093
3690   0.18589737   0.94558850  -3.71457936
3691  -4.10768965  -5.11749994   2.05901477
3692   6.46517022   3.52781723  -2.46901408
3693  -1.09664018  -1.76808760  -0.50300438
3694  -4.84044382   7.15552108   1.38340115
3695  -5.91952414  -0.74394178   9.26524005
3696   0.70685628  -0.93643374  -0.02383738
3697  -4.66394504  -2.96387369  -7.88677232
3698   6.54607656  -0.96798607  -3.12506852
3699   0.86421277   3.57622268   2.82369800
3700  -2.17139791   0.92693754   2.58752833
3701  -2.24932353   6.00567775   0.70735483
3702   1.51462332   0.10037328  -1.49761765
3703  -0.61175002  -1.52130013  -1.35142809
3704   7.80428243   2.01687563   2.92639862
3705  -5.52568322   0.95334470  -5.16036126
3706  -5.23701754  -1.63300872   0.04491000
3707  -0.29062271  -2.09597690  -0.73159888
3708  -0.72389690  -5.11717000  -4.15881284
3709  -1.36934932  -2.95000917  -0.75670844
3710  -0.95537018  -2.27332790  -3.23739803
3711  -2.48572798  14.29266542  -1.75892392
3712  -1.11072636   4.29826401  -1.16884765
3713  -2.07505696   3.82312579  -1.23497538
3714   3.61432949   0.16524676   9.01495759
3715   5.23053592   2.92520146  -1.24212920
3716  -1.01610583  -2.49495657   1.27587953
3717   3.41139091   4.92288635  -8.99860547
3718  -4.33258909  -6.64586720   1.46396361
3719   0.86369264   4.07510666  -3.96257467
3720   4.50708360  -4.94848765  -3.17990700
3721   1.37586794  -0.88930095   0.36647420
3722   7.91479769  -4.80541361  -7.86067811
3723  -8.43213789   0.79766808  -1.75137943
3724  -1.25664283   1.20870118  -3.43675979
3725  -1.25076456   1.47071889  -6.86872121
3726   2.58450820   1.49939266  -4.07239346
3727   2.66235572   7.57808006   6.81445417
3728  -1.94611165  -5.23757725   1.13445537
3729  -0.95210595  -1.05326176  -3.00175341
3730  -2.56658467  -2.61445032   0.72202906
3731   0.18784092  -5.00480849  -1.15821976
3732   7.76045230  -6.88280708   1.47573368
3733   2.08349706   1.02253342   1.07753583
3734  -3.61966012   4.34980156   6.20634476
3735  -9.64311541   0.80345748   0.09928555
3736   4.31857069   3.82508155   3.22182758
3737  -5.27164102   2.03610344   2.20586999
3738  -3.63953976   5.88321953  -0.58344703
3739   7.50118483  -5.28399025  -5.70204686
3740   3.63151290  -3.50749915  -3.74276832
3741   1.59945423   3.45149524  -1.57561530
3742   1.41243255   4.49931386   4.91691761
3743  -2.37106487  -5.59512120  -4.51495630
3744  -3.43404877  -2.56820106   6.04935886
3745   1.50337880   4.11206281  -7.76445045
3746  -5.71979045  -0.53388237  -5.09496486
3747  -2.22963621  -8.53827255   0.08869046
3748  -3.58824336  -0.55686594  -7.53703571
3749  -4.01337017  -5.15032515  -0.12374467
3750   3.53197330   4.19839839  -0.44098476
3751   0.83777602   3.46558772  -5.70158399
3752  -6.79740833   3.63244849   4.64787031
3753  -4.71214285   2.15933281  -3.30534261
3754  -3.04180702 -10.01578481   1.07986436
3755  -3.36460205   5.46056742   3.24561853
3756   8.13030820  -1.90370827   8.20692243
3757  -1.77706498  -0.67204588   5.53085502
3758  -4.04135770  -4.68965961   1.06555505
3759   4.29112427  -4.24444117   0.14155184
3760  -3.41610916  -0.67894460   5.71309838
3761   5.86644044  -2.14592876   8.90375200
3762  -2.11966425   7.27441452  -1.92996401
3763  -4.08232762   4.30838375   5.63951993
3764  -0.52055409  -3.10632343   3.26946641
3765  -5.07463133   3.76705491  -6.45891768
3766   3.15669915   1.18910394   4.39120478
3767  -5.71990500   2.75283693  -4.44894696
3768   8.62212503   0.80615506  -4.51178920
3769   3.44217798  -6.61770512   3.73983198
3770  -0.07049832   2.17419963   4.18388536
3771   0.72638572  -1.59270752   4.26678472
3772   5.39655879  -5.45051829   0.12098458
3773   0.43058696  -1.54617049   2.80034678
3774   0.87651710  -1.52133160  -0.10896169
3775  -4.31611102  -1.37172875  -7.30935977
3776  -2.71244184   2.31253231 -11.37699436
3777   2.68245616  -2.17270420  -2.59321494
3778  -1.29845218  -3.86181677   0.54014652
3779   0.42044819   2.35669143   2.21317511
3780  -0.35344613   0.99449997   8.17102275
3781  -0.82285586   2.69469971  -3.27231460
3782   0.79910112  -0.43595679   0.12613888
3783   3.68411153  -2.14533345  -1.87728049
3784   3.46683214   2.16610727  -5.16508784
3785  -0.19188471  -1.96139651   2.53916192
3786   4.47293951   4.29850415   7.06827425
3787   4.35673207   4.45132299   1.88182760
3788  -4.82569490   7.09427013  -3.38993052
3789   4.28292877   3.13581349   1.37938361
3790   2.91023723   2.69485533   1.01961225
3791   1.86924890  -2.09591586   0.76897205
3792  -2.03065777  -1.72075688  -3.68994326
3793  -4.95245817  -5.77438529  -0.08277521
3794  -1.19661244  -2.71845427  -0.08989408
3795   3.07969400   1.19246910  -1.87007978
3796  -3.78942529   6.30489903   2.02516008
3797  -4.24706234  -2.53028500  -3.92261280
3798   1.79851323   6.05621361  -3.13694336
3799   3.23343982   1.40844301   1.28690082
3800  -3.64294835  -5.19406072   5.23597235
3801   2.91205095   1.40955296  -6.68015087
3802   0.92561575  -1.12844889  -7.18009366
3803   2.02472013   4.39808443  -0.06033474
3804   5.77880566   5.58691445  -1.74491669
3805   1.18174886   6.01269384   0.21512975
3806   6.91016691   6.10378853  -1.97428196
3807   2.84422014  -2.73825348   2.82248261
3808  -3.25113209   0.91161179   5.77695724
3809   2.95790943   6.51695485  -8.48498491
3810  -0.76822161  -0.56448690  -3.13564050
3811   8.71862944   1.32212325  -5.88462305
3812   0.65356563  -1.46639179  -0.16141050
3813  -3.68881354  -2.71740297  -4.81201626
3814   0.38492249  16.87525671  -1.55379600
3815  -0.61269818   6.45500101   0.95815978
3816  -0.27845982   2.02046360   3.05200372
3817  -1.20993021   4.92777315  -0.82464504
3818   0.89280960  -6.16334392   1.36465365
3819  -3.81855638  -2.88874811   2.31415644
3820   0.05698999  -1.25357124  -1.80653303
3821  -2.27147755  -0.70479797  -0.03274833
3822  -0.51873300   0.48616979   0.63889938
3823   4.72653188  -3.27324212   2.81518201
3824   0.45589978   8.60751851  -7.39126645
3825   9.18576493   0.47578737   5.12462999
3826   1.71650408   2.26204201   1.99335251
3827   0.13521617  -2.08040803   3.18257842
3828  -5.89674261  -5.68415496 -10.62283595
3829   1.24333725   4.50936565   2.27244572
3830  -5.80842863   0.43654917  -4.74429034
3831   4.43938546  -8.63584829   6.58489409
3832   3.80447486  -5.84640539   0.13080960
3833  -4.88060328   5.00952858   0.53270200
3834  -3.38206931   2.23921101   2.02496916
3835   7.26907094   4.46834400   4.09144582
3836  -4.04866025  -1.87926470   0.32164169
3837   0.14523586   2.85322192  -3.61970201
3838   2.48857969  -8.49194886   1.90312506
3839   3.24390805  -1.67684532  -6.52443608
3840  -2.55714565   8.90597188  -4.20717580
3841  -9.07163548  -2.22679280  -5.87629879
3842   0.76681100   6.92807776  -1.42006784
3843  -7.74845238   0.26239486  -2.08710453
3844  -3.17439455  -2.00741676 -10.56697266
3845   4.16645597  -3.40054171  -3.98790156
3846  -4.29528932  -1.84875724   7.65554129
3847  -0.12459729   3.67081354   0.35013470
3848  -2.62281125  -0.88200963   6.71689612
3849  -9.05797384   6.21194927   4.69763258
3850   0.92685396  -2.32004005  -2.60528097
3851   2.27349745  -3.63100298  11.03582998
3852  -2.69999875   1.60597118   6.32949442
3853  -9.18009992   0.20702357  -5.46313776
3854   1.64398947   1.04081961   0.62243911
3855  -6.06985777   4.85368380   2.93257374
3856   0.25444728   1.85068118   5.15198097
3857   2.46396751   6.96799264   2.38950209
3858   1.66588432   5.47613325  -0.02663402
3859  -4.11154672  -1.51936857   6.42836105
3860   3.34668319   2.64237115  -4.18834744
3861   2.63519266  -1.46382247  -7.52343751
3862   4.41601844  -1.13825847  -2.74134730
3863  -0.18158294   4.76448533   1.93954421
3864   3.23614411   0.17287878   0.86707447
3865  -2.52240366  -3.87514358   0.53015271
3866   5.81296986  -1.02702917  -1.09698479
3867   1.52746856  -1.23375365  -6.03911347
3868   0.08176280   9.71144878   6.81315057
3869  -2.45556025  -2.60252572   2.21147412
3870   2.01075582  -3.38150704  -3.35119784
3871   1.23100178  -3.46482962   0.03975757
3872  -1.57134997  -2.12951841  -4.46885323
3873   0.74788960   2.57129230   8.09719875
3874   1.47865615  -3.51852943   0.97363910
3875  -1.87660044  -1.77073058  -6.72623739
3876   2.47139970   0.15033859   3.59508424
3877   6.65474125   2.14296124  -3.21101527
3878  -7.12913225  -6.95163127  10.55552024
3879  -7.27284884   2.13716317  -2.00150010
3880  -0.77297233   0.58761393  -4.14662073
3881  -0.16047846   0.31450788   0.95192047
3882   4.16701192  -0.78290357  -6.29141186
3883   0.19351753  -9.62317760  -4.23661472
3884   0.29019355  -4.22014924  -2.78763884
3885  -5.90580751  -0.77412267   1.95751954
3886  -5.50065787  -9.73266656  -0.21943561
3887   2.36203647  -4.46522527   3.00758101
3888  -6.69880720  -0.56292758   0.31805918
3889  -8.40191325  -0.84406319   9.08075817
3890  -1.93054256   0.55054888  -0.47150291
3891   0.63878153   1.37303617  -3.97275412
3892  -3.96327169   7.61803506   4.15223563
3893  -5.13532606  -2.60223875  -3.19680752
3894   0.17828758  -4.81072400   0.14004020
3895  -5.81764016  -1.95039942  -4.24670987
3896  -4.00463887  -2.46539804  -4.08985982
3897   1.45826631   2.61439734  -8.34030643
3898  -2.24477155  -1.31177300   1.95213843
3899  -6.89428593   3.19897152  -2.85988928
3900  -6.29154708  -2.06034099  -3.52166105
3901  -1.13568725  -7.18885658   7.42016041
3902  -1.65528757  -8.90892631  -3.27983828
3903  -5.22885757   6.09903154  -7.07134941
3904  -2.57632429  -0.47608878  -0.66408290
3905  -0.88109870  -1.05213644   0.36949956
3906 -10.12878610   0.40922199   2.34773241
3907  -1.30560115  -1.29506033  -5.55534103
3908  -7.17017099  -3.50089553  -3.64536853
3909   3.67972913   1.71561726  -4.77222542
3910  -0.79703785   3.62317795  -0.05898012
3911   1.46537133   3.30826934   0.17644235
3912  -6.22689250  -4.07544895   2.23884791
3913  -1.53722434  -0.25622117  -2.65237305
3914  -0.56906971  -4.01799820   2.84048451
3915  -0.62755950  -4.26271302   2.63137928
3916   0.58936189   3.14671368  -1.17157714
3917   0.64090324   1.91478613   5.17404309
3918  -7.23338259   1.72702654  -1.81871803
3919   2.12181936  -1.94380817   3.46668428
3920  -9.74715356  -6.56047979   0.42311599
3921   1.68705396  -2.47218287  -3.28997224
3922  -1.36613623   2.52726978   0.92710399
3923   0.12866948   2.03310932   7.58820943
3924   2.11628229   2.49066904  -3.41466573
3925   1.37746190   8.07925653   0.08820736
3926   4.93749690  -1.08713145  -1.35785892
3927   1.44103618  -5.48671637  -0.20883971
3928  -4.08376292   5.04316661   1.14139709
3929   0.36509198  -8.60365755  -3.41106246
3930  -4.53102494   0.89099456  -7.46148761
3931   2.90792421  -1.91954585  -0.45915012
3932   1.39494355   1.29702321   8.97361853
3933  -2.07721432  -2.82832385   8.26913683
3934  -3.63651870  -8.70580674  -3.85132777
3935  -0.19366830   3.51427614  -2.54373122
3936   0.07836669 -11.84349839  -0.82115547
3937   2.99628219   2.77890542   4.96713280
3938   2.73263194   3.01261157   4.42245989
3939  -0.54279398  -4.61496774  -0.88634381
3940  -2.04969963  -4.54730341  -1.96677832
3941  -6.94061743   9.25383798  -2.90990478
3942  -5.99673204   2.35855194   0.40101432
3943  -8.29244556  -5.15939528   4.06177105
3944   5.61465917   2.19068432   0.23541549
3945  -4.59307322   5.78704596  -1.80667874
3946   1.53041215   2.13738844   7.87642608
3947   0.15704844   2.31032722  -1.31401483
3948  -1.38881721  -4.90724422   1.48359903
3949   1.60153968   2.26277216   2.36153500
3950   4.02552032   0.94142037  -0.17305558
3951   3.88015365   1.18331674   3.76909103
3952  -0.47184134  -1.10720113   4.19981897
3953  -1.28335340  -6.12318687  -2.96447011
3954  -6.53738257  -1.69526236   1.36950304
3955   0.79969745  -4.16007986   3.82695672
3956  -0.80132426  -6.62864459   6.14976112
3957  -0.69767165  -0.61318291   4.10636294
3958   3.19657658  -1.09527652   3.58770199
3959   2.36555203  -0.29710556  -1.42758372
3960   8.36161348   2.92587937  -3.61335343
3961  -1.02461883  -4.41338087  -1.90421677
3962   0.63943755   4.00396026   5.11868143
3963  -0.02619355   2.17914500  -0.63607937
3964  -1.61041910  -3.66159760   6.23397459
3965  -3.02515071  -4.63890385   1.30094660
3966   2.20679724   2.17421252  -2.34733449
3967   0.40376558  -3.42673813   6.97699767
3968  -2.67729245   0.18330034   7.38615597
3969   1.42226071   1.46332128   7.69959377
3970  -1.21199003   4.19612394   1.26288062
3971  -0.12825804   0.53376263   0.65173361
3972  -0.52408378  -6.87966751   1.47031515
3973  -0.19092809  -6.06309560  -0.72643100
3974   1.72875636   1.22061673  -6.28722219
3975   6.85686192  -0.79807221  -0.32454258
3976  -4.84503483   2.04077451  -4.09539899
3977   0.19953236   2.28064666   4.50801102
3978   2.10594615  -6.54937091   2.59594403
3979  -0.45318887  -2.90282217  -3.47140694
3980   1.75630829  -7.13903052   1.42120197
3981   0.82888810   4.57888532   4.23351914
3982  -6.52574551   2.41500284   8.61273859
3983  -4.83543411   2.61042774   5.47385081
3984   6.92935638  -5.48585002  -1.03925521
3985   5.24910170   3.38149297   7.70305430
3986   4.18177134   6.96723537  -2.13219711
3987   1.70314625   4.80161905   0.10324817
3988  -0.91627498  -3.79548214  -0.34775160
3989   0.00173887   4.85007820   0.05447199
3990   0.02212239  -4.19132028   0.07980051
3991  -0.97627000  -3.72218664   5.47706696
3992   0.04348878   3.72264232  -3.43328683
3993   1.69665967  -5.37944658  -2.54816851
3994 -10.28158543   2.62806484   4.04075384
3995  -2.95889833  -2.43895830  -7.44422079
3996  -4.17041519   0.61832497  -5.09212917
3997  -1.42393167  -5.97219566   2.37971339
3998  -6.34131528   8.57831534  -7.03473426
3999   3.70618494   4.19189548  -3.53680907
4000   4.94197754  -2.71064821  -3.97639423
4001  -3.36779463  -2.26490720  -6.18637161
4002   1.63396578   3.31481169  -1.58126171
4003  -0.31654356  -3.44072945   3.77849412
4004  -8.82923270   5.51334023  -4.04886103
4005  -0.33157716  -4.41099843   8.06587451
4006   1.84125594   0.21041636  -9.35783373
4007   3.16564579   2.26545542  -2.21215067
4008   6.06455939  -1.94287293   4.74174902
4009  -3.92187189  -1.47718014   4.09466055
4010  -2.55522586   4.60252339  -2.62837365
4011   4.01860474  -2.92042463  -1.95608437
4012   5.16933444  -3.16051298   5.36532389
4013  -0.41581664   2.72030842  -2.21827916
4014   1.93352040   0.79309692  -3.95401038
4015   0.12714002   1.74944452  -5.60595263
4016   2.12425525   7.88531708 -11.20745045
4017  -2.43845435  -5.82915649  -6.16568268
4018  -4.84482996  -2.36350120   2.52671466
4019  -2.29397821  -0.37196925   0.74249155
4020 -10.10965696  -1.80764444  -0.47186180
4021   0.14027971   0.78560430  -1.91302594
4022   4.93898672   3.72669361  -2.41788991
4023  -6.96352460  -3.13534859   1.33855637
4024  -3.33770704   0.17221311   0.94777464
4025   4.98012549  -3.76736391   3.93907018
4026  -7.40733504   2.59342388  -4.86836507
4027   2.02108420  10.31863823   0.87959505
4028  -2.82065262   8.49139797  -1.39918711
4029   2.64189331  -1.01366482   2.99513403
4030  -1.33397828  -2.60464790   0.74666838
4031  -0.00336741   2.48621058  -4.86202404
4032   2.79115500   0.72653895   6.09156148
4033  -0.33572402  -2.37969269   5.30914360
4034   2.45329296   0.04166697   4.95331944
4035  -3.43199945  -2.04547413  -2.15617869
4036  -7.20745579   1.28159013   6.03464740
4037   7.02991395  -1.66042016  -5.91937963
4038   0.34404397  -2.70942960  -4.27913854
4039  -3.23768859   4.78984651   2.81269385
4040  -1.18390370  -1.40844201  -0.40793793
4041  -1.65197119  -3.60362300  -0.07050039
4042  -3.00936541   1.28747989  -3.28326591
4043   6.48460132   0.72593627  -0.39531140
4044  -5.09351337  -4.21927399  -5.18640381
4045  -0.06034930  -0.61011622  -0.17997037
4046   3.10403076   2.99307590   3.30608858
4047   0.25792552  -7.07446288  -4.17442645
4048   5.62494465  -3.81796847   4.52991881
4049   2.58200066  -0.93475545   4.04008966
4050   0.50812654  -1.28631934   4.08715713
4051  -0.17673015  -9.17275954  -6.75477768
4052  -4.38352688  -4.49615006  -3.87667035
4053  -4.27156583   3.30097312  -1.25718693
4054  -0.94449474  -0.29134374  -7.37820883
4055  -6.56844101   3.27962332   3.14853751
4056   0.74052474  -3.08630922   4.37766612
4057   1.30920799   0.82974154  -2.15155394
4058  -3.34805544  -1.87234707   5.04546861
4059   2.10944390  -0.14396527  -3.51678877
4060   0.16347241  -3.21184779   0.67657694
4061   0.81119500  -8.07023064  -0.48644106
4062  -1.12847685   2.57254771  -0.57851096
4063  -3.83775493   6.42384109  -2.65456407
4064  -2.25913053  -0.19145933  -7.16521622
4065   3.75141205   1.41507980   0.38859591
4066  -2.43080765  -1.79883570  -7.30575457
4067  -2.08102857  -6.39455153   4.41190657
4068  -1.57331520  -6.25050479  -2.97884385
4069   0.38872458  -1.49739089  -5.95411268
4070  -1.05356380  -2.40440135   3.71458022
4071  -0.27180658  -2.25291645   0.75684507
4072   1.43577332   2.84012106  -0.79313346
4073   3.01123087  -6.38927730  -4.62996074
4074  -6.14022604  -3.34010692   6.03764201
4075   0.39312435   1.13320904   0.04105199
4076  -6.67266783  -2.87487238   4.70473384
4077  -2.46278478   0.55804694  -3.71134649
4078   2.74928025   1.16655606  -3.73492236
4079   8.83701773   0.31171246  -3.14909836
4080   4.14721037  -0.07567789  -1.40231529
4081   8.18917847  -1.84425345  -0.84188433
4082   2.56114575   3.73640340  -3.09338743
4083   2.72776118  -9.13830844   5.48499332
4084  -0.11109678  -4.91774185  -6.55594665
4085  -0.68228831   0.74762117  -3.04742450
4086  -1.42387635  -0.75490441  -0.32158966
4087  -1.30202487   3.41982868  -1.67363004
4088  -5.03051627  -0.84946000  -1.26430744
4089  -7.31998539  -1.74806439   2.66745815
4090   6.69423532  -3.34691162  -1.61808999
4091   2.80199883   2.01384713  -1.86140332
4092  -4.13871925  -1.86158028  -7.97540451
4093   3.86790055  -4.05466643  -8.15174951
4094  -3.93523170  -5.17404415  -0.13585227
4095   5.22978060   2.52572221  -5.26902881
4096   5.40299659   3.70612379  -2.06532284
4097  -2.03513213   5.55525990  -7.08864374
4098  -4.09493279 -11.97771822   1.62696722
4099   0.09273863   3.35541442  -3.45408865
4100  -9.70424058   0.43876768  -5.26729135
4101  -6.25008720   2.65868009   4.88863460
4102  -3.64639946  -1.30637634   5.84725405
4103 -10.06781395   2.12043095  -5.73837629
4104  -0.91660064  -7.94185647  -1.01884436
4105  -2.60712255  -7.81641609   5.56347074
4106  -2.83509118   2.12588204 -11.06967945
4107  -1.45678802   0.43047459   4.46114416
4108  -0.71736599  -7.67171805  -6.57904181
4109  -0.87810472   1.93767937   9.67406596
4110  -1.17127051  -1.50353741   1.54127957
4111   2.66152653   2.06081890   0.06003777
4112  -2.27637786   2.92366597   1.93908753
4113  -8.32821641   0.46019558  -4.62577536
4114   1.23386365   1.62663256  -6.87108200
4115  -5.00290288   0.64810476   4.08409287
4116  -1.61182242   1.14640525  -1.79127473
4117   1.65875030  -0.98740104   3.77048177
4118  -2.19401071  -3.15701186   0.97318960
4119   2.55413302  -1.39340826  -7.78511232
4120  -2.35166039   1.78945582   1.16381227
4121  -0.53287234   6.33258358  -2.43407874
4122  -5.15164974   1.70030903  -0.85399332
4123   5.95353514   7.85241604  -4.07753027
4124   6.57109262   2.63383018   2.52784127
4125  -1.24317509   9.12564783  -1.49348945
4126  -2.40772102  -6.75457262  -4.32390999
4127   1.11650588  -2.36978855  -3.46439494
4128   0.95769258   3.54079177   1.55356386
4129  -0.56834902   2.07904565   5.04033691
4130  -5.88204517   3.21731301  -1.94127843
4131   0.58669604   1.57502102   3.65132496
4132   7.25930171   6.69553699   2.42253047
4133  -6.27303776  -3.53868013  -3.12384947
4134   0.98959952   6.56588717  -2.17570359
4135  -1.43918759  -4.48779417   7.44587617
4136   2.30563513   4.66791635   4.49806472
4137   6.00982572  -0.53187011  -3.57290051
4138  -5.82365214   0.68018445   2.77130736
4139  -2.48187201   0.29364977  -5.54308696
4140  -5.53097389  -2.75440932  -1.69952252
4141   1.43155378   3.52602414  -1.87034156
4142   0.70571308   1.96500367   0.39635206
4143  -2.26761817   5.92178419   2.73388084
4144   3.85005015   2.30254268  -1.14743407
4145  -3.11913660   4.07775708   2.91461110
4146   1.03601197   1.13512957   4.38119321
4147   1.56668549   2.79888069  -2.81600518
4148  -0.13445259   1.97830869  -3.90094070
4149  -1.16266060   3.80725573  -6.81467751
4150  -0.62577530   4.73819560  -4.74132806
4151  -0.17698726   1.25976419  -1.56781725
4152   2.40998700   4.27170942   4.05851855
4153   0.65885336  -0.23993071   8.94316375
4154   4.94477362  -1.38426835 -14.12759976
4155   0.73686918  -4.30233382   2.67484779
4156  -4.70090258   0.53159289  -0.13981813
4157  -1.05291255  -0.73025880   5.61176726
4158   5.32416478  -2.67046684  -2.25638122
4159  -0.50849904   0.80856694  -3.38532369
4160  -2.91627293  -3.52811796  -3.20934523
4161  -8.50223718  -2.39137657   0.34450082
4162   1.42015108   4.29235937   3.55369569
4163   0.97923588 -10.21034454  -0.62946949
4164   0.37711600   0.93041223   9.73631979
4165  -2.10149933   3.49913869  -1.71153826
4166   2.48277549   1.04323701  -3.70152383
4167   0.71807920  -5.98137686  -2.44809667
4168  -0.89569534  -2.98843210  -5.92576991
4169   0.63488465   1.41681243   4.92917959
4170  -5.24564762  -5.91971135   5.44218863
4171  -5.00154691  -4.37502421   0.38931830
4172  -6.11433376   6.57289274   5.62570668
4173   3.19661810   5.50933173   3.41259325
4174  -0.44582949  -6.93954435  -4.04909770
4175  -1.44023937   3.74048737  -2.30631652
4176   2.14146931   0.65463482  -4.19422007
4177  -5.29821370  -6.32491954   6.51366582
4178  -7.24702390  -0.73881789   5.53560815
4179  -0.43815187   7.26223793  -4.53536579
4180  -0.13098188 -11.22246251  -0.95070662
4181  -3.26470590  -1.36061925  -3.66344689
4182  -4.76188323   5.11324097   1.02096674
4183   4.06403779  -2.76068141  -1.79722420
4184   4.93289800  -1.35576179   6.90437553
4185   0.77700473  -3.00405263   5.49892608
4186   5.07653255  -6.58182937  -3.59092923
4187  -5.18097979  -0.77341905  -3.68134302
4188  -3.39611596  -8.25128731   1.65518847
4189  -1.60451743  -0.18846523  -8.69658898
4190  -2.93570001   2.48851265  -2.12083153
4191  -4.29169952  -3.34099611   0.85290122
4192  -0.62787306  -3.16781503   2.12242449
4193   5.12366643  -0.52957941  -0.38389758
4194  -0.90223316  -2.01131227  -4.16241789
4195   2.68309391   1.99276989  -1.12311646
4196   2.65747357   0.27533734   6.68220705
4197   5.48244185   4.65357354   2.04979490
4198   5.64440329   3.36424351  -3.08906995
4199   1.03903168   1.15393292   2.33622387
4200   0.41039019   0.27808344  -3.51720621
4201   2.71586174   0.19794640  -8.32192218
4202   3.38105658  -0.61805689  -6.68092375
4203   1.26922514   2.34984057   3.13667113
4204  -3.18536692  -0.25210572  -3.03776919
4205  -2.69583979   9.83574013  -4.16345011
4206  -4.46278536  -0.27794018   1.09830709
4207   5.70596945  -2.78014246  -3.77661703
4208  -6.15396532   1.47535920  -5.25768394
4209  -6.54724474   3.80811862   5.62514237
4210   4.16788483  -2.55779998  -0.50244545
4211  -2.26924899  -2.97250073  -3.50308361
4212  -2.84097330  -2.27272142   3.22112180
4213   3.56405046   4.00036628  -0.18589630
4214   6.24449682   5.39883939   5.86100779
4215  -2.60071319   0.01113409  -2.20041361
4216  -5.85794337   0.59101675   1.56049209
4217   0.84221981  -0.97007506  -4.58676160
4218   4.58087239  -2.22368078   4.58892019
4219   2.12606461  -0.70195868   3.54837757
4220  -0.70858091   2.89692878   2.15457740
4221   0.85557806   0.62332164  -1.11806182
4222   0.23077182  -1.61890794  -1.95758016
4223  -1.65956022  -5.30086734  -3.17619189
4224  -6.82256823  -0.14245272   3.02866015
4225  -5.23520867   1.32047985  -1.57940086
4226  -5.10756384  -0.29113391   1.21903073
4227  -0.89761564  -0.68213911   7.30991798
4228   8.68106112  -1.09157258  -1.48943696
4229  -9.34779613  -4.13698019  -2.53423543
4230  -1.86503468  -1.25237195   1.09036595
4231   4.07103794   1.74875154   2.25403878
4232  -0.67781606  -1.64223291  -3.90172825
4233   0.24760851  -5.36280066   2.03714950
4234  -2.35062532   2.78380589   1.38846671
4235   5.44899052 -10.57471578  -6.35617076
4236  -8.42403830   0.00841829  -4.64565560
4237   0.92971007   3.66494482  -9.06452609
4238  -5.04052315   5.13063087  -1.02996403
4239   0.87220090  -2.67405200  -6.08606385
4240   8.29779181  -2.64376960   0.00993475
4241   3.20045681   0.75677435   1.73851715
4242  -1.79719361  -0.22156300  -1.19346139
4243  -2.69202823   7.63623302  -3.92460628
4244   0.23960680   2.87752511  -1.23524731
4245  -3.13839063  -1.41964816   3.06256470
4246  -3.26196806  -1.84597755  -6.23697232
4247  -9.20613699   2.61598241  -1.78495692
4248  -5.34212987  -6.21803850   0.25762935
4249  -1.06053952   0.58761981  -3.58144084
4250  -0.39413844   1.51463871   1.71524662
4251  -5.86792435   3.53347371  -0.29292221
4252   5.77976802   7.02434157  -6.75244147
4253   3.66495216   1.00408423  -5.04703795
4254  -1.82911977   3.58431063  -1.16372457
4255  -0.42671314   2.37848025   3.72422814
4256  -0.93207376  -3.32047655  -1.57753702
4257   2.49724096  10.32274340  -0.79034303
4258  -1.06822232  -5.95450402  -3.10398850
4259   4.71606417  -5.89001088   0.48298123
4260  -2.86083768   4.99015315  -9.00956815
4261  -1.66239945   1.50969780   2.33682429
4262   3.66468875  -2.35012618  -3.20351771
4263  -1.79904581   4.21410048  -1.73768471
4264  -2.04432066  -4.92084449   2.86140991
4265   4.57651419  -2.03605471   7.28151611
4266  -1.35483839   3.45687562   0.67564233
4267  -6.52340155   2.54416902  -3.32905206
4268   4.02686064  -2.45031892  -1.27564556
4269  -4.43307467  -1.68185674   1.22389727
4270  -5.52419263   4.96346305   0.50957545
4271  -1.28356398  -2.28212405   1.51369535
4272   2.65393283  -5.02177846  -1.75664671
4273   1.92842335   0.26278031  -0.42019824
4274  -0.02901099  -1.56684171  -8.57931034
4275  -0.80876240   3.53249619  -0.32303084
4276   6.05132646  -5.19670859  -2.79925089
4277   5.04845351  -1.26263377  -5.63495755
4278  -6.08174168 -10.64985727  -2.51652022
4279  -0.89224094   1.93450136   1.42540951
4280   0.18607672  -0.00542936   7.67171102
4281   3.03723560  -1.17902315  -0.89172636
4282   6.31783278   6.06878666   0.35793378
4283  -0.98431264   3.70736307   6.21415436
4284   1.81237283  -4.58243902   1.90751273
4285  -0.08574351  -6.44752476  -3.75079004
4286   0.60956392   4.78206365  -3.18227383
4287   4.19166336  -0.50195431   4.43423112
4288   1.17740028   2.55068354  -0.31376120
4289   1.68571879   1.31776434   0.16718148
4290   1.06028123   1.97987976  -6.61551789
4291   5.27565424   0.02769537  -0.78686098
4292  -1.35099176  -1.18021979   5.06468049
4293  -1.32490784  -0.30505746   5.42664596
4294   5.22081432  -1.13668676  -1.08963796
4295  -7.97381511  -0.20851188  -3.35802996
4296   4.02597688   6.47631205  -3.03068850
4297   1.08927804  -2.32588240  -0.02854065
4298   1.62099032  -0.62492760  -1.62850080
4299   1.34742473  -1.29298290   3.14450769
4300  -5.00687850  -0.66286521   1.50427348
4301  -3.41673290  -2.88691160   2.16799298
4302   1.21555188   1.83833046   0.19620797
4303  -1.74861384   0.46603161  -3.31836403
4304   1.10913289  -6.44469252   0.43350843
4305   1.97399704  -2.59575558   1.48407156
4306  -7.36460747   3.57121699   0.45547882
4307   3.70694191   0.54153847   8.03564970
4308   4.32172766  -1.63596248  -7.82093137
4309   1.70239486   1.12414233   6.55242175
4310  -0.62550534   4.84447010  -3.54306968
4311  -1.21376868  -1.08575535  -2.80437570
4312  -8.09245813  -7.89311344   1.67582124
4313  -4.54457750  -1.15766279   2.36995410
4314  -2.77173597  -1.24570056  11.31993538
4315  -2.44035132  -9.60454349   3.50241813
4316   6.29416061   0.31552191   4.73337123
4317   0.87827320   0.03084111   2.40678039
4318  -4.05600153   1.05985188  -6.10643804
4319   3.50173758   1.18270868  -0.61075316
4320  -3.22603381   0.47329464   2.61993366
4321   5.40517086   3.19884603  -4.88225609
4322  -1.55918195   2.20221892   5.80422190
4323   5.60672877   1.74246668   3.49569433
4324  -3.56849053  -4.67310257   0.99501395
4325   1.91249433  -1.88199088   4.23502035
4326  -1.81261092  -4.24451138  -4.30387873
4327   8.61377265  -1.03895126  -1.25020494
4328  -0.89850647   2.82004137  10.43112027
4329  -1.95940973  -2.36019974   5.53372156
4330   3.89188909  -1.55778146   2.91579308
4331   6.21166198   0.40168281   0.46989994
4332   7.43670588   2.71823759   0.67452173
4333  -3.99909363   0.84378362   0.91409423
4334   6.37375572   1.27760549   3.10933888
4335  -3.91853380  -2.32118975   5.36837656
4336  -2.99416808  -0.31057615  -1.35387553
4337   2.46606239  -0.02861975  -0.84004868
4338  -0.94306391   3.83536550   4.20663042
4339   0.13158056   3.86899435  -2.42730384
4340  -4.16381749   1.30873281  -3.04676256
4341   7.71981757  -6.10889280   3.17535850
4342  -5.06857911   1.46509111   2.89123783
4343   9.85486098  -3.18287081   4.19694811
4344   4.97109177  -2.90319885  -0.05383733
4345   3.65319125   1.78961072   0.86105174
4346  -4.56425157   0.57349394   4.61020458
4347   3.93221984  -4.32334669   0.22609534
4348  -1.81787900  -2.99204561  -3.88931361
4349   1.60540928  -5.80921365  -2.49405427
4350   8.42881070  -1.69626585   8.73333566
4351  -2.35128331   2.44923236  -2.64093554
4352   1.30606956  -1.63580469   0.07491380
4353   0.38509774   0.87742985   0.69304861
4354   0.55353080   2.53327362   5.43448037
4355  -2.84318741   5.96146771   0.03236456
4356   0.48025454   1.60752341  -2.48068741
4357   8.82164771  -3.80821415  -3.98990841
4358  -3.55787685   4.78835966   2.41700766
4359   1.94014293  -2.80153026  -1.99231361
4360   3.43068106  -6.45987736   0.59763657
4361  -5.00633209   1.64994505   1.09867558
4362   2.77440400   0.96342703   1.12686284
4363   1.52273166   1.31210950  -0.20109679
4364   4.21155035  -3.58907260  -7.34097170
4365   0.46383673   4.11771849   6.95980984
4366   1.90592155  -2.90520256   0.24971223
4367  -0.34053105   5.38340477  -1.29685522
4368  -2.99022026   4.17762164   1.90879489
4369  -0.74294613   1.08174527   1.37646724
4370  -0.73135687   3.73007457  -4.51664743
4371  -0.74461922   4.17606012   2.68769703
4372  -6.25645497  -2.81269350   1.92116681
4373   5.73452663  -0.79644012   2.04659800
4374   0.13356037  -3.07587133  -0.17380056
4375  -8.09658112  -0.41513753   1.95716077
4376   4.00818532  -5.16843149   3.04754487
4377   4.69126644   2.56342945   4.51884301
4378  -2.55114954  -0.73400129  -0.14677223
4379  -2.66648034  -4.83265047  -1.99704325
4380   6.35314146   6.84378920   4.26703686
4381   0.68708217   6.51667850   0.34248833
4382  -3.16412445   4.07392451  -2.09812937
4383  -2.56013316  -3.91489294  -0.94849891
4384   1.18261335  -0.02321016   4.19892366
4385   2.01836584   3.86961165  -4.26608545
4386   1.27766888   0.64206041  -5.49799501
4387   0.96698894   4.43040101  -1.69691136
4388  -3.40162189   3.95090856   3.29525104
4389  -1.51621892   3.96994339  -9.07157970
4390  -2.78283985 -10.51289300   2.40447104
4391  -1.48971375   5.90772936   0.59054384
4392   6.16326042  -5.11814734   8.06293512
4393   8.02772080   2.42565981   4.51731838
4394   0.57487681   2.32592458   1.40556859
4395   0.88037159   8.92285504   5.68032280
4396   4.01239754  -8.54086091   3.45974672
4397  -4.93982165  -8.73590160   4.94317213
4398  -6.91520355  -1.16436640  -0.90667063
4399   0.35856673   4.15445002   1.17330309
4400   1.14808835  -1.32163541   6.62863345
4401  -4.02499627   2.50006541  -2.75384166
4402   1.29567481   0.66685007  -6.55612816
4403   1.07416004  -2.16920017   0.24939148
4404   6.00300811   4.57647347   4.54654313
4405  -6.48806268  10.46750088   2.27714055
4406  -2.78970553   5.62626324   4.37336234
4407  -0.84400737   0.37179383   3.91830313
4408  -1.88194537  -1.45240038   2.66330622
4409  -0.31680509  -6.58937635   4.49205541
4410   4.27997602  -3.15527063   2.99147635
4411  -0.18871025  -1.38660689  -0.92442686
4412   7.13572729   7.10054595   4.98867735
4413  -0.00720300  -3.69582851  -4.32006643
4414   1.22303129  -3.56418897  -0.27041614
4415   1.08630738   6.10913791  -0.31612975
4416   0.99641996  -3.07295458   7.10576392
4417  -1.02415008  -0.11891439   3.94031329
4418   8.84046919   3.26306880   6.36388148
4419  -4.22242556  -9.57673689   4.23151046
4420   2.86560691  -2.31193472  -1.71953564
4421  -3.44018135  -2.80651183  -2.17748492
4422  -5.21502491   7.13941127   4.78270210
4423   3.67653342  -3.28549872   2.31004423
4424  -1.40663196  -5.66746372   7.98638996
4425  -4.15781022   3.52209692   0.18013330
4426  -3.38602925  -4.48202560   1.19630569
4427   4.68862302   4.30057865   0.49419165
4428   3.64811441   3.06656931  -1.56024995
4429  -3.84360659   2.38121810   3.64411846
4430   2.75766497   3.54648747  -2.84553720
4431  -5.13423972   3.22183075  -7.05626569
4432  -4.10094059   2.78726503   1.65572164
4433  -5.47092667  -1.60106260  -4.03366130
4434  -1.84777587  -4.81922497  -1.16463149
4435   7.53682222  -7.97009625  -2.31164128
4436  -3.79802865   2.65078381   6.46980679
4437  -1.64988746  -1.04987658   5.63705249
4438  -7.40144142  -2.16764416   0.97351541
4439  -3.53358614   4.47211239  -2.38031113
4440   1.22542493   6.10001833   1.91263081
4441   0.81166422  -5.44805911  -2.11983208
4442   1.25672652   3.81197906   1.48850348
4443   3.64519713   0.60167517  -4.64893538
4444   0.31369078   1.98614567   1.51872607
4445   0.26794183  -5.41010819  -0.68175389
4446   2.64642770   0.53673799   0.10338669
4447   2.00394252  -1.83373490  -0.81568943
4448   1.91458251  -0.71753070   8.60335901
4449   1.67728213  -0.79711729  -4.94623201
4450  -4.08025739  -6.01304923  -5.16913762
4451  -3.27859570  -1.74479037   0.57888606
4452  -2.07994527  -2.14762200   0.88660864
4453   2.47025872  -3.27466247  -6.81646942
4454   1.29852593  -0.35082351   1.65787038
4455   1.89877243  -1.10859643   1.29970251
4456   0.92577328  -2.85247780  -2.16296505
4457   3.38627560   0.08724321   1.48954093
4458   8.55209952  -1.64103053  -2.79180213
4459  -3.91751111   3.93531484  10.44345841
4460   5.93756124   6.62174395  -2.81122072
4461  -3.71787348   7.93475074  -4.83637447
4462  -0.96852232   2.11086899   1.86046385
4463   4.63353631  -5.19504291   2.07841884
4464  -0.00213911   3.27686027   2.13055729
4465   3.67994436   1.60936875  -0.50222084
4466  -0.15601259  -4.50422984   2.49114601
4467  -5.35155921  -3.06447285   4.54579229
4468  -0.51946970   2.61908830   1.35602258
4469  -5.01168689   1.05841110  -2.66895266
4470   2.67303526  -3.28516034   4.54910769
4471   1.24677698  -4.05204812   2.99979558
4472  -0.30464454   2.83345110  -1.71807505
4473   2.96726398  -1.47936470   3.03247438
4474   5.58319942  -3.95504285  -6.53182048
4475   0.72248184   3.44699291  -3.42587596
4476  -6.05880239  -4.93663871  -0.99010080
4477   1.71189874  -3.82076708   3.73290730
4478  -3.92447013   1.33333096  -1.61917812
4479  -5.76610496  11.66550567  -0.97844885
4480  -4.84770913   1.02124967   3.57370796
4481  -7.02633569   0.29338684  -0.46447315
4482   7.91708843  -7.58822159  -3.31329524
4483   1.84846494  -1.04698627   6.06357880
4484  -2.87123560   7.61272636   0.10099055
4485   2.69722667  -5.87753601   0.44896993
4486  -1.09777939   3.60360434  -1.43460829
4487  -5.53545823   2.91290417  -3.68685735
4488   5.82117779  -1.03365551   4.85412156
4489  -0.44702071  -8.21700158   0.23722646
4490   0.13578310  -6.21796386   3.24192065
4491  -1.52655229   2.71465734  -2.21312458
4492  -4.35295833  -0.80767795   6.64422243
4493  -8.21527624  -3.52575771   1.76616932
4494  -4.55366698  -3.08462916   2.21212817
4495   2.76094221  -0.63692751   4.48990552
4496  -3.84805887  -2.80914302  -2.28977203
4497  -0.77071082   0.84263482  -2.22232545
4498   0.79765103  -2.85707620  -1.30399124
4499   5.37033852   0.98678464  -3.66142915
4500   3.36789032   6.31385601  -3.61576440
4501  -2.63060330   2.19175368  -0.21781114
4502  -0.70016297  -3.35585375   2.50874127
4503  -1.19440816  -2.24328523   1.47370215
4504   1.69976557  -1.62932761  -0.08724985
4505   4.66514570  -2.22136078   1.35572790
4506   3.29602624  -6.29913113   0.09508412
4507   1.72860229   7.15581728   1.44103518
4508   2.73945194  -1.46158173  -7.81733096
4509  -1.35802673   4.25131749  -1.49003097
4510   4.17623424   3.59038202   0.08526188
4511  -1.59776288  -1.08057432  -0.53043259
4512   3.66054389  -6.36043114  -4.56617004
4513   5.04153758  -5.43838740  -5.39808077
4514   2.84441739   3.71470902  -2.45706136
4515  -3.35412412  -2.17494123   0.67471724
4516  -6.84695495  -0.21934054  -1.76786286
4517   4.88273814  -4.61133305   2.33907549
4518   3.41549404   2.43562091  -6.02074789
4519  -6.31322886  -0.46737727   0.01931483
4520   2.04471744  -3.47012095  -0.64936005
4521  -0.56236177   2.65285336   2.50594721
4522  -0.69643730  -2.87760193  -4.83440085
4523   5.69590151   4.75996391  -8.50956658
4524   4.86461485   3.39348032  -1.65584598
4525  -6.99421979  -5.57404966   4.07959413
4526  -1.25476700   3.46716076  -5.70042952
4527   2.56658350   1.86041366  -0.87657360
4528  -0.20138474   2.18412801   1.74937818
4529  -4.36931203  -2.69594662  -5.23217978
4530  -3.54874612   7.59524827  -3.14101961
4531  -1.31973160   3.87702514   0.81531976
4532  -0.25636874  -3.37556464  -1.12751619
4533   2.19896815  -1.77850663   2.58812609
4534  -0.71397176   7.11123438   5.78048558
4535  -3.55539643   5.04423982   5.05988226
4536   1.57142048  -3.96444064   1.68617792
4537   5.00695267   2.73760386  -5.33025607
4538  -1.74883121   4.42966435  -1.17258997
4539   2.05362723   4.18854819   1.01091924
4540   8.81317100  -2.66078153  -0.79375616
4541  -1.95256944   0.90268640  -4.03070862
4542  -0.21059182  -0.21503312   2.15006960
4543  -1.74194646  -2.17623652  -0.51025344
4544  -0.93027587  -2.22945464  -0.40229790
4545   1.54940297   0.45284769  -0.73356061
4546  -1.95826754   2.35121080   0.68164931
4547   0.39556183  -5.84719587   7.25845052
4548   4.03755407   1.40179572  14.27865372
4549   2.75832680  -1.83507761  -3.12365613
4550  -2.44861887  -1.24666527  -1.08918346
4551  -3.70246810   1.71586929   4.11507516
4552   0.42620856  -5.41809039  -3.96100415
4553  10.58440472   0.86024767  -2.54713021
4554   0.05583241  -1.41437688   2.93751964
4555  -5.17089843  -3.02703464  -5.79564874
4556  -2.98290098   6.55300214  -7.50024900
4557  -1.14490353  -3.30079873   0.33309340
4558   0.83793089  -0.73810583  10.32108443
4559  -1.83016931  -1.56037768   3.24490513
4560   3.00752822   1.50132299  -4.26328496
4561   4.76979973   7.22458362  -1.27926395
4562  -9.50526237   1.21244306  -2.14565692
4563  -1.72829374   1.70773114  -2.02654757
4564   5.23628910  -1.69297248   2.75376991
4565  -3.19335212   2.00358370   4.52212604
4566   4.35672158   1.39147472   2.52327973
4567  -1.55155961   7.61451551   2.87865591
4568  -3.03038315   5.05407932  -3.50724219
4569   5.28662431   0.41125213   1.24739953
4570  -0.19520312  -1.42378812   1.80264444
4571  -4.64741109   4.20846491   1.27190089
4572  -2.37516435  -5.75870881   3.08575613
4573   1.70777793  -0.01964202  -1.23805063
4574  -6.76830770   6.21664685  -7.09937290
4575  -1.12848092  -1.59375813   0.87095469
4576  -0.96648599   2.63716523  -0.03507186
4577  -2.72701759   2.62283050  -0.37633605
4578  -4.39209224   1.74618074  -3.61011892
4579  -8.25931406  -0.81369803   8.94628339
4580  -9.01494643   6.47673476   0.87948160
4581  -1.16206446   2.76981981  -1.74078510
4582   2.28822741   2.11325488  -0.80545312
4583   2.54245653  -0.36235015  -4.72605214
4584   0.57742417   4.39704309   0.84549455
4585   0.60436647  -0.17041793   1.10098626
4586  -0.85650131   4.21248125  -3.69500055
4587  -4.49870734   1.85722508   1.38301518
4588  -9.84150319  -6.87131253  -1.19156182
4589   2.81889481  -7.23398279  -2.39722474
4590  -6.11312257  -7.13251267   2.85491368
4591  -6.50069257  -4.20354535  -0.87527215
4592  -4.67068570  -3.07506810  -0.73392407
4593  -5.29706747  -4.55100170  -2.14971326
4594   2.89589363  -0.95360221   5.96406908
4595   2.39038398   4.89707303   3.79776490
4596   1.15974368   0.76260517  -6.29623652
4597   3.03920793  -1.55933877  -0.91969825
4598   1.57803581   3.98907847   1.09901034
4599   0.26305241   3.15289883   0.96330826
4600   1.87506245  -3.35322073   2.54764979
4601   3.49512847   1.76382822   0.10318633
4602  -2.93727630   3.09816055  -0.94704975
4603  -2.44492844  -1.06368255   1.78051168
4604  -1.59970305   0.78889229  -3.69966096
4605   3.91904685   4.33191982   3.62384938
4606   4.82917157   3.82904693   0.81268154
4607   0.13425505  -5.59439029   3.03871815
4608  -4.09343490   0.30098733   2.80361920
4609  -4.61383166   0.75547936   5.60774873
4610   5.68351443   4.32806061  -7.97707977
4611   1.66349718   0.62412622   3.13735889
4612  -2.69420655   6.43334647  -3.24756694
4613   0.22022280  -3.67066888   1.99487472
4614  -9.90129487  -3.55085077   4.41892261
4615  -6.77763650  -0.45547829   7.51006057
4616  -2.45023369   3.66339718   0.86134973
4617   1.49772798  -1.62078573  -2.68971945
4618  -5.69536851  -0.39675611   5.66883174
4619  -1.60401898  -6.21349104  -2.53472875
4620  -0.94335860   0.18275802  10.79286441
4621   3.46602867   3.09061322  -4.83740187
4622   2.91455226  -0.79521529   1.54896166
4623   0.30197482  -5.15961236   3.88107440
4624  -0.89185160   1.69992388  -0.03603505
4625  -2.89660096  -2.81222077   4.94770689
4626   1.66769685   2.21944344   1.27396229
4627   1.75397058   9.14020768   0.71753162
4628  -2.18025354   3.88151654   4.82050614
4629  -0.90319249  -2.90615599  -3.34227169
4630  -0.86791308   4.48118832   3.36394512
4631   5.23521753   0.74710480   4.03459510
4632  -2.00365834  -4.21209632  -3.56190944
4633  -4.79600592   1.48416408  -5.31162425
4634 -12.10001119  -0.42529538   1.26082184
4635  -0.49387112   0.44226236  -0.89676746
4636  -0.93535713  -4.77305544   3.67023929
4637  -4.07630056  -6.52914436  -3.80329373
4638   1.58187060  -6.20587663  -2.42181296
4639  -1.93862250  -4.25861792  -0.93011203
4640   3.35764098  -1.33874816  -3.22913185
4641   1.64988960   5.79495571  -1.39905930
4642  -0.90509333   0.47147716   2.00607486
4643  -2.46488075   4.20886553  -0.12616821
4644  -1.72307051  -2.52198724  -1.83047966
4645   5.57349658   1.51177082  -5.17623466
4646  -1.29884261   0.34448816   1.98139768
4647   6.05124758  -9.21582351   1.80272974
4648  -2.04494678   2.60466031  -2.23369422
4649   2.65154070   6.73371037  -6.18507690
4650  -0.59907234  -5.84538237  -0.45652188
4651  -3.94265644   1.17817889  -3.01641314
4652   2.43745937  10.83215526   1.74935666
4653  -1.12313815  -5.58553822  -1.14028866
4654  -0.91648568   0.32352931 -10.33874289
4655  -1.67734405  -3.01174358  -1.69320939
4656  -0.96766923   6.54791394   1.85002564
4657  -6.03335826   4.15797658  -1.08861755
4658   1.51128187  -2.88997171  -2.76859213
4659   2.26756811  -9.34321936   1.93803539
4660  -1.37768427   2.39855410   2.65197801
4661   4.60101932   0.43622771  -2.49771673
4662   1.62510684   1.00532766  -2.54679895
4663  -7.71610297  -6.11364539  -2.60746968
4664  -3.42247219  -2.44959643   2.34227857
4665  -2.59619496  -3.44563477  -2.55049193
4666 -10.53853991  -5.15429254  -3.90891888
4667  -2.06982116  -4.83927297  -0.61531259
4668   3.43291491  -4.89109967   0.94282474
4669   7.99313464   3.67030871   7.63365771
4670   1.52307501   2.72352247   3.45632117
4671   3.95395389  -2.13015516  -0.36249491
4672  -0.23863058  -3.14360500  -0.99766328
4673   3.67056202   5.45159463   0.68291177
4674   2.37470925  -8.19752848  -0.69098864
4675   5.50616382  -0.13076325  -2.53213344
4676   0.20137152   0.45733021   4.27051614
4677   5.11482308  -4.70279621   2.32720934
4678  -3.28106749   6.10187579   1.79262085
4679  -7.36325265  -4.34961074  -1.51009475
4680   1.85899391   6.86744319  -0.38202106
4681   0.28256262  -4.95213314  -0.26040252
4682  -6.45023309   6.60023682   4.68576184
4683  -5.38065585   1.05386568   0.14750715
4684  -3.36476997   5.08070510   3.79478272
4685   1.61983635  -1.95215273  -3.48327102
4686  -0.52435065  -2.43901972  -6.55859823
4687  -0.79660633  -0.27791707   3.11594302
4688  -4.14133065   0.55910650  -2.68632053
4689   0.77278080  -2.86479557   0.75513306
4690   3.88026011   3.14162785  -3.77929510
4691   4.51222570   1.97672856   0.31391765
4692   3.35512597   4.75901792   1.71540222
4693  -4.84948711   1.37468821  -5.37404492
4694   2.42108419 -11.77582344  -1.20699419
4695   1.72086653   4.13382416   3.26067033
4696  -3.71658686   3.94799354   0.50791289
4697   2.86598911   8.05628605   3.73703615
4698  -0.68234646   4.57288189  -0.68130598
4699  -3.93508880   4.12401416  -2.34956310
4700  -2.70113505  -2.94061235  -5.51987362
4701  -0.04578604  -2.97339298   0.55609600
4702   0.56068158   3.85450536  -2.58007635
4703   1.98481940  -0.85734737  -4.85221709
4704   3.37226371   6.58054684   5.32602151
4705   1.69977491  -1.73472269  -4.28866169
4706   6.13135547   0.19510388  -5.85083390
4707  -2.13109728  -1.52097423  -4.41386381
4708   1.82653602   4.65721923   0.20022166
4709  -1.63722655   6.49250062   3.48595014
4710  -1.44463045   0.99460733  10.23649907
4711  -1.27361943  -8.71988121   0.95449731
4712  -5.16595983   4.30022246  -4.84964359
4713  -0.91428371   6.92775998  -0.51521630
4714   1.70178371  -0.40318039   2.08563387
4715  -2.11709706  -1.25751774   2.99761092
4716   7.05694637   3.94696819   0.45287630
4717  -1.77062200   1.55613476  -3.93145290
4718  -5.30364610   1.53278295  -3.68894123
4719  11.59687019  -4.33716290   2.33179308
4720   1.52153687   0.88294666   0.95207044
4721  -3.84809369   7.21184051   0.22034133
4722  -4.50339110  -0.37964905   1.03267691
4723   2.22320474  -0.64870831  -5.22300020
4724   2.97464782   6.07098080  -0.31816714
4725   5.02962576  -1.85932055   1.77679097
4726  -1.84029385   1.19773419  -5.98135141
4727  -1.63591794  -3.25876870  -5.38398101
4728  -4.28434274   5.88361903   2.28411967
4729  -3.79181483  -8.10754140  -5.81785947
4730  -1.53904851   4.62887914   3.83188793
4731  -7.17967802   0.74309070  -3.65527622
4732   2.29465349  -4.00001798  -4.51690908
4733   4.85259482  -0.88483915   3.27743157
4734   2.94542488   2.58852109  -4.63001209
4735  -2.20018558  -7.90159141  -5.54845125
4736  12.94228738  -1.83131424   3.50134594
4737   3.85742976   2.81091462  -1.25257480
4738  -2.52628950   1.34842216   2.14549776
4739   4.74696820  -1.31329660   7.83105104
4740  -0.02698529   1.55972844   1.44076484
4741   3.83065556   7.59652229  -7.34435739
4742   4.31192835   3.30090227  -4.56252156
4743  -0.82247719  -0.93474516   1.26755774
4744  -1.87734219  -2.02092509  -0.00172784
4745  -3.09048792  -1.29356332  -3.50307211
4746   1.55790821   1.17080758   0.28431441
4747  -4.85141640   6.15903001  -2.23086616
4748   0.67965391  -5.40846868  -1.06752801
4749  -3.66068562  -2.15664761   1.85158688
4750   4.33026428  -1.61981769  -2.14748812
4751  -5.22298538  -0.76420814   4.76913061
4752   3.68864270   1.09644631  -0.67732925
4753   4.91876576   2.30857413  -2.03100864
4754  -2.08302411   7.14270874  -0.77275743
4755  -0.73332709   0.79479372  -6.81444711
4756   0.79685196  -3.78889462  -2.48515691
4757   2.70801743  -5.51078180  -3.61345080
4758   2.71450728  -7.12727911  -6.22930107
4759  -0.72738258  -2.64985083   5.17368591
4760  -2.70541713   2.68521446   5.16732013
4761  -2.97371102   0.46909404   2.08355836
4762  -4.03430253  -5.47955818  -2.39906313
4763   2.21324665  -3.43100185  -2.66466432
4764  -5.04377364  -4.98091864  -6.67436502
4765  -1.18065898   4.70173892   0.63543366
4766  -3.14059564  -0.15425038  -4.13638382
4767  -1.62434484  -1.27793310   0.22272968
4768  -6.88550987  -1.36425923  -3.79303258
4769  -5.95518345   0.16896430   5.52811230
4770  -1.64663641   1.14098668  -0.34019401
4771  -3.55554670   1.33438824   2.21954168
4772   0.24007805  -0.55688695  -7.55716998
4773   6.27586745   1.63115397   0.43451520
4774   0.34836546  -5.39105503   1.83175746
4775   0.15186172   2.72891946  -3.90685847
4776   3.27822546  -3.77164552   2.80198549
4777  -3.70584923   2.16480194   0.65804115
4778  -8.43153654  -0.72520332   0.99769047
4779   3.31672672   0.14345788  -4.55501800
4780  -3.09914373  -1.46101125  -6.30500522
4781  -1.55678088  -3.00697296  -0.83481531
4782  -8.64473289   3.20040667   4.62436881
4783   1.11378389   1.23761308   3.39077336
4784   0.74468922   5.38192060  -3.96872725
4785   3.97021002   0.22040366   2.11024998
4786  -1.15619946  -6.22750949  -2.14178157
4787  -7.50469638   0.75045873  -0.20349183
4788  -1.97568201   4.22322354   1.31348054
4789   8.16069406   0.56011552   0.48037658
4790  -1.87156918   1.55101608   4.35857130
4791  -0.79495606   0.86013609  -3.60490068
4792   0.38982867   2.41373299  -3.12257720
4793  -0.10674929   6.10870242  -1.11581781
4794  -1.52560564  -0.34890659  -1.37252284
4795   3.99198403   6.43515961  -2.10954277
4796   3.36453596  -5.34474639  -1.09331418
4797 -10.29104154  -3.52360346   1.37265978
4798  -8.91603550   0.42834449  -3.76107112
4799   2.18756510  -0.38081779   3.91518890
4800  -4.75812269   2.51814012  -9.60374711
4801   2.04094791  -2.73240610   3.85526214
4802   3.01506189  -2.88650686   1.71141379
4803  -1.01161495  -6.01859057   3.44886435
4804  -7.89385923  -3.29515296   2.72579507
4805   5.85536805   2.91799220  -1.19729197
4806   2.47053316  -1.82945450   7.06886731
4807   2.54742530  -1.39372318   6.57458267
4808  -1.10241387  -1.08531948  -4.57965075
4809  -2.77093332   0.35236311  -4.15848713
4810  -3.87862493   7.54414138  -2.62370010
4811  -0.33626866  -1.36917140  -0.20229661
4812   1.45693747   0.97158599  -0.30291226
4813  -3.08533244  -4.92875652   4.06931132
4814   2.01060744   1.99709670   1.93674923
4815   3.50923063  -5.01502801   6.42132992
4816  -3.79681650   0.00202212  -4.12729129
4817  -0.51044891  -5.20579722   1.20589179
4818  -6.44514149   6.64123427   0.41480729
4819  -6.84428498   1.43026045  -2.84241768
4820   6.86358240   0.19251374   3.53969878
4821  -2.29203046   2.05292876  -3.46447475
4822   1.15138966   2.93174214  -2.39345087
4823  -2.03441009   7.05789899   3.19189003
4824   1.55493219   0.23656669  -0.04956423
4825   5.18593689   2.14727000   0.90120482
4826  -5.54111537  -5.84429322   2.00141512
4827  -4.02908766  -2.48338773  -1.37544827
4828   5.55966495   3.63059854   0.05258269
4829   0.18222800   2.80236687   4.19250884
4830   9.18868925   3.42004746   1.64166113
4831  -8.00396847  -5.54425486  -7.78659908
4832   3.07822550  -3.13872500   4.31354993
4833   0.74494463   0.20100651  -2.57896970
4834  10.77944404   2.66112911  -1.27911039
4835   5.52792162  -3.09669195  -7.20860339
4836   1.70223760  -1.69117815   1.87950569
4837   2.83781664   2.88440314   5.17318973
4838  -5.46686433  -9.11020306  -6.15760120
4839  -2.10007207  -5.24012594   0.30087294
4840   6.53168721  -3.73338380   3.79274727
4841   4.05184191   4.86403858   2.00481963
4842  -1.87249303   3.31451090   1.15637149
4843  -0.23243766  -0.19382188   4.35982877
4844   7.49861298   2.95527881  -3.17073680
4845  -3.52342561  -1.00945836  11.48760157
4846  -0.15499489  -1.69928285   3.92061775
4847  -1.92659873  -1.46269441  -8.69171893
4848  -1.35051297   6.71510611   5.73542061
4849   0.74140465   0.75415350  -0.38711206
4850  -0.22747739  -2.00292526 -11.50109157
4851  -1.22932590   0.31665699   3.29435564
4852  -6.88623269   3.64517641  -5.10867795
4853   1.38779600   0.67953410  -1.57787584
4854   7.55911129  -1.40680182  -0.47302738
4855  -1.91160737  -2.99081573  -1.63194303
4856   1.21276574  -3.04772348   2.57503116
4857   3.65459781  -0.63274051   4.42031281
4858   8.30572305   1.11024353   4.31742531
4859  -4.19403771  -3.09189740  -0.19618136
4860  -1.83496033  -3.55024863  -4.32716679
4861  -8.76386533  -6.37506886  -3.07355681
4862 -10.35648656   0.59417533  -1.16978360
4863  -2.04672619   4.04442143  -1.79779306
4864  -6.93704941  -4.43644901  -3.85319911
4865   6.02193743  10.30158178   3.98375297
4866  -0.51515319  -1.27870045  -4.03614692
4867  -1.70095625  -0.07276374  -4.54517674
4868   0.58475661 -10.21615309   4.27093091
4869  -6.81088918   0.57495834  -5.40588815
4870   0.27103621   0.62855133  -1.19721021
4871  -9.18816459  -0.76700459   0.79332640
4872   0.99999873  -4.01889485  -2.84010310
4873  -3.36751036  -2.48876759  -1.51524393
4874  -1.31203890   0.06342549  -1.41780050
4875   0.93232022   6.73331876   0.39184673
4876   2.33178851   1.94972650   6.32205033
4877  -9.86950395   3.84608584   0.18409415
4878  -4.49218294   5.94519560  -0.66410477
4879   3.35965336  -4.41443946   2.49400689
4880  -2.50899061   4.05831564   0.11462579
4881   1.85327092   1.11062714   1.75884804
4882   0.99269164   1.17406641   5.65677070
4883   2.32400801   0.77797221   0.74824407
4884   3.32473988  -3.42455666   1.40031237
4885  -1.68991470  -5.83680469  -0.57296856
4886  -6.08077389   1.32624295   3.64703288
4887   7.90872650  -1.74645399  -5.18541700
4888  -4.26788332  -0.06756276   0.20544951
4889   8.83576996   0.16198389  -8.77117815
4890   4.99649998   2.05506114   0.30843412
4891   4.59951087   7.35200829  -0.77004165
4892  -0.73728566   4.13138005   4.14756595
4893   0.52844654  -2.37664845  -3.26583227
4894   2.09209077   1.07194385  -0.49424328
4895   4.22225147  -0.71859380  -0.43255858
4896   2.64471293   6.01779917   1.83330221
4897  -2.87468099  -0.45894269  -5.90078977
4898   0.17853049   1.99037652   0.42030394
4899  -1.93720214   3.77668917   4.68298476
4900   0.99189632   1.35487660  -5.36004896
4901   3.08723874   9.56705585  -8.36904307
4902   3.36014755  -1.95079245  -2.98578565
4903   1.84096359   1.66523268  -4.34534676
4904  -3.55268605  -7.38139231   1.50786726
4905  -6.44982439   2.83658035   6.17811549
4906  -1.74316719  -1.75742467   3.22018062
4907   4.26432501   4.25390049   2.08214044
4908  -2.59262948  -3.93578705  -5.39803271
4909  -5.43745056   4.40700892   2.30929050
4910  -1.72118113   1.04803405  -2.97158019
4911   2.44436986  -0.83149679  -4.64384671
4912  -1.37764911  -4.33862802  -3.21030978
4913  -3.49364565  -9.06333889   0.08957543
4914  -4.56108711   3.06777198   6.75877857
4915   1.34921043  -2.46896075   1.34451440
4916  -6.39986581  -0.28065696   2.89797995
4917   4.58372962   0.77075289   7.57185468
4918  -2.37499618  -3.01177668  -6.94018325
4919   6.12606128   0.68533049   1.73130153
4920   2.39365271   1.07875565  -2.26415380
4921   6.37152056   1.17283531   2.32706456
4922 -15.21040882   8.94702585  -2.43338320
4923   1.93185858   0.26712768  -5.10884308
4924   0.76485060   1.69821097  -2.24064655
4925   9.49732916   2.84622395  -9.14942471
4926   4.21142798  -2.59779519  -2.51016660
4927  -0.24156757   2.05330939  -4.60500237
4928   1.19566810  -2.80937986   3.42255848
4929  10.41043549   6.53401448  -0.55584956
4930   4.88157541  -0.55482964  -0.01567208
4931  -1.19308302   1.29049492  -3.34753981
4932  -1.57891823   1.22039734  -1.08326435
4933   2.59748121   4.85123671   9.88147583
4934   6.48306686   0.08932430  -4.41751487
4935  -2.31756374   4.27322773   1.09442355
4936  -4.13093179   0.49920839   1.04404462
4937   9.63399709  -0.36150582  -1.66507228
4938   3.65590566   2.84975546   2.95759258
4939  -2.60669128   4.78713364  -2.56305637
4940   3.20538801  -1.61744999   1.19146161
4941   9.69864718   3.09951615   0.89369603
4942  -2.12409462  -0.80042409   1.64745418
4943   3.03802406  -2.68222190  -3.46597241
4944   6.35427760   0.53464939  -0.94839688
4945  -5.92380812   4.01050573  -1.76842173
4946   2.48871621  -2.54017964   3.07365945
4947  -1.89097254  -2.31341412  -2.40817010
4948   0.82533397   3.14370107   3.84714739
4949   0.57187788  -6.95898720  -5.99887587
4950  -0.34539470   6.65282524  -3.90079372
4951   2.59661619   1.29231065   3.91250450
4952  -2.91908051  -2.56756715   2.42091019
4953  -5.94907010  -1.57596209   0.22816813
4954   0.02423092  -3.17748744   3.97577766
4955  -2.39631276   1.16471985  -3.43217132
4956   1.75292567   2.61884308  -1.90629299
4957   1.79949726  -1.13010481  -2.45079703
4958   1.55239585  -0.86401733   0.60921354
4959   0.34463762  -1.36472422   0.73074144
4960   4.11960962   1.25036581   4.47581764
4961  -3.73529540  -6.72973687  -3.00698418
4962  -2.00706703   1.55492223   0.13101755
4963  -3.64677358  -7.09996249  -3.56756154
4964  -4.71001655   3.63260257   5.45331788
4965  -5.89997870   3.68396235   4.73642482
4966  -5.69846394   3.87492371   7.41949224
4967   2.26450355   0.85540585   0.75085759
4968  -2.89285860   4.54002708  -4.88846856
4969  -0.33383426  -0.36103351   0.95372653
4970  -5.03542148   4.23665964  -2.67219371
4971   2.26795746  -0.87340735  -0.09009792
4972  -1.76931437   0.48757337   1.49263327
4973  -2.81927544  -0.67132968  -2.09106439
4974   3.22428576   6.01285907   4.24778456
4975  -0.44649637  -4.42887519   0.10145519
4976   0.90833999   4.24401980   3.65413869
4977   0.78160115   3.80663658  -4.40875724
4978  -0.75932784   0.45785993  -4.60924922
4979   2.27950933   1.90214791  -1.86079868
4980  -4.41495893   2.68348942  -0.12769834
4981   2.60038523   6.55394572   0.78505900
4982  -0.39877350   4.79837396   4.24661822
4983   3.82559482   7.08847064  -2.82192891
4984   0.79033330   5.95799264  -0.28860148
4985   1.09133794  -2.30565977   1.19392695
4986   2.92554110   6.44024473   3.68661415
4987   0.98017640   5.87202312   1.20914202
4988  -2.28553414   4.97721912  -0.63219474
4989   3.93336567   6.16440050  -6.44001481
4990  -1.94008070  -1.15518210  -1.73428925
4991  -0.35810323   1.57824268  -6.30787268
4992   3.68019658   7.42171392  -4.79243351
4993  -3.63482565   1.79692516   3.46527817
4994  -3.08665732  -1.17152959   2.62511080
4995   1.08581724  -1.36043658  -2.35934574
4996   2.37097597  -0.89487327   3.00405955
4997   7.14165196  -3.25812908  -0.62266195
4998   0.98556279  -2.71703074   1.33725128
4999   3.80333603   7.63748756   3.75153559
5000   3.53526785   1.91871798  -4.40518384
5001  -0.08944343  -4.32875186  -2.13966381
5002   2.64145819   3.68042434  -3.33170450
5003  -8.06821470  -1.49943953   4.40680759
5004   1.41511157   0.92203390   6.87952529
5005   3.08791084  -3.21702548  -0.87180281
5006  -1.05600850  -2.42095322  -1.36595630
5007  -0.43546079  -2.99885252  -2.48343881
5008   4.14153096   9.09122488   1.71470408
5009  -1.79948844   5.48498906   0.41475440
5010   2.95051022   1.50179682   2.36779563
5011  -1.97590844   1.57729425  -1.37438983
5012  -2.06219526  -2.02496771  -3.94092892
5013   2.64576714  -1.45231928  -3.23643273
5014   6.84427852  -7.18544895   2.75378378
5015   2.13899192   1.18751874  -3.50761582
5016  -0.95530959   1.24955858  -0.28965509
5017   4.98226926   0.26204528  -0.93492657
5018 -10.85548472   4.63185456  -2.61926765
5019   0.93547208   8.50045268  -2.20911262
5020   0.95216515   6.12948286  -1.18314637
5021  10.27958535  -4.55645219  -3.11550269
5022  -5.32228664   0.31064015   5.49840968
5023   2.48407606  -6.97939416   0.11919922
5024   1.50061710   1.29767990  -2.41914127
5025 -13.13435026   0.51467870   1.31181010
5026  -1.25413251   1.98349052   2.10635610
5027  -1.21293168  -7.36672689  -2.03798909
5028   0.49037587   1.20574130   2.66754547
5029   1.31899274   2.74552759   3.67692396
5030   5.87584303  -1.05067630  -2.02030750
5031   3.02345392  -4.48443156   1.49362916
5032   5.41722216   3.78701224  -0.66850842
5033  -4.07326537   7.64780526   0.38765334
5034  -1.70265111  -6.06082917   6.72789507
5035  -2.48920244  -1.60424498   3.06397578
5036  -0.98648907   5.94018170  -3.69512221
5037  -1.73847495   2.42641412  -4.22047889
5038   0.03110330   2.93460031   4.88858274
5039  -1.27850826  -0.23509142   2.87896971
5040   3.49581065  -2.65863746  -2.80768735
5041   7.20037259  -1.83504656  -0.64890026
5042  -3.72554478  -0.77962008  -1.55805629
5043  -0.83246767   2.59393284  -3.65739619
5044  -3.40543103 -10.08099907  -3.64978933
5045  -4.29931514   0.48569873   1.68108581
5046   2.58229292   1.67728473   3.20230345
5047   5.51945667   2.77456944   2.83944503
5048  -1.11624684   4.28727324   2.03941939
5049  -3.75505028  -5.17983567   0.34415770
5050   1.56873060  -1.24144394  -5.95019194
5051   1.08851363   0.96674173  -1.71790577
5052   0.91309103   4.71700292  -0.51152124
5053   3.26771223   8.80675680  -1.07942487
5054  -4.64528348  -0.53065320  -2.21333524
5055  -5.98406180   1.48089170  -4.42301785
5056   7.85606351  -0.95288290   0.13563075
5057  -0.73269402   3.65349302   5.40892703
5058  -1.17117340  -0.40007288   6.08698880
5059   5.82255310  -6.47822856  -2.19926589
5060   4.01459593   1.71274448   1.34872290
5061   2.14777647  -2.06787522  -0.94271228
5062  -1.11403656  -4.43400458  -4.21828384
5063  -0.88403331  -0.13555650   0.68342710
5064   2.20342518   3.28459913   1.32077641
5065  -3.81535468   7.52417095   6.68045921
5066  -2.76796971  -0.37914815  -1.31937116
5067   2.91159666  -1.21606226   2.79300607
5068   9.18056227  -5.17147991  -6.66145681
5069  -1.77105321  -4.23492437  -0.27028804
5070   1.44213692   6.65962720  -1.22160692
5071  -1.33931031  -2.47800789   1.51092743
5072   4.14264798  -2.56233702   3.73471657
5073  -1.80925081   7.39208659  -4.09457140
5074   0.50675272  -6.27524525  -2.73632710
5075  -0.02971936   1.38220261   0.18744393
5076  -0.51837766  -2.83099935   2.84581678
5077   2.76747574   0.56489032   2.71587750
5078   0.29677555   4.73069419  -4.73112785
5079   5.49591889   0.02844350   3.49986825
5080  -4.50403700  -9.30127886   4.10689042
5081   0.58777753  -6.69910070  -4.75696008
5082  -3.20231661  -0.61448483  -3.30611837
5083   5.48780645  -0.79275444   0.30737925
5084  -5.47073917   2.48532092   5.14745894
5085  -4.33957630  -3.10347339  -1.72343975
5086   3.00434919   5.43393530   0.51673237
5087  -4.57776104   3.88495610   2.62801041
5088   3.03850180   0.28855595  -4.32088029
5089  -4.08115780  -3.46065214   2.12338412
5090   4.86079535  -0.66331338  -4.92151061
5091   5.11470385   1.01840336  -5.53814210
5092   3.80200160   3.59209441   2.99516279
5093  -3.55481499   2.82182223  -0.53294710
5094   0.98021490   3.49597665   3.91606659
5095   1.41262504   2.30883487   2.76720927
5096  -0.31534881   0.71665303   0.16538253
5097   5.93466023   5.71346746   1.91507965
5098  -0.58001917  -2.39220417  -5.06962245
5099   3.96562390   2.35022377  -1.84150067
5100  -0.09641388   1.73805896   3.21604585
5101  -1.21287685  -0.89262313  -1.44711379
5102  -0.45289984   9.08487781  -2.94528376
5103  -0.28916880  -0.59857676   4.94843364
5104  -0.63155324   5.02224816  -3.74700578
5105  -5.29013479  -5.72187311  -3.16134584
5106   6.52440949  -0.18705554   0.42405254
5107  -0.65472201   0.21888523   0.72742880
5108   4.33124069   2.86206821   3.46037354
5109  -5.01690075  -4.27942269  -1.42543498
5110  -2.53200568  -1.11628945   1.78413726
5111   3.21613431  -6.88285206  -1.45043895
5112  -1.70023400  -2.53228667   1.26781495
5113   2.58836699   5.31800660  -1.62299519
5114  -0.98743642  -0.95509555   1.59179730
5115  -4.84136550  -6.60895047   2.35866037
5116  -3.60082250   4.68598325   4.17408299
5117  -1.07285024   0.00827481   3.57650636
5118   2.10747962  -3.82679111   0.22972770
5119  -6.55048626   6.04392322   0.60525468
5120   4.34676334  -6.62751064  -1.50023903
5121   4.96143338   2.50859155  -0.64591371
5122   1.08593966   0.86920801  -3.11747034
5123  -0.68945767  -2.73001598  -1.62586153
5124  -1.50445377   5.36057544   1.21899329
5125   1.17559355   0.15398470   0.49578156
5126   3.96634536  -7.13573167  -2.29731065
5127   2.52925497   2.52298821   0.42703218
5128  -3.98625770   2.88058500  -4.69986358
5129  -0.36411231  -0.40823589  -7.33310716
5130  -7.06660516   3.30623134   4.02369325
5131   2.24960991   1.01860890   6.13017893
5132  -6.98262006  -2.16603869  -3.53771297
5133  -2.14263252   1.83470637   3.91596727
5134   3.88396253   2.61345411   3.79684729
5135   2.03623530   0.27918205   1.73493850
5136   1.21849390   0.63356215   3.06613828
5137  -4.53796111  -1.17489678  -1.67660268
5138  -5.35794735  -1.65715223  -3.45849316
5139  -0.92119349  -3.67675270   0.38572081
5140   4.03792526  -7.22515917   4.58083580
5141  -1.82268789   4.07334389  -4.07390619
5142   2.40380987 -10.18827237  -0.04225931
5143   6.72683174   4.71520147   2.37043344
5144  -3.81300397   6.33693687   5.47734330
5145  -1.85112421   2.87706913   4.12467961
5146   2.94550527   0.24737364  -6.64809170
5147  -4.62457565   0.24342629  -1.94907473
5148  -3.00567364   4.07559770  -1.06658156
5149  -0.72506360  -5.77277108  -0.95195493
5150   1.24944947   1.59333047   8.04184796
5151  -2.74486896   2.35497513   2.67651177
5152  -1.69804649   5.53589708   2.93452253
5153   1.03489279  -2.67196612  -0.67902402
5154  -1.66516256  -4.48824132   7.76515064
5155  -1.27748095  -3.30923261  -7.27367861
5156  -0.78972867   1.40324230  -4.72506841
5157   6.96717116  -3.82072580   1.28601531
5158  -4.31880905   1.70136531   3.61079169
5159   1.44754015  -1.03953896   0.81791805
5160  -0.32378819  -0.05542271  -6.35807376
5161   0.31054597  -6.44139486  -5.79463980
5162   2.31104584  -1.26541316  -5.30274042
5163   2.72783611   3.36046410   6.67241229
5164   1.24266134  -6.95480567  -5.29572126
5165  -0.62736452  -2.88857262   1.12492125
5166   4.84355151  -4.72704272   2.42966542
5167  -0.91418173  -4.19165062   3.79652357
5168   4.24783018   7.83292962  -3.69899686
5169  -1.73481839  -1.13337325   1.90479398
5170  -5.13731130   1.80999180   4.49270937
5171  -6.23522276   3.71487583  -2.27429552
5172 -10.42853736   5.86298881  -0.47875126
5173   8.03499958   2.71271054  -7.92369544
5174  -3.53671028   5.31111791  -2.86044219
5175  -2.03548576   2.63972853   1.33418197
5176   0.40477815  -2.22408779   1.13982635
5177   5.07931087   5.93289640   0.33206102
5178   2.60455578   5.65038871  -2.99657322
5179  -6.34966402   3.62626542   1.61305612
5180  -1.13705015   6.19091939   1.31869822
5181   0.91897985  -6.95162682   2.16037268
5182   4.13113371  -0.07183438  -2.09083952
5183  -2.78838840   0.07815909  -3.82107192
5184   0.08239080  -6.37603218  -1.08897172
5185  -0.58853610   2.97356322  -3.79060363
5186  -3.49429024   2.96505498  -0.99701172
5187  -1.44290909  -2.71725789  -0.12987489
5188  -1.71102472   9.67004625   6.80322686
5189   1.46108458   8.47980184  -0.54469127
5190  -0.17005568   2.11207969   1.54965212
5191   5.89950578  -2.97949495  -4.02667778
5192   8.43042696  -1.23446000   6.09985957
5193   0.76223686   2.27234485  -1.60439271
5194   2.93990042   4.40957391   1.81814372
5195   3.30362740  -1.27223728  -6.08887010
5196  -2.32912960   2.68620287   8.71338038
5197  -2.75483259   5.98693239  -2.91053023
5198  -8.80690172  -1.18437681  -2.45292714
5199  -7.63026036   1.82127223  -3.99861747
5200   0.30693690  -0.74814746  -0.21714209
5201  -3.12547022  -8.41740992  -5.91161917
5202  -1.48492002   1.54616594  -4.93248192
5203   0.52457438   1.86165053  -0.33289150
5204  -0.59242179  -1.49079068  -1.25916171
5205  -0.57436903   7.32758787  -5.12051127
5206  -3.83729358  -1.55852808   0.54835597
5207  -2.86552621   3.53666433  -1.98007035
5208   3.51749629   3.90343908  -3.18060433
5209   4.99371967   7.81069276  -4.04152031
5210  -0.90696878   1.39354419   0.84725134
5211   3.26380636  -1.29427462   0.09266695
5212   0.24177418   6.24443924   5.60095479
5213  -6.52227878   2.33637814   1.47253847
5214  -2.76982461  -4.82845882   4.62620886
5215  -3.39716280   0.63770981   1.75011688
5216   0.28612528   4.79786736   4.28187081
5217  13.14010880  -3.19912311  -3.39541870
5218   1.98253529  -2.49037002   0.58481778
5219   1.37845206   3.42753675  -4.11699475
5220   2.57798286   6.87532255   6.13222574
5221  -2.94922791   0.38220703  -8.31079307
5222   1.10041106   2.57039870  -6.42077997
5223  -1.77175183  -7.69865762   1.70819997
5224   3.27417357   0.86514662   7.64351674
5225   1.53881015   0.45287430  -7.12108816
5226   2.83501995  -3.28393246   1.48151684
5227   1.51580694  -0.08687428   3.19092761
5228   3.84444599  -3.87573390  -2.61234462
5229  -1.48364282  -5.65824382  -2.38433640
5230  -4.77021464   1.95764289   2.80467327
5231  -9.54759131  -2.93625043  -4.80276977
5232   4.25143249   1.02525241   5.31158434
5233  -0.94160182   3.05370755  -0.12031758
5234   4.36812431   0.26120161  -0.17907338
5235  -4.49741766   1.50170302   3.70003491
5236  -7.40831950   7.83310832   3.81023540
5237  -2.21246973  -7.19362749  -5.25397732
5238   1.85352465   2.03193930  -3.44247917
5239   1.51425136  -2.63626370   2.23614811
5240   5.64888724  -2.84200973  -1.79522007
5241  -4.61741441   7.67588237  -1.80965046
5242   3.43561307   8.86578536  -2.33854777
5243   2.12643161  -1.74709097  -3.80262856
5244  -4.75885173  -2.83981458  -4.41821436
5245  -0.47140853   0.54824109   1.32314264
5246  -1.16590933   0.01314802   4.11158402
5247   2.07596266  -1.30980617  -1.19524387
5248   5.52707242   2.03393485  -6.29375118
5249  -6.49164195   4.77646461  -0.28450551
5250  -4.81358063  -5.62103086  -0.68050942
5251   3.77042804  -2.27945773  -2.23713475
5252   3.46452730  -5.70540590   2.33658085
5253   3.69747004   2.90363541  -3.72896673
5254   3.88866436   0.79791179  -0.44872493
5255  -1.19216051   3.08232342  -4.83456680
5256   5.23042520   6.98635135  -1.36808025
5257   2.26421923  -0.24658117  -3.64697036
5258  -1.50185923   3.39171774  -2.78315977
5259  -0.52555500  -1.67603838   1.06303293
5260   3.67218131   4.88412751  -1.18047561
5261  -0.15458038   2.42534276  -5.41066743
5262  -2.26076518   2.22826870  -1.01293839
5263   8.25382644   1.64066554   6.76580194
5264  -1.81305165   0.06395941  -2.84458116
5265  -1.77030029  -3.91260408  -6.01888579
5266   2.46640909  -2.20405491   5.83326372
5267   2.02186654  -1.73617864   0.27190841
5268   0.55948506   7.74414668   1.90087982
5269  -1.36505471  -2.02379830   2.20189513
5270  -0.36963636   0.80235592  -1.71433212
5271  10.04133158   2.17600451  -0.12527512
5272  -0.32132745   5.51870273   1.37925036
5273  12.27494116   0.63225977  -2.00588915
5274  -4.28868713   4.56229523  -3.18489655
5275  -2.80183429  -6.46021748  -1.51822702
5276   4.71215556 -12.13117576   1.41311683
5277  -3.81925906  -2.51581678   3.93997977
5278  -2.45821283   8.76578886   2.46974262
5279   5.10536844   2.43112035   1.85626566
5280   0.45678946  -4.32719791   1.62589258
5281   0.36660411   1.52635940  -4.44421664
5282  -1.92663983  -3.40945042   0.58358512
5283  -1.52725574  -2.79303654   0.52134777
5284   3.03523192   4.42516875  -1.94742682
5285   2.51783422  -4.31110935  -1.16754744
5286  -2.40316901   4.07957057   8.23071513
5287  -5.52021537   3.50700760   6.06247963
5288   9.18895069  -2.70550519  -3.05051435
5289   1.40408191   7.20064377  -0.89222278
5290  -1.64749800  -2.19718346   7.19650420
5291  -1.00837119   0.56010907  -0.30231376
5292  -3.82085497   3.78271514   0.31829899
5293   4.96163189  -2.41192255   6.66323263
5294  -5.82009847  -1.96259117   3.83603041
5295  -2.00135779   0.69706727  -2.63759616
5296  -2.86244637   0.55867984   0.98424024
5297   2.98814802   3.25256311   0.18830152
5298  -1.32536267  -4.27693903   0.11437884
5299  -7.12650525  11.58552778   0.51399356
5300   2.87182917   6.62475986   7.28170431
5301   3.40500350  -3.28063983   4.73745648
5302  -3.77154491  -1.02899274   2.23830381
5303   1.07944150  -0.14745952   3.10087982
5304   8.67551565  -0.71318304   0.55466975
5305  -7.23918721   3.28309016  -4.27851747
5306   1.63237482   8.99372339  -2.36079329
5307  -7.25722473  -8.63848218   2.92547308
5308  -1.72289346   0.40741857  -1.31455516
5309  -4.65018016  -1.02520862  -3.18007652
5310   0.53802990   4.40735051  -0.29223882
5311  -0.59868099  -1.22634159  -0.96315113
5312  -2.88712949   0.77014912   0.96552565
5313   1.26991161   6.05467503   2.61767257
5314   1.73378342  -1.93935309  -2.04662270
5315  -0.69240746   3.23867082   4.10544270
5316   6.92463525  -3.71285515  -5.41816726
5317  -0.89643378   0.32490488   1.56058555
5318   2.07473960  -2.48369147   7.33327046
5319   2.77017385  -4.84978903  -0.07336655
5320   1.09757333  -5.56426871  -5.00356542
5321   2.28799754   2.63811225   2.40946994
5322   3.65813788   4.52541530   3.62075211
5323  -0.34919030   3.78404718   3.88593776
5324  -4.82767765  -3.86798862   0.62490607
5325  -4.95974150  -0.68398712   0.15507957
5326  -3.79797379   2.19738576  -3.29965546
5327   0.93102910   6.59898178   6.38759381
5328   2.12784971  -7.84880610   0.53916940
5329  -3.27419918   1.66705930   1.83121962
5330  -3.61945546  -7.60356612   6.22128534
5331   4.90826082  -6.73630875   5.89893693
5332   0.52995603   3.11577769   1.64046114
5333  -4.42171943   0.46209374   2.34493287
5334  -1.45561657   0.80300688   1.66873631
5335   2.29915906  -5.83324064   2.60187967
5336  -1.74184673   5.45804767  -0.94953627
5337  -3.23331599   3.63843866  -2.55021396
5338  -2.17735179  -2.14751786  -2.54505110
5339   4.21976608   2.43846989  -2.77681298
5340   0.13995651   0.31542854   2.83837323
5341  -5.42494344   0.71148948  -2.42286175
5342   3.44449608   1.30247521   5.72834995
5343  -7.18042186  -0.23417421  -0.25410918
5344   3.50616676   3.88974024   3.50233922
5345   8.10073281  -1.92360182   4.00014710
5346  -7.57647217   2.31500553  -1.66145929
5347  -6.26159303   0.13818838  -1.43851422
5348  -5.25932194  -1.42289647   0.34072367
5349  -2.09649767   4.24619308  -0.05343121
5350  -1.50181008   5.80551546   3.41674570
5351   0.79175597   1.88228093   0.25149384
5352  -3.64056009   0.39660042  -3.05000744
5353  -1.31798553  -4.56110431   0.37747511
5354  10.96263217   3.10092400   6.34299791
5355   4.63638902  -6.02112327  -1.16764956
5356   1.29202150  -5.43795554  -3.66418454
5357  -0.84161234   5.47890545   4.69243625
5358   0.91709741  -2.26896740  -1.55401565
5359   3.75824476  -7.11503049  -2.57673148
5360   0.48699527   7.28661014  -2.68498022
5361  -0.02032996   3.47776210  -1.05975659
5362   0.98559625  -1.64603194   3.80052752
5363   6.44272908  -1.31833227  -0.05089020
5364  -5.59456210   2.29672712  -3.03139374
5365  -1.03839174  -7.90244042  -1.29222962
5366  -5.26605739   7.65827518  -6.58695718
5367  -7.30240068   0.59229951  -1.14489103
5368   6.41676531   8.24922136  -0.76850312
5369   2.83248641  -0.84780444  -6.55848174
5370   1.61024176  -0.96884139  -3.70851638
5371  -0.79694256  -5.51374609  -1.09394310
5372   2.87944635  -5.75941076  -1.69173587
5373   2.53554334   5.21194422   4.66290674
5374   7.36240968  -4.28497501  -9.05168949
5375   9.83862401   1.97083430  -2.91725289
5376  -3.31210298   2.87786404  -1.44854228
5377  -1.47330228   3.11398847   2.16343444
5378   0.37941989  -0.06808097  -4.56400900
5379  -1.11417844  -0.00980734  -1.03107055
5380  -6.39401118  -1.68799266  -4.74915830
5381  -1.09770906  -1.94779426   3.14185909
5382   1.19844309   0.16925119  -0.73074552
5383   7.98168301  -1.73910042   4.63131773
5384   0.10497398   2.69623302  -2.95696391
5385   1.82073269   0.15107103   1.90294745
5386   2.91655286   0.99261250   0.97543994
5387  -0.30964479   1.70156467   0.45905913
5388  -1.62082030   1.56762045   4.17047733
5389  -1.95610093  -2.92953018   2.19923405
5390  -1.06465712  -6.21367037  -0.37183246
5391  -1.12853135  -4.88519643   3.60894554
5392  -4.04052409  -4.37060399  -8.75102130
5393  -2.43870683   1.98163549   5.79592680
5394   4.66418043  -1.10342357   2.91313420
5395  -1.33345837   4.55870481   1.58128537
5396  -2.03046138   2.90615204  -0.82063332
5397  -1.64154913   0.23496333   6.94120630
5398  -2.81531278  -6.47555604   3.52009542
5399  -1.35948112  -2.22618413   0.90009692
5400   3.32036615   7.11167051  -5.59436998
5401  -2.60594520   0.59047890  -1.04938514
5402   3.01092302   0.51780046   0.57643081
5403  -3.45134744   0.27969926   1.27440528
5404   0.32734795  -5.36459996  -3.12264233
5405  -0.30483661   2.65966586   3.31640463
5406   5.45494288  -1.41535605   2.07720089
5407   0.44209019  -1.93526822   7.33073092
5408  -2.72480963   5.29027423   1.86874303
5409   4.07184700  -2.68255720   1.56722517
5410   4.50518910   1.51339908  -1.37223039
5411  -1.20231180   4.55528020  -2.16581633
5412   2.53870379  -3.29810549  -3.56368685
5413  -0.84661578   3.73044316  -5.54570854
5414   9.92363291   2.62665107  -6.85607768
5415   5.50032398  -1.50575171  -0.24877513
5416  -2.67077164  -0.76843944  -0.34694826
5417  10.74486835  -0.23675055   1.14520851
5418  -3.65875198   4.80362218   4.78377763
5419   5.82321072   6.36325800  -7.63500404
5420   4.93704310   4.57261651  -4.05697625
5421   9.54881692  -3.26194545   0.74444174
5422  -1.16116102   3.27668188   3.64452912
5423  -2.00825195  -0.37077295   4.92948649
5424  -2.58707437  -1.20259723   2.10664973
5425  -5.12290548  -2.47708747  -0.18277142
5426   4.98525209   1.43655496  -4.77126128
5427   1.62733050  -2.51615150   0.27778585
5428  -1.80794922   1.24120530   2.82925735
5429  -6.27062713  -5.57460100   1.59336931
5430   3.26326295   0.03308074  -1.26133223
5431   2.04924308  -0.91769735   5.60333307
5432   2.77397545  -1.58839508  -3.18904430
5433   1.50317158  -0.91463572  -0.88718772
5434   2.89118221   3.91204820   1.04345693
5435  -1.67000068   0.61595143  -0.79585218
5436   4.78675099   3.86418775   3.14679202
5437   2.28088580   2.83071512  -8.05926814
5438  -0.39395386  -2.83958677  -0.82360038
5439  -3.72011885  -8.27018235  -0.26814062
5440   1.59943616   4.64546890   0.61205589
5441  -2.58515021  -1.86406403  -0.10256573
5442   0.11965819   0.51243246  -2.64248419
5443  -0.13113412  -2.44587770  -0.06444490
5444  -1.85694720  -6.42541632   2.86114967
5445  -0.59358671   0.46611721  -2.93692628
5446  -0.13936649  -3.73810000   2.53919944
5447   1.42469564  -3.42935301  -1.96669497
5448   0.42024968   0.80923407   0.96950965
5449   5.48475984   0.96421922  -0.07093872
5450  -4.66232776   0.97199913   9.32596313
5451  -0.77643321   2.76331769   1.80823468
5452   1.55451299  -5.39071778   5.33457841
5453  -0.51513854 -10.04107611   1.82884371
5454  -1.08626928   1.67731823   3.10365248
5455  -1.03070382   1.75412020  -2.52550030
5456   1.81871615   5.37384081  -5.64529337
5457  -5.91416145   2.95646347  -0.06443026
5458   4.34982299   4.37327620  -1.32707181
5459   7.36177045  -3.50710090  -0.57078626
5460  -1.20268945  -6.29300402  -1.15549568
5461   6.55929692  -3.19872882   0.72897169
5462  -4.53111539   1.86777522  -0.36551835
5463   1.68333020  -9.21082915  -2.71332914
5464  -5.93497100  -1.45645064  -1.53120265
5465  -3.28139536   1.35538145   2.28521873
5466   0.55826628   6.60327759  -1.59710360
5467  -2.64872043  -0.36928272   2.74652416
5468   3.46301861   1.18366077   5.37416819
5469  -2.74181137  -2.76094000  -1.52766729
5470  -0.44909903  -5.88274298   5.63176969
5471  -0.96026431  -1.28132173  -6.09573126
5472  -8.23484497   2.23214004  -0.84543863
5473  -1.45222274  -0.89828238   5.67572166
5474   3.25864672  -0.30480716  -0.97398030
5475  -0.73043920  -3.40454753  -2.18805085
5476   0.02592128   5.03906059  -4.16346596
5477  -6.27570036   0.17071709   0.41662463
5478   4.97348289  -5.88529589   0.67199587
5479   0.69504304   1.80406168   2.53008754
5480  -3.70998995   1.29221468  -1.94813233
5481 -11.93335781  -0.46165746   3.30224453
5482   9.00691130  -3.76482757   0.46043439
5483   0.99234269   0.96302354   5.87846778
5484  -3.48789463   4.18330015  -4.97509753
5485   0.34330785 -10.60082947  -4.08713557
5486  -0.96447234   3.68655003  -3.55836063
5487   1.36735528  -2.97337044  -3.20719544
5488  -9.07563864  -1.22207774   0.86368628
5489   2.00422602  -3.48929364   0.38852620
5490   0.93497322  -5.25593787   3.16966710
5491   6.85041041   5.70892028   6.13292326
5492  -0.87609614   4.95928533   8.88669885
5493  -7.34443413   0.45418038   8.31695415
5494  -7.55611105  -1.01863100   4.02713403
5495  -0.55962040  -3.69046383   1.63328982
5496  -2.16837518   0.89517775  -1.98978748
5497   5.82416005   1.57527052  -1.43948838
5498  -1.40701553   6.21620551   7.33515245
5499   8.12061470   1.63424347  -2.76211335
5500   1.08685624   4.25278683   1.11771764
5501  -2.35449766  -1.15137747  -0.97325667
5502   2.59376923  -1.33314836   4.45860770
5503  -1.00566281   1.63128736   6.50884868
5504  -6.40755000   0.68518592   6.64909634
5505  -3.38530851   0.26172213   3.19631952
5506   2.76589304   3.15086519   4.33397567
5507  -6.78091668   4.02258987   2.54362055
5508  -2.29962031   1.80262524  -0.69105173
5509   3.41218101  -3.33869887   2.81708024
5510   1.39956657   0.00011562  -1.06060956
5511  -0.57212046   1.00172782  -6.21427426
5512   5.24529257   0.99574616   4.31268280
5513  -4.61185781   3.63660442   0.52108484
5514   1.58280565  -0.19593575  -0.33237879
5515   2.28848244  -4.16162805  -3.33793509
5516   4.75464626  -4.74939993   7.89416079
5517  -2.06508748  -2.18187096  -0.44882224
5518   0.21860212   0.48393238   2.67509822
5519   4.58034883  -0.81681002   0.60012352
5520  -9.32583539  -7.60727252  -2.75349063
5521   2.01531650   1.23754893   1.10411637
5522  -2.38578273  -1.05470362  -2.21067136
5523   3.67421520   1.98599656  -3.79488466
5524   2.37738866  -6.25470675  -7.02192671
5525   9.10028809  -2.45340109   5.66324018
5526  -1.65278769  -1.09659416  -3.84798832
5527   3.87443120  -4.59241466   3.78234742
5528  -3.53257835  -6.22283768   5.16979571
5529   1.86848824   4.55150053   1.81290165
5530  -3.78468086   4.68527135  -1.75769040
5531   4.42372885   1.63171753   1.96050274
5532  -0.72641221  -0.82890304   3.32721859
5533   9.62519713   1.50932318   3.57931218
5534   2.92052939  -1.88025316  -0.51121371
5535  -1.85649330  -0.06464261   0.47449577
5536   4.69683677  -1.09666619   2.14835773
5537   1.24013851   3.87474270   0.77480535
5538  -0.62149943   2.22811789  -3.77179788
5539  -2.12905925   1.29098356   2.32034529
5540  -7.75916773   2.24256762   0.79480835
5541  -0.95400022  -3.50400773  -1.55938941
5542  -2.54192327   1.25074934  -3.56421473
5543   0.52270500   4.27785108  -3.01413596
5544  -1.90983405  -1.86972622   1.46882720
5545   4.04305596  -3.69703672   4.23075578
5546   6.58813520  -0.07556358  -3.59727994
5547  -9.83643898   1.36500290   2.75556076
5548  -8.58686362   0.31790226   4.29812677
5549  -0.75093864   6.82143719  -1.83780006
5550  -0.24779229   0.10419383   0.55791476
5551   1.56081779   2.22890509  -4.03198733
5552  -4.76271991  -6.06021100   4.99275807
5553  -2.42086690  -1.52492651  -1.68163316
5554  -1.75701438   4.13911148   6.97636780
5555  -0.98314275  -6.32931315  -3.00758643
5556  -0.06870554   0.68003155   4.61716455
5557  -3.12108816   7.11988444   0.07250870
5558  -0.82712020  -1.20761522   4.18378188
5559  -7.59023499   3.49031208   6.08785829
5560   6.32876895   2.37567808   5.30686886
5561  -4.75155928   2.38724377   1.06564949
5562  -9.27749816  -1.13860110   1.59008549
5563   1.21392207   2.28169693  -4.22887181
5564  -4.24098411   5.28732140  -5.96753791
5565   2.79936802   0.75663084   7.93171982
5566  -2.16390186  -1.96748930  -2.13997439
5567 -10.65210146   1.01069867   4.78983063
5568  -3.53692211   6.32496138   2.28115243
5569   8.38081055  -2.82179430  -4.71227892
5570   2.04115626  -0.40615481   5.05953381
5571   5.37277280   0.44034538   4.01444071
5572  -1.74181599   2.21982534   2.21777085
5573  -0.29738050  -0.27514452  -2.17058763
5574   2.03817615  -2.85694907   2.51396496
5575  -9.36717898   2.49513740  -3.48058795
5576   4.08028028  -0.93331344  -1.37656278
5577  -1.54401495  -4.83402052   3.32191506
5578   4.02125164  -6.27036649   8.70934802
5579   2.67529629  -3.08307689  -1.32882228
5580  -5.23541169  -5.64511711  -0.49483845
5581  -2.14963137  -3.48169108   6.86571324
5582  -6.17920845   0.06551540   8.27884851
5583  -3.12034994   3.42785489   5.76089124
5584  -0.12048530  -4.47371031   1.91325012
5585   2.85756731  -0.06964181   7.41614545
5586  -4.82526902   3.25267521  -0.03266531
5587  -5.71997134   9.19230713   3.11654623
5588   7.08472461   2.71339118   0.73789078
5589  -0.83492308   3.97025830  -0.73388880
5590   0.60502318   3.72571777  -5.38847117
5591  -1.34192192   1.45577465   4.37181623
5592  -3.05483955  -3.71784703   3.09554293
5593  -4.60008004  -3.15175774   5.61224962
5594   2.21943054 -10.41693522  -1.05658436
5595  -2.95787589  -5.03528128   1.94416372
5596  -4.50206354   5.59207381  -5.16588183
5597   1.90045904   2.36081265  -4.42707381
5598  -3.80973571  -4.54259578  10.73320453
5599  -0.40708752  -1.07016799   0.89640989
5600  -0.99949640  -2.34019604  -4.30781734
5601   6.50759670  -1.59871337  -0.07015946
5602  -3.23277887  -2.49582873   2.98262391
5603  -1.72297152   1.03419604  -2.70129170
5604  -4.35257501  -6.69199205  -3.81825286
5605  -7.64513925   3.26620732   5.59158046
5606  -1.94258951  -3.36823800  -4.74506734
5607  -4.06384214   0.33554389  -1.22567813
5608   1.32498525   4.39758275  -7.93337552
5609  -4.53337289   1.29119800  -2.77775489
5610   2.11077463   1.16929155  -1.49113999
5611   1.57480656   4.66247560   3.23223004
5612   3.45327357  -1.82514000  -1.22984968
5613  -0.49078970   2.61326956  -0.23120636
5614  -0.72847925   0.33374961  -6.72055192
5615   3.23977704 -11.51044616   0.70740052
5616  -2.87687463   5.98747565   0.42015789
5617   4.69058397   5.61620472  -8.60869617
5618  -3.08156922  -0.50080220  -3.90048112
5619  -8.04948425  -6.45649360   4.39040873
5620   3.49661102   0.74381154  -3.88652662
5621  -0.00188409   7.93459299  -4.08639527
5622   1.08310132  -1.12932974   4.01533905
5623   4.36341014   1.87189395   3.96096289
5624  -7.93118075   0.18082875  -1.01911309
5625   1.06055898   0.82830281   0.35820141
5626   2.52526671  -2.06049852   3.48624191
5627   2.52553818  -0.24198017  -8.66773288
5628   0.07011692   4.32505202  -1.31534301
5629   2.31156382  -3.15394452   3.58227857
5630   0.54948401  -1.26325467  -0.16021555
5631   6.03336568   1.22820205  -5.70797088
5632   2.55242232  -3.83841512  -4.93451287
5633   9.77979202  -2.44992927   4.12422278
5634  -2.53682413   0.10084555  -8.21302832
5635   0.33399324   1.61588346   0.12017314
5636   2.55293009  -1.30466567  -0.01508333
5637  -1.26954998   0.63133772   2.78666875
5638  -2.86646987  -0.08271803  -2.84004556
5639  -7.92572610  -4.81074097  -0.66055040
5640   3.96518160  -2.19357921   3.09562168
5641  -0.07764494   4.07519233   1.06672057
5642   1.44751456   3.15206955   3.41108353
5643   0.84218080  -0.73051836  -3.32678057
5644  -0.09834624  -3.98556403   2.48790256
5645   5.30584709  -1.78310323  -3.24636949
5646   3.81436861  -7.98064414  -2.74097619
5647  -2.13245546  -1.50812233   3.35915728
5648  -5.23471296   5.49225178   3.43862811
5649   4.15161191  -0.20385771   2.82900223
5650  -1.61466596   5.97505958  -2.46263055
5651   3.58851443  -1.61718657  -5.19329994
5652   1.14901249  -0.38860275   2.42423750
5653   2.31400183  -2.46527226   0.69307837
5654   5.23674599  -0.29248040   3.84534453
5655   2.43376337   7.25920274   1.65908525
5656  -6.17915813   2.50062393  10.94664741
5657  -3.22134765  -1.45376251  -0.59905912
5658  -5.85856650  -6.98375756  -4.61069960
5659  -0.88502177   0.62676589  -5.49886682
5660   1.33751258  -0.87623209  -1.57510974
5661   2.12681251  -5.78736687   0.22619724
5662   1.60451613  -2.16808124  -2.18428575
5663   0.55927376  -1.73380988  -0.79952524
5664  -2.53695592   2.25316809  -0.69202185
5665   2.04633042  -1.82119277   4.06243103
5666   1.04471815  -1.72569863  -7.69362197
5667   4.48035316  -3.82187059  -6.98532672
5668   3.58555381  -1.72986460   1.01061640
5669   2.84862251   0.04545275   3.65505076
5670  -1.29003827   1.44490393  -0.46818625
5671   6.95106629  -3.96479746  -1.84513886
5672   1.95542566   4.43273735   1.65741843
5673   4.79723313   9.57911926   2.26370727
5674  -0.57808691 -10.64289039   1.39078049
5675  -7.59813548   2.73062933   1.42784785
5676  -2.68115194   8.65504290  -3.95574395
5677  -1.28156022  -5.48223768   4.03055651
5678  -1.56591775  -0.61312080  -0.13133248
5679 -11.19400312   1.54728127  -0.27274634
5680  -1.50332354  10.55267033  -0.76432439
5681  -1.37531582   5.17042397  -1.25027010
5682   2.76327441  -2.80890271   3.77317028
5683   5.68375142  -0.97931873  -4.44235719
5684   5.34149935   2.88331152   2.43037432
5685  -1.06201030  -4.99299985  11.95377867
5686   1.83020728  -4.41042381   2.54449307
5687  -0.25655932  -2.75227637  -2.59954023
5688   1.25950890  -0.69149634   2.65269957
5689  -0.13856232  -0.29580011   5.35060331
5690   0.62366704   2.39312719  -3.59745736
5691  11.64071859  -5.78761609   3.79331404
5692   4.08729230  -3.86821400  -0.02990772
5693  -6.01796010   0.81808111  -2.20518248
5694  -0.52910368   0.41494926   2.95927175
5695  -5.68723189  -2.94131259  -1.87759920
5696   0.96300445   5.99391146   1.66883895
5697  -2.57613423   2.05476005  -4.96467436
5698   0.87895806   6.30818425   2.33576153
5699   3.65053019   0.92632692   1.34241948
5700   6.51755078  -3.46583698   3.98881892
5701  -3.30096642  -2.46269884  -2.84608408
5702   0.70499483  -4.86922696  -0.31818596
5703   2.93957258   6.63436273   7.37240701
5704  -6.34742597   4.50531139   4.97049687
5705  -1.81476760  -3.89576335  -2.27320331
5706   3.88569879   2.46726282   0.04457440
5707   1.49219947   1.94821781   2.02991124
5708   2.69650076   4.88625681  -3.65994020
5709   4.94692761   2.81007049   5.01451149
5710  -4.31979295   2.96519960   4.39615129
5711  -2.32559335  -0.90719027  -3.42402324
5712   3.32606687   0.38831226  -0.79018077
5713  -0.54457657   3.67557037   0.06824381
5714  -2.13044662  -0.43313746  -9.24809622
5715   3.37649887  -3.56461336  -0.94384249
5716  -0.32016827  -0.08308212   6.94102780
5717   0.00621092   4.15843895  -1.50263469
5718   1.13130733   0.96405114  -0.60753388
5719  -2.25853167   0.37600707  -0.27475916
5720   2.99749188  -1.00528446   1.48797254
5721   3.99333760   5.00530561  -7.33928545
5722   6.58766230  10.81556950  -1.38736121
5723   2.85875312   2.46670829  11.60231939
5724  -4.13015157   1.28170552  -2.47860295
5725   0.39823547  -1.83954694  -0.53311995
5726  -0.84741932   1.37538304   0.26416847
5727   6.77280469  -1.96413995   4.41971270
5728  -1.14829866   2.90121077  -4.53546846
5729  -5.04171294  -0.07450670   8.13881007
5730   0.44012071 -10.03559937   0.37878144
5731  -1.57254129   5.61051774   2.97985782
5732  -4.95051709   6.49159507  -1.16236540
5733  -4.03867782  -0.08251100  -2.19436813
5734  -9.38106794  -9.15502206   3.00887907
5735  -2.56700551  -8.76122409  -1.54072162
5736  -1.70412303   3.58148508   3.99682399
5737   1.20670468   3.38153641  -0.44199606
5738   9.21948511  -2.26873153   4.30656995
5739   1.16967058   4.51840351   1.47832585
5740   1.03558644 -14.71922906  -4.40868401
5741   3.11163758  -1.51753068  -6.33313885
5742  -3.64636574  -0.15061583  -3.02528355
5743  -0.39547542   1.57219526  -2.74717651
5744   3.16939334  -2.84437689  -2.16514092
5745   3.57807646  -6.19114845   1.32156527
5746  -0.18610421  -2.80250633  -4.57411366
5747   3.74354514   3.15781235   3.75863718
5748   3.55804876  -4.20187193   2.44630475
5749  -4.79078085  -0.11507851  -3.20033702
5750   2.80278023   1.43934682  -3.32562630
5751   3.00165760   0.03848495   2.18769111
5752   1.53088232  10.34212134   1.86686168
5753  -0.64480670  -0.38035111   3.55144892
5754   3.59306016  -0.09890575   2.40308354
5755  -0.71272913  -5.09547239   0.79678738
5756   1.15831563   6.12685553  -2.33800059
5757  -0.11040804  -5.23620610  -4.87473622
5758  -0.57942508  -2.95849827   3.45098175
5759  -1.51822390  -2.50806615  -1.77030442
5760   1.07036255   1.29842626  -1.60867605
5761   7.79302760   3.75795060   3.17285507
5762  -0.82463784  -1.95263000  -5.20651290
5763  -1.02947312   0.22571761  -0.45100653
5764  -0.62805346  -3.53193210  -0.55920281
5765  -0.94199936   2.44004840   1.47396963
5766  -3.39926966  -3.23389261   0.19751730
5767   1.99000649   3.45775908  -3.21712511
5768  -1.76087415   2.93804800  -4.17724353
5769   3.11083894   1.26763358  -5.18500413
5770   6.04743052  -2.08839504  -3.15547586
5771  -1.48864366   2.07689743   7.78195346
5772   2.45297932   6.11408994   0.87094770
5773  -4.78879802   2.54339431  -2.42074337
5774  -3.84583916   2.46974273  -1.38339966
5775   0.83995498  -2.21212389  -4.27191445
5776   2.40422266  -0.52198233  -2.62170155
5777   0.27147866  -1.87983215   0.13843235
5778  -2.07730521  -2.06429561  -4.03499164
5779  -1.47927511   7.17316445  -0.12729763
5780  -4.10752359   3.40304020  -1.03032524
5781   4.55828324  -3.68743642   1.15631045
5782  -2.04216647  -0.85820427   3.71730491
5783   4.26599898  10.76964854   2.24369533
5784  -1.46421271   0.73163863   3.94565221
5785  -1.88623652   2.00103412  -2.60179398
5786   6.54770412  11.08825985  -6.30889147
5787  -9.54929982   4.94231556  -2.14853543
5788   1.08752658   3.60199862   5.87180370
5789   3.23939223  -1.13232792   2.51640660
5790   4.88992664  -2.50131276   3.14210466
5791  -3.61629884  -1.57458129   5.14928384
5792   7.29696257   4.04121136   6.26881254
5793  -0.83057702  -1.00841133  -2.75427323
5794  -5.17843965  -2.21641059   1.01570355
5795  -1.14848716  -3.30445599   0.80914116
5796   0.42800162   1.89706086   0.09749689
5797  -0.94107302   4.84187457  -2.49450967
5798   4.33675940  -6.08223919  -0.19958754
5799   2.31633588  -1.55856192   3.47455665
5800  -2.95963700  -0.72300204   2.83781215
5801  -4.81226351  -0.78652056  -4.42590115
5802   0.60424107   0.77191945  -6.34496456
5803   5.07036666   1.84332039  -0.28514614
5804  -3.46850834  -1.46068892  -2.41144491
5805   1.26925664   4.10380989   3.54602387
5806  -8.31918302  -4.60398218   2.93166700
5807  -0.83062936  -2.52604118   4.51633041
5808   3.36060039  -2.34908647   6.82897348
5809   0.56426557  -6.69787744  -0.90068879
5810   0.51622691  -7.20763556  -7.41616539
5811   0.48473662  -5.09286944   1.27296482
5812  -0.68753320  -0.38332819   1.98574416
5813  -0.25469432   0.55977312  -5.38223136
5814   6.50768398  -0.23591985   0.75352720
5815  -2.27635074   1.67123543   2.39581252
5816   2.32145815  -3.86695927   2.73610323
5817   4.39500556  -1.13051483   1.86777320
5818  -1.54641176  -7.10802621  -0.57009963
5819  -0.79008319  -6.50168411   5.59587284
5820  -3.08642434   5.91716049  -0.13812263
5821  -0.39479582   2.34083445 -11.66411482
5822   2.59696908   1.36084117  -3.05095809
5823   0.96862350  -2.89734557  -4.66698273
5824  -3.15882379   0.59497495  -3.15497709
5825   0.87282402  -6.07906900  -5.48750287
5826  -5.96685462   4.71163598   0.35659039
5827   3.42404951   5.74339528  -2.87004086
5828   7.21134082  -3.25013324   0.45001662
5829 -13.12585917  -3.38938861   0.03020046
5830   0.07152481 -11.03504919   3.81556151
5831  -1.91410769   3.25292634  -3.53085398
5832   4.75407588   1.79715388  -9.63247464
5833   0.35271955  -5.94247218  -3.56390058
5834  -7.40361024  -5.13228589  -3.00824498
5835   6.19382957  -4.01735956   4.74259703
5836  -5.55562216   5.71105538   0.67395232
5837   6.40341137  -0.00060560   0.55978782
5838  -1.58682889   1.97311457  -3.21491293
5839   0.80995662  -1.16924422  -0.35911726
5840  -2.21173671  -0.33072744   5.14557167
5841   6.64212326  -5.08791797  -2.20147915
5842   4.87462045  -1.15287105   3.42677724
5843  -2.05420370   2.35316384  -3.85158027
5844   2.76861259   5.25255679  -0.75902436
5845   7.23181920   0.42430318   9.55765851
5846  -5.70374602   5.37831708   2.96483936
5847   2.28297479  -1.18573215   5.11461115
5848  -1.23206073  -4.02859971  -0.77550470
5849  -3.64209750   2.33587403   3.36319268
5850   2.74226582   4.45510985  -6.36914014
5851   5.19133654   0.67100701   3.91090382
5852   5.24759824   3.94436856   6.94031432
5853   2.25525130   5.13821630   1.09549379
5854   1.83291853  -2.55058601   3.32441633
5855  -0.59281225  -1.28379447   5.09464894
5856  -1.85522659   7.16269451  -4.23403448
5857   0.12854178   0.79150082   4.23141246
5858   0.71240965  -5.26273406   9.74809310
5859  -3.26446929 -10.44723442   4.86082688
5860  -2.71806073  -4.67834517   6.31239262
5861  -0.77437625   1.81769466   0.86529972
5862   0.56665081  -4.61364311  -5.50028225
5863   4.58911424 -13.70980586   3.48638951
5864   3.52818101   2.20343416  10.49928919
5865  -0.61403916   1.74803096   2.32765703
5866   4.14520411  -6.23817192  -3.68618011
5867   1.96690512  -4.40577934  -4.00169457
5868  -3.69799893   1.94056562  -1.24366017
5869   2.33492153   2.61446923  -0.94916026
5870   2.98940407  -0.11495394   5.36411124
5871  -1.29107249   4.67212836  -1.78972783
5872  -4.39448608   2.01690873  -1.01982095
5873  -4.81355846   6.06404937  -9.04160642
5874  -2.61466110  -2.59165867  -2.41836831
5875   1.74178374  -0.49643076   5.06937364
5876   8.86313411  -1.13001610  -1.89381775
5877  -2.97693995  -0.18487200   8.76392081
5878  -3.64341166   1.41654922  -3.60519191
5879   0.52596344  -4.27596131  -0.92982474
5880   3.01158953   3.77277147  -0.10768980
5881  -0.50684853   4.01323744   1.71787721
5882  -2.36431418   1.99297565   2.37387711
5883   1.27047954  -2.68118655   1.53378021
5884  -2.67377724  -4.45303271   5.14150280
5885   2.45715788   1.79736254   4.96111650
5886  -0.06646343  -0.66602060   1.66378794
5887  -4.00617408  -3.20144782   3.83359737
5888   4.06908519  -3.37101449   4.08579915
5889   0.55374624  -3.50762267  -4.37587454
5890   6.04559385   3.82809653  -0.52306663
5891   1.41633929   1.27425725   2.85174701
5892  -4.18390856  -2.52954034   7.14833516
5893  -8.00668317  -1.72115836  -1.11735057
5894  -4.38427881  -7.56213132   3.77285776
5895  -1.58829048   7.80309606   9.17539099
5896  -9.35168676  -1.56826156  -5.52696686
5897   4.67317438  -5.66973828  -2.55497193
5898   2.41544892  -8.89906428   3.45023997
5899  -3.17836967   4.80819718  -3.67291627
5900   6.35559844   1.43291422  -6.40860331
5901   1.69382389  -1.06606907   1.52071535
5902   6.43124196  -1.46084662  -8.92029419
5903   2.23171830  -5.82734294  -1.82244430
5904   5.65888093  -3.42376079  -3.24308523
5905   3.12592247  -0.36981519   3.28340135
5906   2.82950367   5.83976398  -4.75372465
5907   0.49840451   1.11201027   4.98390557
5908  -7.92679062   4.02450806   1.93778904
5909   6.17046011   8.81863026   6.59842867
5910   0.64167206  -4.98129263  -1.03482099
5911   0.72150510   2.36521877   2.93099866
5912  -4.12363355   4.46223682  -1.28343121
5913   2.72260135   4.68171739  -1.83470648
5914  -4.99118629   5.00340080  -8.53486679
5915  -3.65844571  -2.96987841  -3.48030368
5916  -0.38894774  -2.63033194  -2.63602870
5917   4.11759615   0.95093177  -3.89420653
5918  -3.85993527  -4.98185411  -4.54073458
5919   2.31648338  -0.00301601  -3.93676936
5920   1.06671308  -9.57246773   3.78992536
5921   2.49581228  -4.08803928  -5.77265738
5922  -2.86267347  -0.89389839  -1.23678141
5923   5.72005536   5.35872695   0.44139757
5924   0.91806925  -3.95628250  -1.11306512
5925   1.30411698  -2.18911271  -0.14515029
5926  -4.03150035   1.07780083  -2.40537627
5927  -1.48124705  -9.96833476   3.71959863
5928   5.44333702  -4.24554367  -0.44622523
5929  -6.98552310  -0.28171304  -1.32699084
5930   0.60711961   4.59492231  -3.69294518
5931  -1.82150164   1.03200800  -0.62476805
5932   0.15989245  -2.05440554   1.64176062
5933  -3.51616023   6.99234306   2.43980243
5934  -1.55820977  -4.29906157  -0.61773031
5935  -4.90245548   9.47501923   4.82964011
5936   0.60446976   6.15692003   3.29969678
5937  -2.14987808   6.96649917   0.19583370
5938  -0.66036067  -4.60544173   0.77992826
5939  -4.72182253   1.66332014   0.46023259
5940  -5.13980044  -1.70679934  -6.70776232
5941   5.65497400  -3.56258986   1.27765117
5942   5.04821110  -0.84301858  -8.50464074
5943  -3.45170628  -4.08298615   0.09673826
5944   5.04061030  -2.29657834  -6.28237373
5945   0.80829704   1.07773930  -1.85025855
5946  -1.73094531   6.42325737   0.65759019
5947   1.52841698   2.54203517  -2.52268459
5948  -7.52520391  10.75010783   0.32177801
5949  -4.87750790  -0.43286299   4.19779706
5950  -2.49666385   1.78416341   0.44999250
5951   1.77581529   4.19380391  -3.33389025
5952   3.69821554   7.23712243  -3.92990800
5953  -2.44045035  -0.79701391   3.72150588
5954   1.85957541  -1.88428557  -3.37267000
5955   0.60194238  -3.40490654  -4.15558375
5956  -0.98518809  -2.56787633   3.23855094
5957   1.60014496  -1.22805735  -2.68553900
5958  -3.39312275   8.92575891  -1.40727116
5959   5.35973279  -1.26486241   0.51457641
5960  -2.06093870   6.91263220  10.18073794
5961   0.90631309   3.72374470   0.30321194
5962  -7.92056189   7.62448493  -0.33018327
5963   0.20944921  -0.88617363  -0.64502867
5964  -2.45734969   2.84312511  -2.32673132
5965  -1.25865472   4.29070492  -3.14099546
5966   2.07351508  -6.59573407   1.47672335
5967  -1.28399137   3.03351930  -1.45568309
5968   1.19704103  -2.32270041  -4.71503551
5969   1.11413111   0.29883481   0.39491725
5970   1.36659128  -4.96331540  -3.62245795
5971   0.89330518   0.77021429   2.40377686
5972   6.30732928  -1.31453172  -9.30785835
5973   0.03319971  -0.66315981   0.95867130
5974   3.80357300   0.52656124  -1.42118511
5975  -6.06031805   0.27779751   4.32909852
5976   4.90193881   1.09908225   4.91456503
5977  -0.53495291   9.03116321  -1.33724586
5978   6.55151910  -1.49141124   1.19877981
5979   1.14158530   3.96366002   3.81506682
5980   7.24751066  -1.27798564   3.56180199
5981  -2.51708454   6.99298195  -2.65408651
5982   0.68987375   3.83026216   3.67616490
5983   0.15287799  -1.62768943  10.28804723
5984   0.85837654  -0.18170637  -5.10181263
5985   0.67327477  -3.78203658   1.13736110
5986  -0.38231724  -2.99213888  -1.58819094
5987  -7.03745464  -3.03379019  -2.15292956
5988   0.89592485   0.36461205  -4.48617229
5989  -1.30608205  -2.61157682   0.24124245
5990   0.99840365  -5.34608358  -2.24178707
5991   7.08920653   1.74754456  -6.43595376
5992  -2.99473553   3.01969997  -1.48810913
5993 -14.46573993  -5.76401913   4.03627069
5994  -1.53611541  -1.60934678   3.48844707
5995  -2.15095007  -2.13200388   7.85201629
5996   3.40323177   3.06804984   3.30447600
5997  -7.65456280  -2.66605419  -4.94478943
5998   6.95726858   3.92972178  -1.37505535
5999   0.37970537  -4.65282801  -4.06166506
6000  -2.85126233   7.61061750  -3.20386002
6001  -0.21439255   1.25920555  -4.72836954
6002  -0.69093144   6.25063274  -2.62518723
6003  -5.20428369  -3.26022706  -6.26368588
6004   3.47156630  -3.08360929  -4.24659115
6005  -8.14521798   8.02067210  -0.56385452
6006  -2.46186550  -0.54618441   1.07132756
6007  -4.50866423  -2.59436712  -6.58505200
6008   1.74340262   0.74528559  -2.91689308
6009   1.91854434  -3.24882500  -4.28730119
6010  -0.15246035  -0.29200205  -2.16251218
6011   1.50744826   0.04299020  -1.37102329
6012   0.91440362  -0.41766583   1.03253968
6013  -1.75010932   3.25261786   1.49678883
6014   2.35711712   6.45838252  -5.02408937
6015   7.61477390   0.17434812  -5.32908615
6016  -0.63487133   4.51288188  -8.03243478
6017   0.47490204  -5.24966517   1.07529200
6018  -0.68888681  -2.13683972   0.66665927
6019  -0.66071903  -4.72392709  -0.57855784
6020   1.55009984  -5.44768438   0.47532177
6021  -6.66886882   1.00921316  -2.05219031
6022  -3.62806322  -0.11354919   2.45582269
6023  -2.84197994   8.06072138   6.89725311
6024  -2.86087683   0.77427390   4.48722804
6025   2.66127501  -5.25984531   5.49146680
6026   1.57540544  -0.63647189   6.28215848
6027  -2.99148890   1.01256809   1.83860560
6028   5.24270254  -0.43848326   0.51552844
6029   1.91825205  -4.86547000  -3.06614025
6030  -7.88395816  -0.33745648   6.11664309
6031  -5.43853185   4.20183887   5.43030589
6032  -1.72704394   0.78203980   1.11570493
6033   3.64926655  -1.31851127   4.77668990
6034   2.19963947   8.03817364  -7.27519485
6035   0.82667208   3.13841293   4.74558594
6036  -1.80575183  -2.56487120   6.62533467
6037   3.92179231   2.87896974  -0.33451234
6038   2.11343865   7.37593334   1.70750847
6039  -0.38552043  -5.24929714   8.73540590
6040  -4.35160406   1.72283314  -3.42282829
6041  -0.46641909   1.58725232  -5.14324685
6042   5.73747855  -0.79511311  -3.85345246
6043   1.58733575   3.82729712   5.04228306
6044   0.78414467   7.04294101   0.32869860
6045  -5.65210548   2.90226805   3.64204782
6046   0.74001590  -3.97904463  -1.66241408
6047  -1.59228048  -1.53933526   2.12927746
6048   2.06867220  -2.60946510   2.88586345
6049  -7.57759890  -7.23451023   1.81233471
6050  -1.77709346  -3.37861560  -0.21886692
6051   5.94113786   0.95787923   0.15590104
6052  -1.01096527  -2.33567064  -4.16334858
6053  -1.48033329  -0.60823989  -6.64193120
6054   3.25063902   3.89429612   1.71603059
6055   2.38722268  -5.95940257  -0.75278981
6056  -0.22299496  -1.95968094  -0.98881716
6057  -4.24664983  -1.31074730  -0.73458822
6058  -0.17026509   3.83372288  -0.64030090
6059  -2.01103098  -2.76612256   2.91975307
6060   2.49602355  -3.52477110  -4.85943826
6061   1.37389818   0.02727438   8.19363230
6062   4.66683948   1.76264902   4.42070613
6063   0.48638104   0.45437032  -0.30574091
6064  -1.35138813   0.39968030  -5.89477996
6065   4.21307405  -4.10369182   9.72656573
6066  -2.01234002   3.45594078   1.94935439
6067  -3.86066949  -4.03234067  -0.87650103
6068  -3.54097811  -1.62278751  -3.82217812
6069   4.30076470  -7.21038334  -0.86080120
6070  -0.82489026  -1.84263419  -3.96932778
6071   1.07407950  -7.43809520  -4.90999571
6072  -1.00287525   1.93692738   5.18781208
6073   2.06294457   0.79463298  -2.57629724
6074   1.95354907   2.31688323  -2.39610628
6075   3.22341324  -2.28250180   2.93170526
6076   1.35240760   6.14770705   1.85222185
6077   2.32057855   2.51950128   1.54562653
6078  -1.92045774  -1.82904990  -5.70011768
6079   0.27384973  -1.32855845  -0.37467767
6080   9.48890270  -3.09466170  -5.98495126
6081  -2.60263858  -2.85036423   2.37994235
6082  -2.69995073  -2.36208184  -7.09603176
6083   8.32170166   3.50549835  -1.24384771
6084  -1.41729787   0.09887506   0.95062421
6085   1.32847839   4.86936563  -0.26863549
6086  -4.81476918   0.10173230   9.14082862
6087  -2.20910693   1.26033563  -4.92910392
6088   2.02189890  -1.46050001  -4.29468684
6089  -0.71607946  -4.28541837  -0.49389321
6090  -4.36631168   1.40749998  -5.44777596
6091  -1.02443913  -0.04145601   1.45156338
6092   2.11264424   5.87470747  -3.12770699
6093   0.21842536   1.91844655   0.03256827
6094   2.16851474  -7.80325911   1.47658819
6095   4.60416085  -1.32686253   7.00794700
6096   0.67350087  -0.68409901   0.39209073
6097   3.30106835   1.47363951   5.61630820
6098   4.85668488   4.69880684   2.04051590
6099  -4.78510874  -0.56656665   5.06900523
6100  -6.01887978   2.98406505  -3.03211241
6101  -2.15057366  -0.61734908   5.13718690
6102  -4.23644874   2.22857576   4.53930652
6103   0.69450142  -2.80481407  -3.03621534
6104   7.04091651  -2.40556257   9.62766362
6105   8.67643212   0.45571079  -3.57012656
6106  -1.24077868  -2.64919314   6.90448691
6107  -3.20533215  -2.02738603   2.42701261
6108  -2.47505114  -1.71543464  -6.03494745
6109  -2.66320885   0.47737756   5.73812621
6110  -2.85644270  -0.05928721   3.61538965
6111  -1.34521215   0.29704819  -4.55830525
6112  -4.09051158   1.36867751   3.97225524
6113  -1.53304489   0.81172319   0.06327958
6114   3.27410236  -3.09463632   2.85732420
6115   0.60184416  -3.48012182   6.17369173
6116   4.97079978  -6.69671756  -1.63212998
6117   1.12392499  -0.93399481   6.19433095
6118  -2.32630359  -0.30974106   0.37287317
6119  -2.82665635   3.22857284  -1.37693872
6120  -1.99998748   0.03559186  -8.88010575
6121   2.10814828  -2.22802147  -6.69343595
6122  -0.14889249  -3.35394965   1.98922911
6123   7.70110993   4.59190331   2.54981852
6124  -6.10084638  -2.55605450   5.50839654
6125  -3.46199336  -4.56620299   0.77913543
6126  -7.09229759  -6.16733778  -1.49531786
6127   0.98443073   2.40499299   1.02805324
6128   5.01812888  -2.95135789  -0.44187665
6129 -10.67442028   4.89624925   6.93736459
6130   4.06308921   3.25833635  -6.07275709
6131  -7.27112751   2.25360908  -3.25976564
6132   1.38871978   0.91986573  -1.40093752
6133   5.35623107   1.65774854  -0.69927382
6134   2.28707119  -8.80195380  -2.29014661
6135  -5.10717088  -0.23479847  -0.90884052
6136  -1.45755347  -5.44887717  -1.09682647
6137  -1.50739635   0.27356664   5.53197474
6138   6.60162696   2.24851871  -0.88284077
6139   2.34433870  -3.87613651   1.90026698
6140  -2.57059378  -0.80003692   0.94856565
6141   1.71326615   0.00232069  -1.13694609
6142  -7.99921052   1.46355725  -1.56776003
6143  -4.51940498  -4.35425925   2.51751327
6144   1.16253812 -10.34135102   0.67424732
6145  -5.76294806  -5.41888505  -1.53456457
6146   1.70925871   1.44941686  -5.91802802
6147  -2.16062656   1.57745184   5.55935983
6148   0.22976165   7.74775971  -0.41415632
6149  -6.17066376  -0.02946709   5.29272410
6150   4.91170282  -2.68769524   7.68214551
6151  -1.14482432  -2.20750272   1.30039706
6152   4.89613392  -1.89270606   3.82722705
6153  -0.41911793  -1.01350328   5.14430574
6154   2.24680226  -4.42300534   3.41314568
6155   4.87161604  -3.59360415  -1.07381252
6156  -1.71740115  -9.56868679   0.83925054
6157   1.40932407  -2.57752634  -1.43871470
6158   0.08140382  -0.50594414  -5.41803469
6159  -3.07165391  -0.57998448   0.00304844
6160   1.23263224   1.78431664   0.64156306
6161   6.41425068  -0.36136873  -3.26903718
6162  -1.61353857  -1.18022535  -0.81638430
6163  -1.32089283   0.39483843  -2.18001570
6164   4.21959726   9.70709361  -2.77347887
6165   6.71112891  -6.04295881  -0.88637224
6166   0.21816058   1.93858249   3.71095814
6167   4.12972751   0.31814383   0.22090168
6168  -7.45718089   1.56955642   2.16865930
6169  -0.45400981   0.28072021  -1.87467823
6170  -3.25204490   2.50075216  -1.76529647
6171  -1.02070943   4.68261735   4.73083765
6172   5.44743916  -3.33494256   2.67920640
6173   3.57555095   2.96615787  -1.38584102
6174   3.15190475   1.34709306   0.41244198
6175   5.82581902   3.81123687  -0.55556348
6176   1.15995333   2.08429648   0.90935062
6177   4.16930753   5.74378708  -6.71734901
6178   6.29662196  -0.90482614  -0.64520856
6179  -4.74089911  -4.20658935   3.41283554
6180  -1.47516231  -2.99241078   6.98218933
6181   6.00164819  -2.80358665  -3.41304693
6182   4.41053894   3.97819401  -6.99482394
6183   5.11674234 -14.74186280   7.99217341
6184   8.16570473  -2.69894657   1.30706889
6185  -1.01853977  -1.54216871   3.16015759
6186  -1.37846673  -5.24181427   0.69499482
6187  -1.48732506  -0.30083857   4.30502680
6188   9.76785324   0.78882071   3.48818044
6189   3.35393719   2.06503379  -1.93443693
6190  -5.92131520  -2.16210346   3.29032738
6191   0.42639949  -0.33036548   5.54837068
6192  -3.51746298  -1.48620058  -3.09372576
6193   4.68627877   1.90447522  -4.81967479
6194   0.79374538  -1.77958360  -4.09471748
6195  -6.13951611   1.00938353  -3.41154462
6196  -0.96938413  -2.47907675  -0.74875452
6197  -1.02188025  -2.17986350   1.79019057
6198   3.03467820   6.49935350  -3.78292784
6199   6.53471502  -1.29121756   5.70479483
6200   2.93618128   2.57490537  -6.99988936
6201  -0.60909975   4.23880034  -2.93606589
6202  -2.12293289  -5.62756653  -7.03150687
6203   0.68313165   1.44837818  -1.03074600
6204   1.73521724   0.76875869   1.35425692
6205   7.19563520  -1.44449059   1.08838318
6206   2.61080230   3.52779312   2.48856881
6207  -4.19311717   1.85269534   5.94676843
6208  -1.82226087   1.58815623  -2.75987851
6209   0.03947415   4.31720683  -3.68052865
6210  -4.80849643   1.62219256   7.98445939
6211   1.46503169  -4.49516383   3.52154165
6212   5.70538300  -1.50280304   0.63199352
6213  -1.28142776  -0.90988262  -5.11472543
6214  -5.24270200  -1.35469684   1.88259388
6215   1.66347474  -1.77565766   8.14686652
6216   0.69774593  -6.74908945  -1.15440805
6217   3.44574330  -5.06598014  -2.57103747
6218   4.04863281   6.87214767  -5.59255250
6219   0.84678044  -1.57551654  -5.80633004
6220  -2.63577969   1.75728558  -5.58374572
6221  -3.36424165   3.81906587  -0.30407404
6222  -2.52552522   3.75139967  -3.13017480
6223   4.93113080  -1.62448178   6.55868279
6224  -5.64415262  -1.72039264   0.05610975
6225   3.14396114   5.84186535  -2.06569659
6226  -3.68084237   3.01970092   3.90256244
6227  -2.03026760   9.31582489   3.85518964
6228  -0.88057896   0.30179184  -3.34290918
6229   7.89994965   1.42022879  -4.72909150
6230  -0.10109344   6.07551620   7.31387062
6231   8.45553618  -4.51005597   0.00377994
6232   2.21369905   6.53051337   7.47780358
6233   0.24550656  -1.04945195  -0.65607669
6234   4.22289260   0.60622888   4.30593065
6235   4.87544792   1.01328075  -2.01019650
6236   0.16924497  -0.86869996   0.77774689
6237   3.07044069  -4.34885565  -1.83886443
6238   5.93017346   2.72804239   0.58164037
6239  -4.97004512   3.11999737   0.51238578
6240   6.48834235  -1.18509292  -4.09804453
6241   9.18408445  -1.73175695   0.66041123
6242  -0.59621863  -4.42120384  -1.76883093
6243  -2.30781553  -3.04865100   1.98515251
6244  -2.93598466  -1.14038672   1.53586702
6245  -2.34661287   2.12047117   0.77535431
6246   0.91458708   1.20268593   0.68017706
6247   0.43176870  -4.37374919  -1.30449164
6248  -0.20310367   7.33111068  -5.97543608
6249   1.04630912   4.78701214  -3.67931955
6250   2.37192556  -3.38265808  -6.27258067
6251   0.21557040  -0.93279312  -2.98946457
6252  -4.41108522  -2.24019510  -3.24577103
6253   5.41355466   4.63602392  -3.27148220
6254  -6.66598617   0.52324025   4.22302979
6255  -0.75655028  -4.52097139  -5.04805880
6256   1.63330601  -0.42257514  -0.15216493
6257  -1.95529205   1.67510780   1.88549566
6258  -0.18029930  -2.09371280   4.82067930
6259  -1.19910182  -6.52544125  -3.97953834
6260  -5.48847517  -6.66823882  -5.72807473
6261   9.64922978   0.03406816   5.02005286
6262  -2.27884460   0.54688216   2.32371405
6263  -1.17784240  -4.45864115  -0.78732121
6264   2.11824913   3.34889743  -3.71268363
6265  -2.65602378   0.66460807  -3.81611358
6266   3.53326548  -0.85183676   3.63737725
6267  -2.04809129  -2.26433535  -7.74774849
6268   5.30546447   2.63966852   2.33332736
6269   1.82802650   6.01661186   2.03614549
6270   2.78854313  -2.87159999  -1.99964967
6271   8.16788476   0.96776427   2.11595983
6272  -3.19275131   6.09278975   4.76955615
6273  -1.30971050   4.56111563  -1.04956514
6274  -1.08583172  -4.77373712 -10.25044657
6275  -7.27624762   0.59157811  -1.21497622
6276   3.83396140   2.36903878  -0.95156905
6277  -1.45234687   2.07940506  -1.26960458
6278   2.41320122   3.87326744  -4.22334224
6279   7.35091850  -1.46784034  -2.40027841
6280  -7.12033862  -3.62338355  -4.17406158
6281  -2.13216950  -1.97366140  -0.26533154
6282  -0.93829357   0.49366717   3.42700984
6283  -2.08996569   0.31290439   3.65164486
6284  -1.82719480   0.95638924  -4.71992001
6285   2.15788390   3.60323913  -1.99686126
6286  -2.31181583   3.51663685   6.18881290
6287   5.61929535   2.65178429   3.34423865
6288  -1.78211697  -3.35367197   2.15124587
6289   3.43156115   1.25137307  -3.64459556
6290  -2.95668688  -0.12455062   5.33077844
6291  -0.78539958   1.84728909   1.58315359
6292  10.10196471   3.37327170  -4.12741851
6293   5.49842055  -0.58380346  -2.09775557
6294  -0.79827679   3.89972574   0.41502889
6295  -3.52663543  -3.76523028   2.96676590
6296  -1.88285559   2.21998600  -2.28359352
6297  -1.79057190  -3.61834748   4.05118295
6298   3.93488039  -7.11960592   2.74464832
6299   1.11618166  11.60752860  -2.15291225
6300   0.81652697  -9.66244781  -2.33015858
6301  -5.65778928  -9.11002156   0.99572446
6302  -2.18112609  -4.61901321  -2.42034555
6303   2.03522728  -2.30418503  -2.08859453
6304   0.11668213   4.07607505  -1.60427294
6305  -7.17473461  -2.54461312   0.98564019
6306  -2.88315404   0.67241714   2.23289379
6307   8.70679933  -1.44313523  -2.15076498
6308   2.08179159   3.69632240  -1.84469362
6309   5.68148189  -9.82612139  -4.02736492
6310  -5.38701130   1.37350712  -0.37860903
6311   1.71379886   5.46795579   5.53381200
6312   2.08718628  -3.25461756   3.07569896
6313  -1.70173079   1.28813074   4.39765376
6314  -3.69834523  -2.30299202  -3.70845468
6315   7.80767512  -4.28137309  -0.91854117
6316   0.76126403  -2.24432823  -1.75029211
6317  -4.62776408   3.16649118   0.34739628
6318   0.30392398   3.36586190  10.97819276
6319  -3.32540892  -3.55623848  -4.50079918
6320  -4.41079050  -4.28154082  -1.91930942
6321  -2.38108129   3.20599577   2.00824825
6322  -7.06908268   0.51602450   3.81830977
6323   2.07615673  -0.50441293  -1.23761689
6324   6.18115700   3.57881590  -0.55484473
6325   0.36141898  -5.46310968   7.43547743
6326  -3.73785322   5.66770376   0.52049507
6327  -3.62739986   1.13745570   1.25013163
6328  -5.61789748   3.13394653   2.89808769
6329  -3.30329390  -8.44745386  -8.77976354
6330   4.11575673   2.48828835   5.75146239
6331  -4.59397097  -2.57864726  -7.02567135
6332  -0.75168603   2.64739599  -4.39606599
6333  -1.56346563  -0.76996487   0.15928464
6334   4.85454385   2.67417171   2.02490553
6335   2.54771998  -6.11674699  -0.21118404
6336   7.03802895  10.46103696  -7.45282871
6337  -3.41361734   1.20858386   8.39806693
6338  -3.63226086   4.53409214  -2.76938385
6339  -2.87672571  -2.64857648  -5.04779854
6340  -4.25650982   3.16646743  -2.94011519
6341  -8.40355678   6.88178749  -1.00758671
6342   4.97399008   3.25644635  -2.20414317
6343   1.78885877  -1.17079429  -2.06397778
6344   7.44497729   1.14608654  -2.74876972
6345   3.02269460  -0.32576474   4.24621796
6346  -2.31573984  -0.98601846   4.98012328
6347  -1.10140105  -3.49780169  -0.36527563
6348   1.30033173  -8.85584484   0.28038459
6349  -2.55661369   1.36510781   5.61575966
6350   6.95149078   0.69215554   6.07874942
6351  -2.40521237   2.61063896   1.62213796
6352   0.00713832  -0.04043847  -9.56579165
6353   4.77834314  -6.37748422  -0.67353428
6354  -2.74601249   1.68843249   6.63514738
6355  -0.78211988   4.13771700  -1.51249748
6356  -5.06501540   3.60557352  -0.76830561
6357   0.69935076   0.96383753   3.84321389
6358   0.86447851  -2.57129271  -0.08207612
6359   0.25765163  -1.28523578  -4.51986163
6360   2.17210492   2.98993349   4.46773040
6361  -4.81523928  -0.46139869   0.12547912
6362  -2.66616312  -1.75702184  -3.84796756
6363  -0.07797068   7.17064070  -4.62703304
6364   3.88763372  -2.83264468   1.24510406
6365  -3.02506941   0.94086574   1.14682672
6366   2.90709023  -4.86158923   4.00978820
6367  -0.91217661  -0.25351000  -0.65603477
6368   2.06310565   0.55199729   0.54903998
6369  -3.95569620  -0.75646090  -5.80190263
6370  -1.52203944   2.24603197   0.14234435
6371  -1.32754622   3.91177766  -2.88471272
6372  -4.24568430   3.36061111  -1.55121095
6373  -0.71871768  -3.03383766  -0.08672142
6374  -2.73820856   6.49482185   0.57351455
6375  -1.90550669   0.87437124   2.18091056
6376   1.77703385   6.14162003   5.15779878
6377   7.12822307  -3.33719831  -5.96829370
6378  -4.04044732  -3.47241166  -2.77200497
6379   7.37373210  -2.22230086   3.60769920
6380  -1.05232191   3.35041219   2.39041909
6381   3.95881673   2.82743207  -0.30813156
6382   4.21275369   2.56073555  -0.35515943
6383  -9.69039271  -4.60842368   3.48198555
6384  -7.17565522   7.64684138  -1.70839849
6385  -0.39814710  -1.49045064   2.38280662
6386  -2.44394634   7.98914946  -4.23979726
6387   3.24479206   2.38563910  -0.30101310
6388  -3.07525411   2.10552451   2.14007714
6389  -3.82312558  -3.69475879  -4.87715475
6390   1.12095446  -1.13287575  -0.33471969
6391  -1.96885386   2.98708788   0.75378988
6392   2.23382489  -1.76301057   2.00125903
6393  -2.73658365   0.99930732   4.05917359
6394  -0.90567737   3.39167811  -0.66797919
6395  -2.74144854   1.26265962  -0.03828885
6396   4.21475837  -2.75629336  -0.77198356
6397   0.60796964  -4.35173030   1.92088285
6398   0.16998308   2.40382001  -0.18039229
6399   0.70528255   0.77159184   0.73600264
6400   1.01115823   4.96376337   0.89515699
6401  -4.13218847  -1.51488298   3.00614032
6402  -4.24470991  -5.13318783   0.17703272
6403  -1.26396645   3.32701932   1.91791506
6404  -2.67939486  -2.85593920  -9.13298632
6405  -6.63977403  -3.47682608  -4.81903825
6406   1.40121866  -9.31798748  -3.26856069
6407   3.52317369   3.55380537   0.33155623
6408   1.96362436   4.56234938   2.77242556
6409   2.99178410   2.00737774  -0.38119044
6410   0.15602233   5.90730078  -2.44299633
6411  -0.61698515   0.54390811  -7.29560442
6412  -1.71928522  -4.68078078  -1.51448763
6413   1.15982065   2.63492611   0.41646174
6414   2.96495058  11.55724111  -1.49206480
6415   2.10615741   3.47096839  -0.82106900
6416  -0.29334371  -7.33514952   1.77929694
6417  -4.52877181   0.54948592  -1.62081998
6418   2.79812460   0.34213580  -1.73833307
6419   5.49338714   6.01891320  -6.10826250
6420  -2.83032208   0.68452627  -1.65475663
6421  -7.58120712  -4.01412641   3.17051613
6422  -1.47955257  -4.80606704  -0.07559644
6423  -4.00334043  -2.36835158   1.00705378
6424   0.37000923  -2.91658777   4.41434774
6425  -7.40172026   0.25587544  -1.11418542
6426   3.24212984  -8.24765604   0.94617282
6427  -2.86130845   3.77910684   3.22747817
6428  -1.29493051   5.89898661  -6.28680391
6429   2.92099391   2.94419919   1.72957429
6430  -6.00459102  -9.34377172  -2.79127656
6431   5.74002904  -1.73431658  -4.43240100
6432  -0.81146096  -2.91205022  -0.78941340
6433   0.78691400   2.47663961  -3.27045872
6434   5.73990214  -3.21439180   5.19475720
6435  -3.26703466   5.05909410  -0.54027122
6436   4.45595659   3.26180854   2.22365266
6437  -4.35282129   5.34729154  -2.32422117
6438   1.36913217   2.31180693  -2.01396497
6439  -3.22280826   1.38767085  -0.99136558
6440  -0.84184369  -2.70094984  -0.10241783
6441   7.58030342  -3.19648937   0.25112386
6442   0.81430934   1.06495029   6.66884234
6443  -0.88882302   1.72020873   0.07805254
6444   1.04697027  -6.62835416  -5.64896129
6445   7.08589008  -7.27992726  -0.74234955
6446  -5.17145183 -10.58328655  -6.86807719
6447  -1.85511966   7.38084454   5.28364489
6448  -5.24214896   4.95624306  -1.04698323
6449   1.55850007  -2.17815845   5.42277829
6450   4.41288309   5.07171582  10.75283253
6451   8.99637171  -2.71636138  -2.40695028
6452  -3.33054283   3.47830205  -1.65864286
6453  -7.01960983   1.20026889  -3.24331063
6454   4.90995260   0.41467592  -1.02591643
6455  -0.79085427  -5.20263343  -2.15372618
6456  -0.13739903  -0.78698323  -3.34787645
6457   4.49787199   9.25530310  -1.98172823
6458  -4.51557739   0.95620844  -1.44890471
6459   0.48374803  -2.63827033   0.62814124
6460   5.23182494  -1.68900055  -5.54989820
6461   3.13257527   1.90969737   7.39209233
6462   2.01823965  -1.31558086  -2.02937199
6463  -3.62173595  -0.45220569  -3.69800614
6464  -4.30670301   3.04850245   0.92027871
6465   1.44878930  -5.94360464  -0.63439645
6466  -6.10430480   2.44829476  -1.36109132
6467   0.29177856   0.89387437   2.65250810
6468  -4.15033837  -6.41923120  -5.09155600
6469  -2.47183657  -5.97049098  -4.38282428
6470   3.04302810   4.69444540   2.58427675
6471   0.21599184   4.39760453   0.37614867
6472  -1.75967932   0.04818037   7.49469423
6473   3.28698799  -3.96756102   2.15289029
6474  -3.12121919  -3.61670292  -4.54074697
6475  -4.67276414   3.16592340  -8.16587122
6476  -0.55706942  -0.38933036   4.99145767
6477   5.88583689   4.77438620   1.13281141
6478  -4.08308753  -2.21223821   6.63457271
6479   3.17438370  -2.44218926  -1.23266673
6480   3.64830999   1.38592194   3.47013077
6481  -5.54653983   1.52457846   6.38773564
6482  -3.87143659  -1.50714022  -0.78004691
6483   3.04287111   1.06899550   7.52261861
6484  -0.00178489   3.68016895   1.06099136
6485  -4.54218326  -1.02704218   2.11236070
6486  -6.00718371   1.91320143   5.39268512
6487   1.03252682  -6.26867899  -2.85360946
6488  -0.45167453  -2.12978399   6.03028736
6489  -2.91533909   6.10053282  -6.14306529
6490  -2.60100244  -3.81270255  -2.25965044
6491   3.90120270  -5.15289430   4.97243665
6492  -4.19437286  -8.54388032   3.34787229
6493   0.47389698   1.72082689   0.15873885
6494  -1.68746095   1.48996382   5.30144914
6495   1.02788873  -1.47626114  -0.24337529
6496   1.02167532  -0.12569849  -0.13907944
6497   4.19810835  -4.67159150  -5.66676889
6498  -0.93026449  -3.70963149   2.00009176
6499  -3.40129667   0.82850578  -0.08683750
6500  -2.37779372   0.32793200   0.48244078
6501  -2.33050375  -4.71648903  -2.50218462
6502  -2.19178717  -5.59257368   2.53445572
6503  -8.67570294  -4.69529351 -10.90390020
6504   0.97288425   1.78033010   3.70762770
6505  -2.68852780   4.45737569   4.19027993
6506   2.08452225   1.04475390  10.88371415
6507   8.65605064   2.82135487  -4.05118592
6508   6.66695927   2.36720095   0.77233764
6509   0.36072114  -7.39043940  -5.95139450
6510   1.06802186   1.83642527   5.40602743
6511  -2.94314949  -6.49327045  -4.72317804
6512   6.68574007  -0.16472173  -0.11097682
6513  -2.40431236  -3.08080167  -4.36088031
6514  -7.23963680  -8.76809698   1.83485316
6515   2.37320831  -3.09111942  -5.21771274
6516  -4.39831401   0.00583547  -4.18181483
6517  -2.75749221  -7.25321241   6.37008310
6518   5.42567996 -12.39578132  -2.13207925
6519  -6.34662623  -0.99608473  -0.93888597
6520   5.18484390  -5.78000421   2.06384388
6521  -2.32312498   0.71249228   3.08401109
6522  -2.18023011   1.43293223   3.22945933
6523   3.64026542  -0.39048682   2.65901071
6524  -0.18481728   2.39587867  -0.47725961
6525  -0.27795618  -4.69109426  -2.00052495
6526   1.44958778   1.30375040   4.85933662
6527   1.50703132   2.35048963  -3.84478278
6528   0.80154149  -4.91787919   0.08622620
6529  -1.52646435  -0.43622332  -5.17594003
6530   2.90419362  -2.68618366  -0.34928632
6531  -3.70288785   0.82577739  -3.42861878
6532   5.14172766  -3.29937547  -6.37133810
6533   0.45659349  -1.47515191  -2.49960942
6534   4.41740851   4.96125769   0.75469963
6535  -3.82626242  -1.85390544  -5.62104560
6536  -0.64722923  -4.21907597   6.73493083
6537   0.60884458  -2.90997094   1.78901669
6538  -0.50223593  -0.95044127   0.73854255
6539   5.35981012   3.06115826   4.43707723
6540   7.24109238   4.67174506   3.32287038
6541  -1.51787151  -3.05534307  -3.51466676
6542  -6.42911846   0.90014974   0.51807775
6543  -7.16257346  -3.83821486  -3.76374914
6544  -2.03318910  -6.13893965  -4.23082831
6545   2.99075380  -6.76843695  -1.02118908
6546   0.93313649   3.66256886   1.40103709
6547   3.29125888   2.63570797  -3.06303584
6548  -6.65526603   6.47883520   1.60755795
6549   1.16864427   3.34915838   2.29625226
6550   2.07966465   3.05719213  -2.77926537
6551  -1.38816516   3.85664379  -3.65986835
6552  -2.12010258  -6.20254633   1.82769662
6553  -3.37847485  -4.26694994  -2.63406383
6554   6.11934267  -1.71340391  -2.98746483
6555   2.86346634   4.12224277   0.65999537
6556   1.28257309  -1.69432631  -3.65827135
6557   6.20289244  -0.79832702 -11.61827086
6558  -1.36615018  -1.55262675  -2.91335826
6559   4.79134694   0.23832461   2.46705023
6560   1.38468380  -3.30183467   3.43038939
6561  -1.58845301   3.19135507   7.75187776
6562  -1.74670890   4.90995675  -0.37791013
6563  -2.13657308   0.12810021   2.46979403
6564   2.09334638  -4.95289994   4.93063944
6565  -1.69605839  -1.93578686  -4.15204913
6566  -6.55229212  -2.73168328  -1.23490317
6567   3.51450396  -3.68678215   1.89625354
6568   0.98705823   1.09013069  -7.22570464
6569 -12.32918414  -2.57552801  -4.30844161
6570   4.24680293  -3.79825102  -4.89585465
6571  -7.02423718  -3.63361286   0.85942464
6572  -0.79305249   3.06456011   2.65492689
6573  -1.57227066   4.01505908  -5.43932035
6574  -3.01314602  -0.54341408   1.62249413
6575  -2.44171392   4.77099437   1.46554774
6576   7.77091270   1.82898205   1.71764987
6577  -4.81329421  -2.32508732  -3.66266492
6578  -3.54360949  -6.38440383   1.35458079
6579  -3.75645634  -0.38109899  -8.59317267
6580   1.52642327   1.37816642  -0.38687584
6581   1.97900679   5.48740324  -0.94452489
6582  -7.55797850   6.06235710  -5.49509215
6583  -5.95970090  -5.89426413   3.22762881
6584  -2.72408685  -1.30824013  -1.98938627
6585   2.64431869  -1.56240342   3.70019591
6586   4.91132039   1.48402392   7.10037356
6587  -6.87539005   3.27151530   1.50809299
6588  -4.27214479  -3.85092607  -0.32180837
6589  -1.19581051   5.85249302   1.89796448
6590   0.39483052  -4.53285051  -5.38148823
6591   0.10513611  -1.54833513  -3.69008640
6592   0.39382460   0.42157001  10.17552078
6593  -2.77833087  -0.58898536  -1.02318222
6594   1.58585822  -2.65461618   1.89514508
6595   7.45985888   7.17901905   2.58886529
6596  -2.58823594  -4.87032962   1.24223752
6597   5.21585314   2.20832288  -1.50122847
6598  -2.81481903   5.58990164   2.38984483
6599  -1.75282120  -4.81701297  -5.72946212
6600  -2.28169664   2.61762695   5.74600325
6601   1.15730966   4.54671895  -1.78775649
6602  -0.64660766  -3.00523467  -4.55728696
6603   2.86563952   6.99954508   3.09760747
6604   1.79477155  -1.62341143  -2.08331360
6605   0.39382471   0.94378729  -1.74707511
6606  -1.62797458   1.34603890  -6.40220284
6607   1.91345907   4.72742323   4.26557834
6608  -3.74917272   0.07966736  -6.34643993
6609  -8.12961578  -3.99964253  -0.01354169
6610   3.87006086  -9.74753987  -1.95999293
6611  -1.31949925   3.65859269  -1.41482128
6612   4.87565522  -4.36348082  -1.22159937
6613   0.17955482   1.68078289   1.53533376
6614  -3.64943176  -2.81181968  -0.96007925
6615   2.15546614  -1.11616426  -0.12334614
6616   2.89819046   5.40372521   0.85355522
6617  -4.85051337  -1.15890910   2.54072272
6618   4.31426124   2.40754348   0.98919326
6619   4.03723141   2.10536471   4.27617839
6620  -6.34580632 -11.24328110   2.16460174
6621   3.05312107   1.32247226   0.42826045
6622   5.84230369   3.79796927  -2.14943003
6623  -0.90207773  -4.01602237   0.09508279
6624  -2.90767459   6.71136809  -3.59787412
6625  -4.00844012  -1.62031896  -3.80480063
6626   1.72590295   6.80617927  -2.62580674
6627   8.30924728  -0.32867843   2.64176257
6628   1.49319264   1.15350313   1.13423239
6629  11.80897069   4.28164279   0.21165474
6630  -8.95461920  -0.47218131   4.28702808
6631   6.41660669   1.79548187   1.79791706
6632  -3.19793716  -2.85142621  -1.04719280
6633  -9.69083538  -0.80654214  -4.63035352
6634  -0.02085164  -2.99812296   3.12111807
6635   5.73788069   2.65807447  -0.59590256
6636   1.87315846  -3.35099439   2.74274546
6637  -5.13605188  -1.42365869   2.82774671
6638   6.29847021  -9.50605848   1.95033812
6639   5.28517152  -0.85177323  -2.93212576
6640   9.98049774  -2.37272649  -0.63671459
6641   7.03169002   1.46618190  -0.25449153
6642  -1.03193565  -2.72290054  -6.32551764
6643  -0.87002451  -5.10820006   3.27444286
6644   5.32960041   1.99312085   0.51765334
6645  -3.87371729   0.09946628  -2.10288750
6646   7.55247285  -3.86337211   0.69684670
6647   2.41934954  -2.67253794  -0.07327220
6648  -1.38184414  -6.21260224  -3.82268245
6649   0.53846298  -5.88024026   7.16991350
6650  -0.57356653  -0.16436710  -0.97914367
6651  -0.85901299  -3.14784678   0.67409242
6652   1.44254470   1.38312360   0.85587762
6653   3.23251745  -8.99000372  -5.59336810
6654  -4.75922237   0.95588514   2.56877492
6655   7.98378830   5.18729673  -1.69547507
6656   4.29476408   8.64089707   2.69797047
6657   0.67186556   4.34601001   6.34467542
6658  -3.92580676  -8.39368998   0.24815349
6659   1.86923052   0.60266035  -3.41788796
6660   2.77615174  -3.86450449  -6.62615467
6661   1.52763247  -6.80517280   3.07092051
6662  -4.15177818   3.45455877   0.21631838
6663  -4.32960100  -1.98223840  -0.03111090
6664   1.15472029   3.01457226  -0.01126150
6665  -2.87364156   4.98241095  -0.19681161
6666   2.12619104  -3.51193772   2.34046829
6667  -1.57436456   8.45191835  -4.26804225
6668  -1.71233649   0.09971087   2.96000216
6669  -4.50719485  -4.82919090   5.11104015
6670   1.69485391   0.00284790  -5.64238153
6671  -4.43128817  -4.06703880   1.83839236
6672   1.66202072   2.67766694   8.77589920
6673  -1.31020278   0.68175700  -5.82132252
6674   0.96837125  -5.34676163   1.64142974
6675   1.28714894   0.33956120  -4.60462532
6676  -3.14761973  -2.03546701   0.41958390
6677  -6.71028558  -4.07948617  -1.53267341
6678   4.22815868   3.44286451  -8.61614443
6679  -3.13288008  -4.94778651  -0.92052104
6680  -1.12164987   4.86294599  -0.62587471
6681  -0.33935704   7.81220855   1.64462139
6682  -6.80685146  -2.22360224  10.76638792
6683   3.34346979  -1.75698040  -3.05319703
6684   6.45729699   1.95842170   4.31206094
6685   5.43890764   3.16736516  -3.31202792
6686   5.86581611   1.20795110  -4.14474138
6687   0.59488321   4.43926596   3.33634165
6688  -0.47238073   1.15020493  -4.57878644
6689  -1.95349169  -2.31284053  -1.17270720
6690  -1.44168952   8.12049038  -3.80626735
6691   1.80985739  -8.26677847   2.25340740
6692  -5.35707001  -4.76355565  -0.24998041
6693   5.42497442   0.71740843  -1.90594693
6694   1.73869042  -1.90383989   0.16288583
6695  -4.50738907   1.38370194  -3.17589702
6696   8.33318697  -3.01781556   0.94501840
6697   2.15961332  -5.51247369  -3.80494985
6698  -3.35102862  -0.09328708  -0.44095261
6699  -5.67081400 -10.12878757  -3.55107272
6700   1.73491911   3.91380766  -0.78544821
6701   0.85143335   4.23787807  -2.25016197
6702   2.32414284   6.79738674   4.47736906
6703   5.71594200   4.11301947  -3.29972701
6704  -5.76824633   1.78793035   2.97208125
6705  -3.24299691  -4.09125024  -8.24989052
6706  -0.32463763   4.85599623  -1.00563494
6707   2.06419039  -0.90503102  -1.67615167
6708  -2.57683997  -1.67116929   4.75565461
6709  -6.22733928  -3.03099317   2.61030151
6710   0.70439843   9.93480219  -3.75514419
6711  -5.35085564   3.70611172  -1.38759543
6712   1.53055348   0.96875096  -0.44360154
6713   8.91919002  -3.53826378   3.38230237
6714  -4.70572722   1.33066939  -0.42288000
6715  -0.63177437  -4.39499724   2.54179941
6716   2.02842087   2.41480296  -7.44416886
6717  -3.16178119  -1.95135766   4.38067803
6718  -1.21139512  -2.79845082  -0.84041292
6719  -3.50841033  -1.63748068   5.51395078
6720   4.19914997  -0.20235847   7.01661661
6721   0.60068631  -6.26415471   4.90420618
6722   0.04490514   0.47813459  -4.54189067
6723   5.21311209   0.90608772  -0.14174846
6724  -5.96221266   0.55384585   6.74740665
6725  -2.54945437   2.42861373   1.43813295
6726  -0.15433119   5.43442275   5.42735948
6727  -4.37203885  -1.72953405   3.69496140
6728  -5.45554292   1.62241600  -0.78469156
6729  -9.51790577   1.41550672  -0.87415387
6730   4.96683617  -2.79223779   3.91298226
6731   6.80561398   0.42035127   0.11097080
6732   6.79419864   3.60758920   2.47620035
6733   3.19659300   3.49760243  -1.24297977
6734  -2.40311063  -6.38672141  -3.29170233
6735   0.11998682   4.17360149   0.86919808
6736   1.45797642  -2.62208331   3.17007768
6737   7.92341526  -3.06565344  -6.19606291
6738  -2.27683831  -0.66361522  -6.27658438
6739   0.87864625  -3.90722410  -1.42022578
6740   0.20689334  -3.12491803   4.66820572
6741   2.38785606   1.49095047   0.42988285
6742  -3.28946619  -2.90842386  -0.77346949
6743   3.09168946   0.24009179 -11.14793090
6744   6.76841636   3.39996667  -5.46511116
6745   2.09907450  -0.44039457  -0.98779218
6746  -1.36057725  -4.82983577   0.57398603
6747  -2.98180389  -0.87590987  -6.07246853
6748   6.93411391   2.86442552   2.04558747
6749  -6.30174902   2.24737841  -3.17766783
6750   0.41704607   1.18141559   0.37939850
6751   8.02650527   1.35442438  -1.13626548
6752   0.92547571  -0.06129851  -2.54289556
6753   3.53584114  -3.36219825  -6.45657558
6754   1.14294949  -6.20764986   2.29480843
6755  -3.12235164  -1.32806509   1.01301838
6756   3.05345721   4.38541601  -1.96498764
6757  -2.02207429  -0.65840943  -9.63195590
6758   9.39816757   0.03135999  10.72126755
6759  -3.13592379   5.21892434   6.87989472
6760   2.54704956   3.33870559   1.65248494
6761  -0.88454733   2.83262757  -6.03248014
6762   0.93030804  -1.80345862  -1.75747168
6763   0.58405879   3.20472959   2.58214164
6764   1.21686699   1.76010916  -4.15035253
6765  -9.59004854   0.56399258   6.31106843
6766  -7.02720417   5.50183935   0.34957907
6767   1.56721473  -5.82355505  -2.17735177
6768  -4.82612019  -2.21641888  -1.86527667
6769   0.27329260  -0.71236089   5.06356383
6770  11.86672054   6.40401475   8.84004205
6771  10.99205751  -4.20075793   8.58040527
6772   1.28688604   1.57343628   3.53609146
6773  -3.20993862   1.92933529  -4.28903111
6774  -0.20346972  -4.81293905  -5.67426444
6775   0.25560951   0.38792603  -6.70013169
6776   2.01261815  -3.13535529 -10.26632503
6777  -0.65928052  -5.72234348   5.23306551
6778  -0.16493050  -3.44559695  -4.26603245
6779   3.65033456   3.06477737  -3.13843044
6780   4.79655825  -6.76938928  -0.98750005
6781   1.99831641   1.78252372  -0.59489937
6782  -5.03132514   3.28569323   1.55094823
6783  -4.98319017  -4.80913116   4.11758388
6784   5.07958158   5.54568394   0.02734823
6785  -0.66092643  -2.30193237   3.00389006
6786   0.35049134   2.06033803  -3.49819440
6787  -3.99632035   2.25656314   2.24331635
6788   5.61161208  -0.12679732  -4.04197587
6789   7.62723197   0.48285738  -5.08793822
6790   4.21503933  -2.63035009  -0.96798884
6791  -0.02158319   5.39054020  -0.23347429
6792   1.70099106   6.01342580   0.13394567
6793  -4.36008646  -0.97520453  -6.38544673
6794   0.50029795  -0.35286271   2.47375587
6795   7.88604786  -2.30491667   4.06311945
6796  -1.20808793   4.91794133  -3.60929894
6797   1.23637821  -0.86812213  -3.73886383
6798  -2.24233916   0.09503513  -2.39372985
6799   2.64360553   2.61717160   0.29936445
6800  -0.61934879  -0.41047501   2.83849309
6801  -6.25919565   3.48827541   0.06560297
6802   1.44549709   5.66472852  -4.68514983
6803  -3.08917201   0.27839949  -1.38320410
6804   2.24509723   8.76909019   1.56701837
6805  -2.73157191   0.55552171   3.00114076
6806  -2.89330501   4.10641610 -10.59530573
6807  -0.24059387   4.28734687   2.68368016
6808  -1.54375440   0.56655917  -9.94377643
6809  -0.02346634   1.61992951   5.30302969
6810   3.61476956  -2.50610547  -1.85433988
6811  -5.45559063   1.08734471   0.66907652
6812   0.09797952  -6.71684693  -0.42924584
6813   5.86584249   0.30440266  -8.55832428
6814  -1.81962216   2.03569777  -2.73322387
6815   4.12016434  12.10522687  -4.42107721
6816  -2.30726386  -1.86036273  -6.90811370
6817  -4.90705297   7.99167456  -0.09034205
6818   2.86864486  -4.14088611   1.50941949
6819   3.65528051  -4.38583102  -2.82496863
6820   2.31263277   0.62067618   0.69081697
6821   1.82284893  -6.36577201  11.02081225
6822   4.69710889  -3.83972813   0.65806890
6823  -4.53002081   3.79860241  -0.70885131
6824   3.90632384  -2.57754436   7.66816403
6825  -5.01067324   4.60893554   0.81190546
6826  -1.68869379  -3.90581757  -3.52489653
6827  -1.31134506   5.64820008   2.99838819
6828   2.40786422  -0.81476945   1.03422341
6829   1.01933449   2.62147635  -4.34631842
6830   6.10586483   4.69496565  -3.95884816
6831  -4.90270610   0.88223718  -0.91844115
6832  -2.21673630   1.43269900   0.22170450
6833  -5.08365291   0.35485439   0.74415556
6834  -4.35448667   1.10504778  -6.42397484
6835  -1.49929224   2.61830754   2.21358287
6836  -2.25795830   0.44101332  10.61869809
6837  -4.78418057  -1.81504004 -10.06490655
6838  -3.51127159  -1.17080021   2.33014227
6839  -0.15365188   1.82439193   0.32657686
6840   1.59218410  -2.31627978   6.83177982
6841  -9.38988149  -0.33561954  -6.24208787
6842  -6.91454852  -1.37451280  -7.25297751
6843  -2.96761758   0.07398615  -4.15402754
6844  -1.08683222   4.25888665  -2.26679157
6845   1.55916138   0.10998430   3.59774752
6846  -3.81936841   3.72005792  -1.27776939
6847   1.42620536   2.21536684   0.91448841
6848  -0.47252508   0.77879683   0.43229205
6849  -0.20778647  -1.75542136  -2.71004794
6850   0.45019470  -4.09210435   3.35181664
6851  -4.63932093  -4.71685562   1.53751846
6852   5.16358836   3.22677527   1.15577147
6853   0.27619290   0.41303453   3.57878736
6854   0.85195985   6.38432615  -3.67663251
6855   0.96892608  -1.37160272   0.70252416
6856  -3.98315923   1.58131415  -0.37408764
6857   1.31088133   3.38999193  -2.48161944
6858   2.63689225  -6.27519830   0.74320748
6859   0.86567328   2.19772031  -0.38692346
6860  -0.59362867   1.60951994  -0.24173008
6861  -0.58305521  -1.82492472   1.45632931
6862   4.56581406  -5.53147873  -1.45333674
6863  -0.95758997   1.76737144  -1.81355596
6864  -3.42024102   5.86191126   1.26618684
6865  -1.36134195  -2.60327892  -3.61748463
6866  -5.23811244   2.89267440  -0.42620002
6867  -2.44327334   2.08020483  -1.80064859
6868   2.20413575  -1.92446537  -3.87401770
6869   0.41652172  -4.52564142  -2.69335235
6870  -5.25190404   3.35503542   1.83474570
6871  -0.30904729   0.03530068   9.58096308
6872  -1.21523313  -1.11443304   5.36024498
6873   2.35029236  -1.87222569  -7.14053132
6874   4.10450748   1.64482772  -1.09558841
6875   3.40732866  -2.34670736  -3.13450021
6876   5.92266319  -0.27653996  -9.63655016
6877   3.49313891   4.74354979   5.02968077
6878   4.73959738   3.36720926   4.60103878
6879   1.91923038  -2.01137112  -3.61917278
6880   1.12919722  -4.13830449 -10.27484982
6881   2.26566382   0.16196655  -0.71096930
6882  -4.59145715  -3.73645980   5.04374382
6883  -0.88942970  -6.84512536  -3.06574831
6884   0.33775393  -2.77024469  -3.10698965
6885   6.92322592   6.58066582  -0.20737165
6886  -1.09940745  -1.49713178   7.25918794
6887  -1.69623035  -2.93915725   9.01195804
6888   1.66709560   3.82934814   0.33878532
6889   0.83005821   2.31354139   0.93625049
6890  -0.61586821  -7.25317303   1.13170199
6891  -2.47798680   2.10533722   3.25934345
6892   4.77267934   6.08127001  -0.12820181
6893  11.03800627   2.20354823   0.24237835
6894   0.67691899  -6.88637060  -4.23350505
6895  -3.79868219   1.36580371  -0.35067995
6896  -2.89520275   2.37355797   1.35378301
6897   2.35382527  -5.06209330  -5.97985441
6898  -2.36974122  -3.69669121   4.83896746
6899   3.74622223  -1.21744447  -4.00739703
6900   3.18837405  -0.42317490   1.26255537
6901   4.77403712  10.56563584   2.52819177
6902  -1.57501872   2.86613763  -1.63990340
6903   4.83132789   0.93739303   5.87667233
6904  -5.16324709   0.68084495  -0.16316343
6905   1.08242269   3.94465754   4.00230736
6906   1.22490292  -0.53606552   0.27941274
6907  -5.75281095  -4.05265915   0.59845588
6908   3.96498692  -3.57771634   3.86250088
6909   1.03519164  -0.02515021  -4.87148307
6910   0.48255920   1.05619629  -0.68486434
6911   6.71981595   5.59898121  -1.14185408
6912   0.42854731  -4.77509044  -3.30731008
6913   0.94619367   0.05247869  -3.91825195
6914  -4.17473886  -0.23856477  -7.03738683
6915   4.27413475   3.69557534   1.36387797
6916   3.14330402  -3.07319854  -6.59327837
6917  -4.71527309  -1.76106113   0.72270159
6918   7.75862050  -3.42686161  -4.98237298
6919  -2.98206874  -5.89529874  -2.68398563
6920  -3.67129613  -1.82314752  -1.07065414
6921  -2.61804073  -3.94732105   0.17551541
6922  -0.82556479  -6.72366402  -7.50350802
6923   4.00038160  -0.76444775   0.92657157
6924   2.09371365  -5.69491353  -1.88627730
6925   5.72161968  -0.16371132   2.38712725
6926   1.10014853  -0.94631882  -5.80921761
6927  -3.07231129   4.94944704   2.25795128
6928   8.46282329  -3.85886994  -4.47442971
6929  -0.88091092   2.14851088   1.54522233
6930  -7.15267414  -7.10819694   0.10593924
6931   0.44693146  -0.45677216  -0.21453973
6932  -3.58751359   4.63507814  -1.91866025
6933   2.68546256  -3.04536334   2.77162851
6934  -1.47996333   3.58376418   4.73449210
6935  -2.02677567   1.01749333   2.01560402
6936  -3.85198212  -2.90958447   9.18855788
6937   0.77488896  -8.30856907   4.71267405
6938   2.98959827  -5.35632895  -5.52540365
6939  -3.87752507   0.00279510  -1.56480261
6940 -10.25238480   3.13987035 -11.87754549
6941   6.18955868   0.53652694   1.57800341
6942   4.69679817   0.11294464  -1.38797697
6943  -1.57228826   5.92417561  -2.02603847
6944  11.45968311   1.00339773   0.23263240
6945   4.58171737   1.75368069  -2.21656031
6946   3.23412943  -0.06244106  -3.22554763
6947  -4.45259104   9.55649905   4.17639836
6948   0.61345987  -2.01573888  -9.82473456
6949  -2.07264408  -0.43034184   2.30433304
6950   3.59909075   3.64318443  -2.89206314
6951   0.32426708   1.71849854  -1.87486429
6952   5.25345742   6.85181958   1.94162922
6953  -4.06101965   0.79161614  -0.21318090
6954  -1.69366962  -3.64205892  -2.69565867
6955  -1.10394503   0.92294252   0.75274987
6956   1.95783885   4.90002592   0.31505562
6957  -1.17323648   1.36863910  -6.27575624
6958   0.77362612  -5.28428024   2.01678284
6959  -0.61547208   8.47142016  -1.91517171
6960   5.44417241  -5.12730489  -2.06781253
6961   3.74112877  -0.64424823   4.63108290
6962   1.20317091   5.37944243  -5.44891308
6963   2.52947614   0.61148047  -0.08020834
6964  -2.93926364   5.10353469   3.76060416
6965  -7.16958366  -2.74675209  -2.35111687
6966  -4.80835102   1.60086248   0.77033082
6967  -1.53265684  -1.01181619  -0.13801073
6968 -10.77808692   0.55862439  -7.43252250
6969   5.19007867   0.64520971   6.54195431
6970   0.12508888   1.77203682  -2.95022408
6971  -2.42515115   3.69313235   4.59895315
6972   0.36906421  -1.52116213   1.57078031
6973  -4.62285846   1.30079109   1.72200478
6974   2.36774998  -2.41360611  -4.85631319
6975   0.72127255   5.00026478   1.20650664
6976  -0.08261708   5.36327666   1.50315789
6977   0.94087690  -1.35324363   6.31976721
6978  -4.27632679   1.02414862  -5.43055339
6979  -3.69452123   1.10747668   1.68436346
6980  -0.91225908   1.92960464  -0.10309961
6981   5.92683828   4.39566105  -1.73521234
6982  -2.16363503  -2.11965729  -4.34534986
6983   4.24913613   1.81580496  -1.35991053
6984   1.43391654  -6.26890250  -2.89351338
6985   9.40119394   3.58332343   3.22657900
6986   6.38891619   3.23037191   0.04818915
6987   2.29085509  10.36184746  -7.45395840
6988  -4.23991891  -0.48496104  -2.07502702
6989   3.48831893   2.17560576  -1.03114577
6990  -2.15830151   2.76716879  -5.82741965
6991  -0.07136077   0.88494494   7.34547321
6992   2.99213488  -3.92567062  -5.63324449
6993  10.11870190   3.14063936  -2.93286484
6994  -4.91800371   7.31041770   1.99162984
6995   5.20393072  -8.03113234  -4.08782913
6996   0.01213143   1.50015245  -1.03210159
6997  -0.63374594   3.26715291  -3.08090849
6998  -0.08277826   6.96194250  -5.68209942
6999   1.50294966   2.51904150   1.18722628
7000  -0.84554644  -0.98930257   1.07443360
7001  -0.93683169   1.09849743   0.00461793
7002   5.73008085   2.28173760   5.68329577
7003  -4.37800789  -2.88214397   8.94876220
7004   0.24440224   2.07313203  -1.02209657
7005  -0.52284511   3.83835632  -5.09736231
7006  -4.81858238   3.38146635   2.30089307
7007  -0.22259350   0.12445884  -4.33383504
7008   4.69688923  -2.61812310  -3.75371825
7009   6.05538523  11.55828075  -1.74218230
7010  -3.42659925   1.39853370   1.66146299
7011   0.07367552   3.47064216  -1.50712647
7012  -2.01594354   3.81881179   3.60387648
7013  -2.98437460  -2.87477742  -0.75144413
7014   2.93642143  -2.11291645  -4.06521759
7015  -4.54378080  -1.03973662  -0.54070901
7016   6.06311014  -3.29656794   1.19815013
7017  -2.10145166   4.11427801  -0.73549686
7018  -4.87054371   1.87599199  -5.54591989
7019   8.25008986   1.77535560   1.72798130
7020  -3.27212536   8.05240988   1.10034321
7021  -2.86613041  -0.92057128  -2.35724770
7022  -8.73656098  -0.65875026   0.41332938
7023   5.06333384   1.97357737  -1.43124137
7024   6.07765279   1.22548442   3.85976291
7025  -1.87087256  -3.97515029  -1.00773869
7026  -0.65162615   2.15771856  -0.96046280
7027  -0.39468096  -3.75396462  -4.91033134
7028  -1.99168857   2.33928528  -3.79864870
7029  -0.17250956   6.95464932   4.00882688
7030   6.29839072   1.55947890  -3.31460405
7031   0.51623280  -1.41963374   6.65149993
7032  -0.90177458   2.13393443   3.42624599
7033   3.92257830   1.62380125  -1.05080552
7034   6.86640137  -7.94893104   4.00057093
7035  -4.90449985  11.60323173  -0.68504073
7036  -5.83406001  -2.80144284   0.04330997
7037   5.80703197  -3.14305905  -9.36109126
7038  -1.75569055   0.99891886  -7.15086284
7039   1.10063764   4.09920140   0.24681944
7040   6.25277942   1.52156979  -5.86280629
7041  -1.12770548   2.06214173   4.86678133
7042  -1.73905967   1.99945461  -2.33563454
7043   0.40653640  -2.22733419  -0.80621586
7044   0.99459874   5.47854009  -0.97706009
7045  -3.69977034   2.73287858   1.09417334
7046   2.81689447  -1.20453492  -2.50305041
7047  -1.20200801  -0.74873154  -1.26912459
7048  -4.97319428   2.31713074  -1.63323832
7049   7.69208897  -1.89903317   8.81634752
7050  -1.54576228   2.73556888   1.74825712
7051  -3.99961821   7.00029234  -1.23885969
7052   1.58589869  -3.69363041  -5.75162671
7053   5.10065090   1.55547635  -4.81591954
7054   0.68781563   8.88736273 -11.37609061
7055  -5.19055852   5.83874881  -1.58556654
7056  -3.21500685   4.06959877   0.06696477
7057  -3.27303874   2.40616856   1.87699185
7058  -2.72563995  -1.95700897   2.97516391
7059  -0.73694681  -3.69687786  -2.29709899
7060   3.54200798 -13.73029236   0.39815068
7061  -4.55652617  -7.09334780   0.64785803
7062   3.14136124  -0.46047002   0.63153835
7063  -1.12297425   5.38203539   2.23387771
7064   4.21649078   5.47317356   4.29937577
7065   2.03373124  -0.78686572   3.57791968
7066   3.34525131  -1.11260697   0.67469280
7067  -0.80182908  -3.48761519   2.98492189
7068  -1.99989102  -4.64298224  -6.61281454
7069  -4.18196171  10.09062494  -0.98435806
7070   1.44103053  -0.96348908  -1.25390861
7071   4.36153737   5.94785172  11.41031999
7072   0.30964109  -1.41777520  -3.95833004
7073   1.84254594   0.27281443  -1.45554857
7074   3.84337632   2.50580913  -3.07688510
7075  -1.17843889   4.60840140  -0.32836212
7076  -4.65781444   1.43387896  -1.92046677
7077  -0.02089546  -0.53347846  -0.98594724
7078   9.04741068   7.41365710  -5.38074599
7079   4.94601457   2.62282341   1.25719551
7080   0.15102316   3.18987399  -1.41703534
7081   0.14333186   5.43469453   2.60514606
7082   9.56006440  -0.43869826  -2.65866960
7083   0.39203034   0.32169211  -0.77094693
7084  -4.34744053  -1.93712440   3.45051881
7085   2.03538108  -1.49967014  -4.11167303
7086  -2.76664011   3.78995242   2.01611045
7087  -2.31229567  -3.87150397   1.18451631
7088  -1.87852639   1.66082190   4.83241377
7089   4.98397614   3.25648413  -2.72600470
7090   5.20124097   3.17425036   0.04885867
7091  -3.29416707  -4.16504947   0.61430855
7092  -2.39188824  -2.07221719   3.09256489
7093   0.07320345  -3.93798944  -1.24925307
7094   3.56674041   0.47332332  -5.42382918
7095   1.85643045  -4.78679623  -2.58311144
7096   2.69530534  -0.71285255  -1.46059097
7097  -4.46901389  -2.02004143   2.65535389
7098  -8.34836693   2.76179211  -0.85033058
7099  -4.93173319   2.52131266   4.89872659
7100   3.15909375  -2.02927744   0.72511956
7101  -1.98726703  -0.66198287  -3.42882524
7102  -0.42254188   3.23001365   3.06816246
7103  -0.97426911  -5.98456380  -2.11681316
7104  -0.47957714   0.50009757  -3.47878490
7105  -0.08262663   0.42190091  -5.05557383
7106  -2.60788831   2.34561103  -1.74575129
7107   2.47357338  -3.62720795  -3.08717769
7108  -6.02113790 -10.24659096   2.06703231
7109   1.70529585   8.40360506   3.84864707
7110  -9.41738534  -8.28372982   5.47152404
7111  -1.84104060   0.42770665   4.35807276
7112  -3.45214935   7.90431157   5.67641753
7113  -1.54358813  -8.35788015  -4.40235075
7114  -2.90059491   1.53750345   1.04742138
7115   8.04087702  -6.02121392   1.06628950
7116   0.39095857   2.24501499  -6.28487195
7117  -7.91716915  -2.81226122   1.03803750
7118  -3.12760174   0.48471899  -4.52674831
7119  -7.14024657   0.97406531   0.04208596
7120  -3.22524793  -6.04457921   4.59862555
7121  -1.15292318   1.11341761   3.62533011
7122   3.93158774   1.87732051  -2.67099042
7123  -4.78858414   0.11985085  -1.33547510
7124   2.27820991  -6.13730458  -5.07017363
7125   0.95258458   2.23643021   2.46593244
7126  -2.75353733   7.33954981   3.35564518
7127   2.50139497   1.06966370   2.66603148
7128  -8.71753542  -1.47471378   5.48912055
7129  -7.32069324   1.92371130   5.76571820
7130  -3.98643923  -2.05122966  -0.24737916
7131   0.58125744   2.15981164  -2.64173455
7132   4.46478912   4.57944808   3.79138698
7133   2.51746480  -3.79219018  -3.29599965
7134   6.91399174   0.46810660  -3.36263503
7135   3.95385733   0.25906854   1.65359969
7136  -3.97487952   0.18246765  -0.92359890
7137   1.41332958   0.44073185   8.64375881
7138  -4.39591018  -3.78318676  -0.95590518
7139   7.87775649   1.52959706  -3.03710402
7140  -8.53559790  -1.38368440   0.81830396
7141   8.43658597  -2.20183433   1.32625200
7142   0.82675760  -3.70154639   5.80474713
7143  -4.93953758   0.47327129   6.38646695
7144  -0.45802112   0.03772656   0.84405441
7145   0.81210171  -7.64193386  -5.11778028
7146  -1.07554719   9.36223687   3.50858391
7147   0.60593358  -2.87759772   3.08949894
7148   4.29656267  -1.97308332  -3.95279237
7149  -2.78431907  -3.04305696   3.07497481
7150   1.78967613   0.71165111   3.58179214
7151   0.88117114   2.64499194   2.78282539
7152  -2.21521758   3.91985467  -2.53431001
7153  -5.31384520  -3.01337688   4.53094740
7154   0.46507126  -3.36394563   2.89724473
7155  -6.27017807   2.72226471   1.76475611
7156  -3.01501460  -5.60310278  -7.98640873
7157   0.06288107  -0.56579498   0.45421415
7158   3.32006404   0.78883353  -5.94853067
7159   1.70028723  -0.68406553   2.94779494
7160   1.97083616   0.25443550   1.13759642
7161  -3.87951161  -7.93475527   1.77092418
7162  -1.42647329  -2.50022767  -1.57078396
7163   5.82710296   4.68858640   3.11587413
7164   3.93526985   0.91755388   9.12676231
7165  -5.63914974  -0.68298701   2.29720818
7166   2.14996836   4.62145744   0.19375528
7167   1.57392099  -6.20818811   1.88177345
7168   1.51413108  -4.74153435  -5.47494726
7169  -6.48678637  -4.03901634   7.66843318
7170   5.77220885   0.40951306  -4.62327723
7171  -3.65802082   5.32696892  -7.65669794
7172   1.21010031   1.47717787   0.18145426
7173   3.06885974  -4.33835514   4.25911693
7174  -4.32822234  -6.33588950   7.65003828
7175   2.27804225  -0.76034685  -1.93614410
7176   0.75608149   3.29738642  -1.53624514
7177  -1.55426347  -0.42737554   1.51926626
7178  -2.28033138  -0.84208213   5.43251130
7179  -2.37262405   4.91049787   0.66167659
7180  -4.73419235  -1.92370301   3.34600915
7181   3.64961836   1.46080789  -2.00385912
7182  -3.67208907  -6.11155230   0.17051352
7183   1.97176166  -3.90765746  -2.91955097
7184  -4.11652308   4.79017025   2.44717114
7185  -5.45108951   0.90921964  -1.92172593
7186  -2.23702270   6.07147611   1.90853388
7187  -7.67341473   2.99752607  -3.05070041
7188  -1.38918931   5.21711555  -2.94044463
7189  -4.72108276   2.15329789  -6.60242204
7190  -2.36288154  -1.84223756  -0.25687668
7191   2.68508622   3.70936533   2.01617969
7192   3.47752148   1.22429968  -0.28272807
7193  -2.69105663  -4.25063933   0.53887124
7194   0.91275866   1.71362658   1.44048746
7195  -0.77867746   0.19975597   1.61864354
7196  -8.13297690   7.19901493  -2.97665332
7197  -5.42787026   2.97293372  -0.79650090
7198  -0.33509541   4.61530041   4.98334034
7199 -12.30524443   0.00882992   4.26442734
7200  -8.55746803  -0.59484931   4.45533327
7201   7.80023148  -0.00985716   1.68471500
7202  -0.95011234   0.31069586  -0.04487929
7203   3.16583844 -10.80159923   2.24686700
7204  -6.04620330   0.92896839  -4.92464662
7205   0.02387897   0.47361600  -2.57245073
7206  -3.02531103  -0.58114152   0.76657749
7207   5.35168490  -0.62170648  -0.89454821
7208   1.77629426   4.31775272  -6.26704302
7209   1.39106819  -2.70935418   5.10585671
7210   4.22988609  -6.10620372  -2.59117841
7211   2.22635902  -2.69973269   5.10664757
7212  -4.30022633   1.05416358   2.27499306
7213  -0.86491194  -4.62333914  -2.22216392
7214  -0.83287387   2.51084130  -0.07216997
7215  -7.91401970  -5.67347094  -0.49367791
7216   1.32752985  -0.93443039   6.19448912
7217  -3.12069772  -8.11931658  -0.42732292
7218  -5.96882105  -1.46834716  -1.85300066
7219   7.84203913   5.96737636   4.71219253
7220   3.34672335   8.70931158   1.19153776
7221  -1.86206944  -0.67319391   4.84107644
7222   9.73048706   2.68435158  -8.43381582
7223  -0.11210230  -3.22601681   1.71011449
7224  -0.08082639   4.32248457   6.41446593
7225  -2.39014169  -6.94468272   2.45670336
7226  -1.62270895   0.44042048   5.26274060
7227  -0.03914033   6.15823536  -1.71180065
7228   2.53977441  -2.16328449  -0.29411056
7229   0.83129518   9.06478620  -0.91628818
7230   0.40362937  -6.30048256   3.51357082
7231  -1.38269380  -3.95439922   3.99643055
7232  -4.43691857  -3.61870369  -8.33023226
7233  -1.63070350   6.74749842  -4.90796080
7234   4.32203313   0.09951764  -6.23711912
7235  -2.57764901   6.09459953   5.72387948
7236   5.31796597  -3.58045494  -0.28978845
7237  -5.93677739  -2.22218757   6.15697544
7238  -3.64914093   1.13552249   0.98179023
7239   0.73154138  -8.93736677   5.93932992
7240  -4.13325465   1.53813722   2.39361895
7241   2.88877723  -7.38558458   3.23138882
7242  -5.91190653  -0.36420439   1.72885802
7243   3.08269727   6.51474004  -1.00073092
7244  -3.11482173  -2.82837680  -5.07721772
7245  -2.70701210  -7.99286528  -2.93296678
7246  -2.42000317   0.02219536  -0.51827239
7247   6.62687418  -8.10194673   7.02028210
7248  -3.93120985   0.36638716  -0.91061492
7249   3.56160211   5.13606265   4.33307083
7250  -0.16552257  10.34667384  -5.20933986
7251  -6.87559907   1.69737464   4.02766697
7252  -3.70656514   2.44677685   4.72125738
7253   1.30280806   1.96510244  -2.07197022
7254  -4.41318370  -1.58171081   1.21973364
7255   3.49075334  -3.51698733  -0.62868452
7256   2.95175726   2.71415067   0.07339574
7257   1.18369130   2.38836862  -2.40329594
7258   5.94394369   0.08147315  -4.33874685
7259  -3.11659750  -2.64020634  -2.49899966
7260   2.36242018   1.69187938  -3.91118363
7261  -1.02553539   0.05589136   1.27686155
7262   2.72564513   5.28920588  -0.92111238
7263   4.86038686   2.81831855  -3.11281245
7264  -2.91234834   2.05979278   3.90703969
7265   1.18428710   0.68872195   7.95622901
7266  -1.93766001   5.57489661  -0.96747251
7267   6.17310266   3.57633683  -0.64621425
7268  -1.32796784   1.38322477   4.48559731
7269  -4.19383135   4.24933139   0.60465131
7270   0.24968932   3.39523869  -2.46581692
7271  -0.14123374   2.17281659  -3.87426545
7272  -1.37264799 -14.43613200   4.97500170
7273   6.05160982  -0.54508208  -5.13503512
7274  -2.84040337  -3.45333964  -2.43487566
7275   5.65553162   8.74026551   8.31843143
7276  -4.63752180   3.32798296   0.26286172
7277   6.88172559  -2.70792742  -4.01414665
7278  -7.86107184  -1.37439930   0.26906739
7279  -0.02882867   0.18598521  -0.83589341
7280   5.00942376   0.13372306  11.55912898
7281  -4.31249682  -3.94949265  -5.53392334
7282   0.80887217   1.41941069  -2.89012014
7283   1.95436410   1.49450054  -2.39345056
7284   4.22226981   0.92302715  -1.28285364
7285   1.05733830   0.31296242   1.90536774
7286   1.16606122   0.32978532   3.70227001
7287   0.57657283  -3.49311231  -1.82476336
7288  -2.43203532   1.04882396   2.57526785
7289   0.47519769   1.86561758   2.56043139
7290  -1.95250045   6.46895620   0.81240609
7291  -1.07640062  -2.76711401   3.92836316
7292   1.86838970  -2.64450539   0.11119476
7293   4.09581861   1.18977152  -7.33914090
7294   2.22229095  -2.51463158  -1.36531769
7295   7.55458888  -1.22846101   2.98831201
7296   3.83371481  -7.27097369  -0.19567741
7297   0.92878727   0.31991079  -0.16037347
7298   1.20678532  -2.88720988  -3.17981772
7299  -4.89919618   2.83977670  -1.11862814
7300   2.40331011  -2.47561762  -1.01922995
7301  -8.63273784  -2.86411137  -0.29874555
7302  -6.82722868  -2.74624463   1.26567440
7303   2.76951941   1.21628098   9.98981035
7304  -3.83194262   1.28901415  -2.25555640
7305   1.12339206  -1.96139937   3.76406719
7306  -1.16834451  -2.18837911 -10.92600186
7307  -0.87049415   2.99907890   0.24660019
7308  -2.75605159   0.66477188   3.76034981
7309  -0.14601029   7.26650406  -5.69241663
7310  -2.00441792  -3.50305847  -0.27079241
7311  -1.94620491  -1.90553114   1.47476447
7312   0.67609728  -3.05946677   6.34500441
7313  -2.98389776  -0.54331558   7.71403319
7314  -7.96444198   4.74567560  -4.16342417
7315   2.68860587   0.90485061   2.95138584
7316  -6.08248363  -4.07717525   2.58591754
7317  -2.98342742   9.34626093   4.31090357
7318   1.74026430  -4.21053905  -4.29906182
7319   4.10597053  -3.40993913  -3.43055759
7320   2.00998862   5.40281631   5.09395429
7321   6.24869580  -2.87113422   4.14873870
7322   4.19962652  -3.18668505   4.96839595
7323  -3.23124650  -1.28920671  -0.76345835
7324   6.18787772   3.34266839   2.86570689
7325   2.43589164   0.11114792  -0.39442442
7326   5.37704081  -3.47873809   3.12707458
7327  -2.15139778   3.69229429   1.59804591
7328  -3.59950074  -2.18421380   2.77747254
7329  -6.97178526  -3.00005307   7.52088520
7330  -1.57381805   4.19610459  -0.73902250
7331  -0.51206177   1.36422813   4.42594648
7332   4.68488841  -1.01947487   2.47095301
7333   3.64116652   4.51314840   5.76682306
7334   1.25905507   2.70092897  -0.21796972
7335  -5.14530098  -7.06267787  -2.80305792
7336   0.33046283  -0.65609498   0.50336396
7337  -5.72649715  -6.20690238  -1.84160958
7338  -3.80937385   0.99511418   2.75380514
7339   2.26888259  -0.08193226   3.75238919
7340   1.11025125   3.34371023   0.30156815
7341  -1.33990071  -2.13388837  -3.75426192
7342  -2.28481553  -5.32527783   7.39414110
7343   0.74414749   1.34669713  -2.91446520
7344  -5.84224315  -5.05488160  -1.60415759
7345  -0.64924757  -6.94510754  -6.31702269
7346   1.63387337   1.80258597   7.33986508
7347   0.66178414  -1.55763988  -1.97859863
7348   0.99322269   6.17112798  -2.32474979
7349  -0.48209774   0.38473673   6.27542060
7350   1.93330624  -2.53694415   0.13981034
7351  -2.81595171  -2.31761802   2.17056225
7352   1.76425426 -11.08137032  -1.03089844
7353   2.28572088  -2.27210729   4.96994984
7354  -0.75710115   3.40905036   6.64067483
7355  -3.47742304  -5.79385622  -4.38741901
7356   4.45706036   1.43515683  -5.73621667
7357   0.14902162   4.39587415  -1.76202300
7358  -6.45843389  -3.40716853  -2.41052087
7359   3.98972512   2.89050238   3.82982290
7360   0.97166394   3.84134064  -1.52748140
7361   2.22971303   4.09040840  -0.75501696
7362   4.75318847  -6.44274379   4.27614585
7363   4.88268552   0.95509298   0.54633259
7364  -6.35418533   0.33041731   3.59756223
7365  -0.73161593  -3.29485058   1.11605190
7366   3.26451715   3.46561212   4.71888941
7367  -3.61934123   2.35613755   1.05947207
7368  -1.80547959  -7.62661546  -2.21670887
7369   5.15763480   0.73283841   1.98294240
7370  -0.76108825  -2.15593183   1.34090272
7371   2.90120571  -5.63394701  -0.54250109
7372   1.01586737  -0.36656468   3.03542873
7373  -2.81993098  10.16398451   7.79086691
7374   0.10584154  -0.07114779  -5.16391792
7375   5.93771377   5.39617595  -0.57508553
7376  -4.13155973   4.03062732   0.99216777
7377   2.67047348  -0.92283960   0.49464958
7378  -1.69338751  -3.26358118   0.26875885
7379   3.72336159  -1.09513806  -3.84794326
7380   3.54768106  -2.14733609   5.69233662
7381  -1.27928010   3.54068447   0.65943053
7382   7.00293332   1.60132423  -5.52058570
7383  -8.03166333  -5.60746768  -1.20100363
7384  -5.59288120  -2.12578050  -5.73485871
7385   1.20483040   6.16712950   0.83463367
7386   2.46115685  -3.73065342  -2.50303871
7387   0.66678609  -4.03976862   0.40026624
7388   6.21758012  -0.37713004   3.20240214
7389  -1.08468388  -6.00781833  -1.30767143
7390   2.84030886   3.54160184  -4.22602684
7391  -4.96881997  -1.34642432   1.00228462
7392  -1.69486826  -4.04441198   8.70118760
7393  -1.97088922   5.93806634  -1.93315080
7394   0.04495721  -0.19099946   6.11981818
7395  -3.41161785  -0.97850301  -3.38285870
7396   3.33521847   5.72746609  -4.92669229
7397   0.73214159 -11.82635551   8.25888741
7398   1.23158282  -1.14737144  -1.70163125
7399   1.03022644   5.29169844  -2.71850922
7400   2.87051539  -6.09941551   1.31038040
7401   0.62060246   6.46012938   2.73492236
7402  -1.21646625  -4.40383217  -2.75493343
7403  -1.34632517   4.24044049   0.60890287
7404   6.87877762  -5.12552280   0.80017656
7405  -2.13972258  -4.41120457   4.41972618
7406   0.02583104   3.31247935   6.52224094
7407  -5.08924356   4.07788382  -2.25678663
7408  -4.68609261   7.00116700   1.29549216
7409   4.28401277   8.16096235  -4.08260452
7410  -5.85516216   5.15910345  -3.77073940
7411   3.30901251   6.73366395   4.49879489
7412   1.21434806   2.81837521  -5.57606009
7413   2.80665198   3.05903155  -2.42863655
7414  -4.54094939  -2.23222798  -7.18362402
7415   2.69967801   2.59531444 -10.09393378
7416   7.14844306   3.79421221   1.35680361
7417  -7.57495678  -8.04519535   1.18475365
7418   2.23069166  -2.58259594   3.66115605
7419  -0.51923108  -7.42159436   0.23992485
7420   0.74483624   3.51738718   4.96237356
7421   1.79645982   4.32870106   4.12013934
7422  -2.97041213   0.71590983  -1.50918516
7423  -4.99921562   3.66197648   0.92711275
7424   0.10523091  -0.03610099   1.19232945
7425   5.48799849  -1.27971224  -0.87162299
7426   5.60561097   0.20260847   0.62694179
7427   1.88380371  -3.62532058   2.89707389
7428   0.16813157  -2.18243017   3.69773041
7429  -1.32781227   2.47273726   4.85931788
7430  -3.93517495   3.06257407  -0.29880959
7431   5.14854308   2.90507774  -3.90294976
7432  -9.68093889   1.10815287   2.74000770
7433   6.71024316   2.71155925  -2.85908600
7434  -7.58039419   2.44993991   1.59445464
7435  -0.75888203  -3.28749734   4.98352618
7436   4.03372745   0.11244211  -2.54408201
7437   1.50484217   0.81682068   1.09778983
7438   0.47967555  -4.84615763  -2.61536593
7439   0.28371296  -3.10795407   4.31557842
7440  -0.90990348   2.91017593   2.08091148
7441  -4.46175929   3.16616839  -2.33581284
7442   6.57538359   3.48637841  -8.20664499
7443   1.25459885   5.81982593   0.90851826
7444   3.95991844  -1.96110538 -10.39215916
7445  -3.88929833   1.50420675   2.64343121
7446   1.07245866   0.19566154  -1.85995871
7447  -0.27171923  -0.86235662   2.83513034
7448   0.88472395  -1.47160356  -2.38787861
7449  -4.90363923  -3.56295812  -0.53451687
7450   2.21119596  -0.82053134   5.97465287
7451  -0.48959427  -6.30469778   3.02353422
7452   1.21173539  -0.25999067 -10.56499276
7453  -3.55939783  -8.73297284  -4.10605401
7454   0.58664628  -7.32140122   0.91316980
7455   0.66542631  -2.91240550  -0.66547340
7456   1.62296112   2.40767335   0.32172328
7457  -2.82841378  -2.42752605   6.48680533
7458   2.27453181  -1.76837043   1.29616192
7459   4.81279869   1.94873856   8.09031206
7460   6.29808115  -0.92576347   6.71246140
7461  -5.48930425   0.88968910   3.06954894
7462  -1.32198359  -7.55304844  -5.44165753
7463  -4.24021162   0.20491968   3.93340573
7464   2.19728252   3.11220952   4.48004568
7465   0.20073489  -0.96318933  -3.55290380
7466   1.45611152   7.23370439   6.21836023
7467  -0.68819049   2.42889851  -4.00678406
7468   1.37702207  -8.37998150   1.22007657
7469   1.62411702  -1.70369608   4.72654629
7470  -2.57082998   1.50157724   3.39789738
7471   3.87311806  -2.55877428   5.51169059
7472  -0.44891565   0.73994911   2.91805646
7473   2.02514167   0.46135739  -4.22740676
7474   1.15074318  -1.67234113   1.68216290
7475   3.45433054  -5.05576741  -1.25129916
7476   1.64295839  -1.33421788   0.05054365
7477   6.45015121  -2.33302754   3.57109318
7478  -1.62213984   1.78774861  -0.88579450
7479  -1.64987903   4.57002284   0.77453319
7480   0.02107288  -2.72572373  -2.19208992
7481   5.31199801  -0.59636858   9.69005363
7482  -0.57333983  -4.51741988  -6.74187633
7483   3.82882536  -1.39871029   0.79563672
7484  -0.08976439  -0.61770082  -3.62363474
7485  -8.77706690   4.74238029  -7.97838005
7486   1.83386091   5.49945232   5.97871013
7487  -0.82680269   5.75250529   1.91034286
7488   1.69366814   4.64197095  -3.44310157
7489   7.77604996  -2.65836461   9.42786574
7490  -0.24701095   2.97243027   0.43453156
7491  -6.37647319  -1.91507308  -2.40907461
7492   2.10717103  -0.82018327   4.14115673
7493   0.18987938   1.05612288   3.90245739
7494   3.53665120   0.90928415   5.78426350
7495  -1.57614638   6.44775807   3.44473362
7496  -5.88081378  -4.08168551  -1.68761424
7497  -4.91899927   2.03867053  -3.83652360
7498   1.78649939  -1.66922881  -5.31474686
7499   2.94406564   0.59399261  -4.73001991
7500  -4.77052543  -2.30513262  -1.50786412
7501   3.09848263   2.57235462  -2.21876381
7502   0.04174469   0.78493748  -1.18031136
7503   4.98495267  -3.59050082   4.25288262
7504   6.52219891   4.18473270   2.71638793
7505   0.08567440  -4.56957040  -1.93805281
7506  -3.11655227   1.64064287   0.64268468
7507   4.30946044   2.00176123  -5.57137700
7508   2.99194639   1.02128585  -1.13918888
7509  -1.40852178  -3.35965058  -2.18908960
7510  -3.10007738  -4.76871113   2.36492153
7511  -2.55676105  -4.01352461  -4.61218156
7512   1.35690687   1.79858701  -3.30152743
7513  -0.86142815  -7.00936894  -0.56894918
7514   8.26932713   3.15453645  -0.51425008
7515   0.68536437  -3.87121266   1.56296873
7516  -2.87387975   0.47908544  -2.84629044
7517  -0.13819622  -0.06084404   1.50254064
7518   3.45851226  -3.68041957   4.61144567
7519  -0.07699836  -3.34349442  -0.97620574
7520  -2.23860925   1.62811598  -1.66886072
7521   3.76575781   1.64675940   4.95572286
7522  -3.47750696   0.60601809   4.11173380
7523  -0.85884849   2.01460010   5.36052927
7524   4.50430831  -4.88776383   0.04038346
7525   1.99516719  -1.36120315   1.57726894
7526 -11.23630645  -3.46815164   4.14278184
7527   0.20043002   2.17382108  10.14381886
7528   3.55461970  -1.10721325  -3.15819611
7529  -0.68502459   1.28661225   4.67485398
7530   6.79560799  -3.28373728   2.22829813
7531  -3.25753525   0.88182468  -8.91595964
7532   0.77371916   4.27970220  -2.50875117
7533  -2.72714588   2.26173770  -0.70708704
7534  -7.60730387  -0.25394800  -2.74782319
7535   0.27382827  -1.58489748   1.63756095
7536  -3.73721998   0.25080835  -4.09783331
7537  -5.85839639   9.31561194   7.48786793
7538   4.17161611   0.56282515  -5.52144505
7539   2.93483597  -1.98060069  -4.08634968
7540  -2.26618166  -1.27691886  -1.50823578
7541  -2.16046978   5.47961639  -3.51127047
7542  -3.24169739   1.90783282  -5.73375806
7543  -2.74745944   3.50019576   2.04063505
7544  -2.11974230  -2.52149336   1.75101734
7545  -4.37805577   2.38998831   1.81808124
7546  -0.72418793   0.19350702   3.38986677
7547  -3.89422034  -0.88389730  -3.41690601
7548  -5.41936264  -0.64748966  -7.22275361
7549   1.94401437  -0.10973810   3.74024121
7550   4.90053401   7.10648315   2.85046041
7551   1.67290244  -9.80745266  -5.99163382
7552  -2.89275239  -1.79469613   8.14791420
7553   0.22313250  -3.07645976   2.76013246
7554  -2.45142702   0.58192643  -5.72478876
7555  -7.68451117  -3.24273055   4.24384013
7556   8.86130855  -4.40366735  -0.65894800
7557   3.88997303  -2.63265567   1.61534395
7558   0.54679386   5.21410724   1.81128695
7559   2.96280511   0.24914177  -1.42095528
7560  -2.22585267   6.54474628  -3.72446198
7561  -6.85063338   0.05441881   4.79027905
7562   0.93789807   0.42319667   7.53701921
7563  -3.58661251  -3.73539872   1.65585615
7564  -3.38319349  -1.55216721  -1.59306371
7565  -4.94140370  -4.53154511   2.83761072
7566  -2.10520588  -0.73294894   5.89524562
7567   3.49415118   8.00137580   3.02774288
7568  -7.18048067   5.37099233   1.24757301
7569   6.77202564  -1.37673551   3.72935407
7570  -0.27464363  -0.81197320   5.05166699
7571   3.22247303   2.70306793  -0.36522874
7572  -2.79851400  -1.55324751  -0.39363281
7573   2.57388083  -3.21111061  -7.55147262
7574  -4.73625073  -0.92620084   1.40036498
7575   2.07282851   8.64495357   1.59894240
7576  -5.39421445  -0.61657385   4.91747065
7577  -4.48019680   0.91714694   3.14601632
7578   5.28661983   1.53030195  -0.26148557
7579   0.58289155  -2.12276242  -3.34830374
7580  -5.59068326  -2.27646099   0.07348355
7581   4.08150023   4.66615199   1.64263216
7582   1.62854046  -1.11198781  -4.59747124
7583  -0.05231798  -1.09826066  -5.83400490
7584   0.69907221   1.17947780  -3.45960297
7585   1.99086926   8.51416734   3.15327894
7586  -4.61745231  -3.42635121   1.68559999
7587   4.57577662   3.39968788   5.13526209
7588  -1.39402075  -2.09065613   3.36901746
7589   5.50418383   6.34403195   0.95375611
7590  -6.23804120  -1.80498702   5.27334785
7591   0.55017530   3.05841405   2.97920951
7592  -2.51408183  -0.57517950   2.31051150
7593  -2.29826613   2.33904888   3.16019468
7594   3.21026179   0.90797236  10.99096767
7595   2.64150105   2.25369507   0.53622731
7596   0.76497073  -0.51870058   1.68595177
7597  -5.03917860  -3.69142831   3.84518199
7598   1.12976762  -0.58000762  -4.69095772
7599   5.34651121  -3.44311339  -1.37371671
7600   3.24871191  -5.40963230   3.42552822
7601   0.11806286   4.35054853   0.13552280
7602   6.31366797   4.15831250   0.16754907
7603   3.40559395  -2.71453039  -0.53250244
7604   2.22407668  -2.46455717   3.83246529
7605   0.60724463 -12.15912998   4.71572124
7606  -2.30664134  -2.75086735   2.73601079
7607  -4.27306269  -4.88739950  -0.67546797
7608  -0.78392151   0.81289393   0.41118186
7609   4.85308551  -0.35898226   1.02692248
7610   6.66675783  -2.77980947   1.48415301
7611  -1.26808142   2.91827892  -1.66218385
7612   2.02360160   0.77792529  -3.06270287
7613  -0.56529125  -6.61560296  -0.73538297
7614  -1.33880642   5.53400509   3.84766106
7615  -0.34944209  -0.44988943  -4.71692779
7616   1.85788958  -0.58764108  -4.69289983
7617   0.95970683  -0.10020538   0.59887734
7618  -4.59571903   5.19105369  -0.67591689
7619   3.73152262   2.27690621  -1.34366922
7620  -0.90500969   1.53521543  -8.09389863
7621   5.59968439  -5.71363599   6.77970648
7622   0.58992977   4.09964207  -0.30676101
7623   0.25924546   6.11063018   1.28362102
7624  -3.96335826  -1.39843481   1.91070755
7625   3.64952187  -2.80209924   7.50793247
7626  -4.28291133  -5.41606467   0.36306694
7627   4.35374514  -2.72357948   7.85565838
7628   4.54259289   1.55736967  -2.30874233
7629  -3.87394056  -0.03905357  -5.17919168
7630   0.84381150   5.89955183   6.14410508
7631   9.51071072   0.17329762  -2.57619750
7632  -1.71095801   5.06649516   1.51280179
7633  -4.52136460  -1.46797276  -3.28689867
7634  -0.69009821  10.10577585  -0.76142214
7635  -3.61999986   1.94981700  -3.84440395
7636   4.08102342  -2.39868871  -1.71063028
7637   2.40896902   1.34774951   1.96761505
7638  -3.69320886  -3.71649067  -3.82886895
7639  -3.60410249   3.70516750  -4.39762692
7640  -5.37897839   6.71759631   6.68810999
7641   2.24430144   4.81275808  -6.91533211
7642  -1.49797498  -1.95010523  -7.85656201
7643   3.56606599  -0.04203165  -1.41225688
7644   5.59079098  -3.06579307  -6.26758927
7645  -5.99606926   4.42320445   3.05271931
7646  -2.70208264   7.47837822  -7.37019382
7647  -5.90200461   2.13461289  -4.00647400
7648   1.96067461  -2.79873222  -3.65870964
7649   5.25837398  -4.70855460   3.98256960
7650  -5.93757728  -1.93609296  -4.22941108
7651  -0.76761983  -4.09224024   4.01993679
7652  -2.91340329  -3.00012691  -0.78585947
7653   0.13936543   0.45659329   3.18545970
7654   7.90326116   3.64115999  -3.61233493
7655   1.15734217  -1.36665229  -9.20776264
7656   1.42487101  10.38659577   1.99827631
7657   3.43731684  -0.66219932  -5.49708745
7658   0.50859368  -1.08904846  -3.03775401
7659  -2.76365141   0.44285618   6.40470031
7660   0.21282408  -2.29490666  -0.46381448
7661  -4.33611289   1.08928243  -1.69510722
7662  -1.13117214   4.15275235   1.32475548
7663  -0.13919922   5.06440370   8.53012604
7664  -0.61589959   0.70090063   5.30659289
7665  -8.40451383   2.33802866   3.36859711
7666   3.58982759  -5.37044808   3.30312726
7667  -1.84391983   3.28521381   1.95511737
7668  -0.06653930  -5.04887216  -0.20394714
7669  -3.10336545  -2.82869264   6.59659156
7670  -1.28326501   0.72676714   5.15183615
7671  -2.40551676   1.08012157   4.39473699
7672   6.74838995  -3.07165696   3.58534922
7673   6.53164050   1.61792165  -1.67130924
7674   6.73143382   4.04467891  -3.70396910
7675   2.48053914  -1.92397100  -1.82445369
7676   3.64925585   3.07500627   5.37480317
7677  -4.64260096  -5.28294821   0.04906974
7678   6.34992781   0.69552634  -4.55455873
7679  -1.21973262   5.01954427  -3.46938686
7680  -2.64767378   4.68640630   2.89923112
7681   2.39892691   1.68864763   0.72982949
7682  -4.65002565   1.83711789   1.54001986
7683  -4.23946260   4.74546558  -1.13810325
7684   5.91216552  -2.09576749  -0.47449813
7685   1.94845168   9.47335704  -2.14799069
7686   5.05950941   1.95199478  -2.08295738
7687   4.08055654   0.56192939  -4.43607697
7688  -0.41589000   0.38113878   6.35346694
7689  -3.79627238  -0.00768315   6.97750327
7690   4.33079961   3.61599996   0.90068511
7691  -4.05990876  -4.68699307  -2.63433661
7692   0.34682129  -1.39335045  -0.09743479
7693   2.67522536  -0.45619303  -1.40656723
7694  -1.37943576   4.85218128   2.59448451
7695  -1.24251102  -0.30104639  -6.19468593
7696  -3.16911402   3.14789806  -1.40647927
7697   0.25522543   3.06375806   1.62911610
7698  -2.35148716  -0.65008786  -2.13155967
7699   5.55429854   2.54669699  -4.56835079
7700  -4.75131755   2.55315535   2.74703329
7701   2.80355689  -8.64386207  11.07748817
7702   2.00516920   1.58211201   4.01099161
7703  -4.50487968  -8.29308835  -0.74839254
7704   5.61791630  -1.66552960  -1.37864491
7705  -7.01411154   3.77328646  -0.52128803
7706  -1.03450362  -3.58920063   2.52996312
7707   0.18360118  -1.33068352  -5.78861164
7708   1.77073091   1.12109614  -1.05916351
7709   0.76210359  -2.26517676   1.62754385
7710   5.02174961   4.32719336  -1.46416848
7711  -5.51664975   0.85163820  -0.27357226
7712   0.08942603   1.65153048   0.32856105
7713  -1.46301300   4.27928781  -0.62629967
7714  -5.26490851  -0.90646102  -2.29477136
7715  -0.92526556  -7.29345670  -5.67966683
7716  -5.91649525   1.75364021  -4.46944187
7717   3.42077391   8.74573544  -0.86338416
7718   0.08494862   2.47707682   5.15822991
7719   1.82895708   2.05319452   4.13795490
7720   0.11088808   5.22863321   1.25608212
7721   2.82556098   4.70296852   1.76122445
7722   0.65508509   0.65857607   3.50354878
7723   2.93025278  -3.14544721  -0.52415852
7724   4.51309340   7.08137429  -5.31841513
7725   0.74705741   2.52977860  -4.77904562
7726   8.51751887  -0.58570231  -3.05790168
7727  -5.35642143  -3.44533064   0.58591282
7728  -6.74078738   6.82805803   1.40664839
7729  -0.68897452  -4.18854033   1.81491756
7730  -3.76704931   7.04305262   4.64773891
7731  -1.22132091  -2.60716970   2.13654724
7732  -0.48518110   2.32996204  -0.20614224
7733  -0.34957972  -3.33607931  -2.42711678
7734  -3.34165623   3.32813978  -0.20066724
7735  -0.01959556   0.98289958  -1.05514687
7736   2.99940207   2.99815394  -2.10027171
7737  -2.27654676   0.69876069  -1.88281406
7738  -7.31400565  -8.26892967  -2.63405973
7739  -5.83452250   2.89952830   5.62850499
7740  -1.28654784   1.64554347   4.89216457
7741  -0.18439839   6.28836677   2.66159381
7742   4.13065524   1.29944226  -8.90936274
7743  -4.46837494  -2.41726327  -6.34560998
7744  -2.52091162  -2.41548463   2.44754689
7745   4.85739500  -4.07090263   0.86959576
7746  -0.74369696  -5.83220720 -10.48100504
7747   1.03258586  -2.52743025  -1.50117728
7748  -6.45953241  -3.18125746  11.10058820
7749  -3.35732576  -4.91432806  11.25465498
7750   2.11721651  -1.71013966   1.36318427
7751   3.92768153  -2.25890949   2.21942516
7752  -4.04184560   1.94238199  -3.14302736
7753   7.90098734   3.84788842  -4.75912978
7754   1.92977923  -4.59959185  -1.46732495
7755  -2.76684708  -4.21131618   0.36609560
7756  -4.65358501   3.30472182  -0.29241805
7757  -0.57801208  -1.65961282  -0.51423706
7758   4.57509562  -2.05180606  -0.02329473
7759   6.28979033   1.95276051  -2.76972908
7760  -1.38546965  -0.79793387  -4.52449915
7761  -5.54767847  -4.68579200  -5.53004826
7762   3.94509612  -1.47701887   4.71467735
7763   0.31375004  -0.66970586  -4.28651341
7764  -4.08248402  -1.13490620  -8.28082195
7765   0.17137664  -3.28489808  -0.64607538
7766  -5.24687103   0.03904808  -6.07093126
7767  -2.47730553   0.28227948  -2.04054531
7768   4.49287078   8.13644132  -2.71346271
7769   1.06521566   0.55078099   0.24831934
7770   6.02142526  -4.01442367  -1.17639556
7771  -2.69006830   0.09683177   3.16154510
7772   4.71767125  -0.71187880  -4.80654763
7773  -0.76134643  -2.03953395  -4.17179085
7774  -5.32995499  -5.84754407   0.57805364
7775  -3.36368821   1.47786789   0.94439196
7776   0.85630763   0.29608514  -6.27062035
7777   2.81534339   2.47994593  -0.04143868
7778   2.24391364   5.60265385  -1.65434625
7779  -3.75386819   3.11008461  -3.05683822
7780  -0.07846016   1.24737604   0.43591245
7781  -6.00889082  -2.49117793   0.85339343
7782  -5.82530387  -2.47826085   7.54791964
7783   1.91936486   3.14256896   4.09350560
7784  -3.88177787   4.07647172  -1.89078676
7785   0.44025223   4.67201026   0.29744749
7786  -1.35777978   4.27215129   4.40625852
7787  -1.99129785   1.37701659  -4.28801811
7788  -5.47097140  -3.96718107   1.48880195
7789   3.49220879  -2.52899939  -0.25626011
7790   3.42951580  -3.70812267  -6.97727814
7791  -5.08613986   3.70294382  -2.00996454
7792   5.28826440   3.10389096  -0.79926518
7793  -3.33826456   4.38103139   0.76087878
7794   2.91448999  -4.63195858  -1.34386753
7795   0.95300356   1.39523299   8.03655772
7796   6.77586533   2.57816422   1.16029090
7797  -1.95569435   4.40880089  -1.92474872
7798   3.13333732  -1.85852041   9.00866184
7799  -0.43284137  -1.32035079   3.31460686
7800  -3.44900653  -4.32374744   3.57584463
7801  -5.44244870  -4.10411951   1.35010528
7802  -9.39218158  -2.85983123  -1.69098482
7803   1.85119010   1.24357066   1.61267073
7804   1.61903663  -3.59154661  -4.13517920
7805  -1.60496471   5.33179452   1.48578874
7806  -5.31318156   3.80539466  -3.64310089
7807   1.99865376   2.99917487  -2.52579123
7808   5.40386555   0.40257996  -5.07764309
7809  -2.73644138  -2.80639894  -1.68097092
7810   2.76758735  -0.65029993  -9.87849644
7811  -2.27357840  -0.40464322  -6.78711989
7812   2.40250860  -3.77429446  -2.47587834
7813  -1.73650619  -1.51091128  -5.55357072
7814  -0.83346523  -9.66353683   1.04980742
7815  -5.33436089  -0.24479105   0.49857811
7816  -5.86968679   3.64632233   7.99982999
7817   2.13062631  -1.47251100  -0.66556873
7818   7.14390305   3.18206940   4.59773595
7819  -1.26561723   3.87920729  -0.86545057
7820   0.66729517   1.25788412  -3.97392842
7821  -0.33078736   3.89590384  -0.87098677
7822   6.18665860   4.87287870  -2.01241022
7823  -0.44435545  -1.61067493  10.79704280
7824   3.61891410  -7.77369264  -2.85862406
7825   2.63164622   1.14553715  -0.52854968
7826   0.18944856  -3.79125279  -1.12048311
7827   1.13987229  -2.94595162  -4.17815889
7828  -6.27148469  -7.40667893  -1.97941028
7829  -1.58011130   1.80559085   1.91508746
7830  -3.59734025   1.77599026   4.90936034
7831  -3.57491382   4.57687627  -8.13401956
7832   4.00585950   5.73062229  -2.65374833
7833  -3.29934819  -5.25138391   4.46456424
7834  -9.48249156  -8.78965675  -5.67926497
7835  10.55478748   0.69620701   4.12091199
7836  -4.86883196  -5.79176412  -6.72515134
7837  -1.23773545   3.38460729   3.91908606
7838  -4.08130962  -0.85662933  -2.62165437
7839  -0.20246693   2.28623767   1.32043546
7840  -1.07590862  -0.83099055   2.70005897
7841   2.48039320  -2.05095349  -3.91705265
7842   5.41230976   5.97014155   2.50308224
7843  -4.04278000  -0.63610758  -0.77348955
7844   2.84936155   7.05335775   1.02344796
7845  -6.71973546   8.28039824   0.15069097
7846  -2.75469567  -1.22068544  -9.95828935
7847   8.27009647  -6.54057716  -5.80090152
7848  -3.85324507   5.97299203   5.93372306
7849   4.43815106  -5.17188102   5.27658974
7850   0.88174764  -7.59875696  -2.27855984
7851  -0.37790538  -2.20919716  -2.28561955
7852   3.33734233  -3.67873881  -1.41920680
7853  -0.67652689  -3.10173532  -6.77696112
7854  -4.48153567  -0.41160551  -5.81630734
7855  -0.32440872  -2.61912965   1.98555212
7856  -5.84972987  -1.93775486  -0.85684233
7857   7.30674704   5.42721063  -2.96782097
7858   3.71584780  -2.40898559   0.72463211
7859   5.64930485  -9.80829179   3.19319024
7860  -7.02166142  -1.18128612  -1.42803373
7861   1.99725942  -2.47209179   3.37012513
7862  -3.30077425  -3.42248625  -4.39523989
7863   2.42182886  -1.67937443   3.66125743
7864  -1.74081766   3.26302447  -2.23233456
7865  -3.99486168   4.28204799  -1.46971009
7866   2.92659154  -3.64899176   0.47300523
7867   1.04361472  -3.95832285   0.05220404
7868   4.03719370   2.70056802  -4.82747404
7869  -5.11344198   3.89438019  -5.59070200
7870  -1.98440210   1.32640780  -5.88879248
7871  -2.22746243  -1.96054411 -10.69416204
7872  -2.78817803   2.41697318   2.05995469
7873  -2.09540627  -2.21843774   1.02144172
7874  -0.82713451   1.10488759   1.61734091
7875   4.27403396   0.10462805   2.66446459
7876  -4.89694530   0.60777021   4.11729422
7877   3.73898127  -9.80348887  -2.38922555
7878  -6.06850013   1.77588753  -6.48262515
7879  -3.33680036  -6.47458718  -0.34872450
7880   4.55478112  -2.01101150  -6.87211159
7881   1.11200865   0.27991111   3.09945169
7882  -7.23953458   3.22634947   4.49101410
7883   7.19041084   2.46008209  -4.88268297
7884  -0.72301282  -2.83594349   0.07204734
7885   7.10179723  -2.42475571  -2.57789146
7886  -6.46747859   0.56713922   5.74948467
7887   0.11378933   1.47572826   1.84445046
7888   2.89156845   1.49353114  -0.16255001
7889   2.42596915   2.97182398  -4.33999109
7890  -0.82982186  -1.34016318  -1.51364318
7891   5.90299540  -1.71461838   3.94682109
7892   2.04109558   3.18542218   5.78293797
7893   2.83843414   5.63196061   5.61756466
7894   0.35844515  -5.16441371   3.04339829
7895   2.80002910   2.20040462  -0.89218040
7896  -1.27155932  -0.99018771  -6.32883182
7897  -1.74234657   0.42618738 -11.86660028
7898  -3.01421412   0.46723989   2.04547418
7899 -10.05467331  10.12734147   1.71781192
7900  -1.24681971   1.65684466   1.94123158
7901  -6.40953072  -4.05818471  -4.72703550
7902   1.45967452   0.21818966  -1.47025110
7903  -0.69303504  -1.94399192   0.04041229
7904   1.01164344  -2.26831102   4.71884827
7905  -0.15462033   6.30203188   3.05865334
7906  -4.14475639  -1.42879418   2.82635350
7907  -4.27754941   1.50539682   1.65979855
7908   1.29584029   4.38590267  -0.50612217
7909   4.36761227  -0.18822663   4.89673509
7910   7.72431316  -3.41670823  -0.46226430
7911   1.37198754   0.01490296   1.74520616
7912  -0.57710013   1.02152544  12.64333797
7913  -0.24557281   8.02341988  -1.07988479
7914  -0.28469247  -3.46281660  -1.80067853
7915   2.06248767  -0.95339126   2.24748095
7916  -3.06826810  -1.67000324  -3.63314188
7917   2.83856649   5.90441666   0.22172655
7918  -1.36386399   7.11694417  -3.35610675
7919   4.37100656  -6.60206665  -7.79971398
7920   4.28109766  -6.43692485   1.09380992
7921  -4.36625354  -0.70488501  -2.10539849
7922  -7.76789017  -1.67734110   8.03814946
7923   3.93036856  12.05191349  -6.67604844
7924  -8.01934788   3.75479620  -0.42850341
7925  -3.34154301   3.11339333  -0.86339300
7926   1.84998556  -4.19558901   4.52642448
7927  -5.94450099   0.28497556  -5.85802638
7928   2.74969586   3.51057465   8.19623776
7929   4.22853112  -1.16571193   3.39694956
7930   3.27165528   2.05576248  -4.57103626
7931   2.08561843  -1.27798242  -1.64380057
7932  -4.01345431  -1.01237751  -2.76057468
7933  -4.94871772  -2.63133985   3.90980564
7934   5.38963731   2.84345950  -3.00669137
7935  -0.20710792  -1.94858743   0.92044628
7936   1.46360130  -1.58087240   1.63604931
7937  -3.42466021  -6.78541714   2.80745845
7938  -8.19485166  -3.10591326   3.45003817
7939  -5.89893784  -3.12431894   4.57308854
7940  -3.31735426  -1.47808826  -2.29265716
7941  -2.23686668   2.63140177  -4.33015635
7942  -6.26674180   1.83297723   1.03478190
7943  -2.54413989   2.11018969   5.98754883
7944   5.30872917  -2.25067764   4.02063717
7945   2.28044277  -0.86672944  -3.32217259
7946   8.12933319  -2.22662215  -0.72349297
7947   1.89675853  -4.03439902  -2.21359455
7948   6.70248817  -1.79588846   5.47259739
7949   4.20563307  -3.16018949 -11.91534792
7950  -1.65040189  -1.38155224   0.56951440
7951  -5.62685825   3.05125193   1.57636865
7952   6.44213657  -4.59847087  -4.19421515
7953  -1.25553655   1.46637384   3.64024182
7954  -2.21759784  -3.62296306  -6.73538888
7955  -2.26619074  -4.85447313  -1.59236192
7956   2.63401568  -2.72941110  -0.69774161
7957  -0.80910679  -2.82959402  -2.10703365
7958   6.28373452  -3.54069002   8.41710851
7959   2.32376854  -0.29091437  -4.35158253
7960  -1.13999181   3.62117951  -0.51300365
7961   0.29244508   2.19486670  -2.10141431
7962   4.13851315   1.81396321   2.02846194
7963   1.79386234  -0.28379630  -4.43956909
7964  -1.16566077  -0.53169207  -1.00965590
7965   5.84382690  -4.07378160   1.51308787
7966   7.36382582  -3.10241409   2.64141753
7967   5.55405573   1.01404378  -2.40176025
7968   1.44232894  -3.55271290   2.17208961
7969  -5.72867083  -5.64574761  -0.09780986
7970  -4.31015343   3.18332491  -1.09599311
7971  -1.21083719   1.72050356  -0.00579881
7972   4.91529078   3.84907656  -2.78524431
7973  -7.73769069   1.56662309  -0.84833119
7974  -5.52029867  -5.48119897   3.19968655
7975  -2.95208337  -5.58209159   1.45440880
7976   1.69651386  -1.13350622  -2.02427114
7977  -6.68287366   1.26116058   3.72100800
7978  -0.26231292   0.60987620  -2.19847523
7979   0.06044495   2.77825713  -0.13071214
7980  -0.09531229   5.14167420  -8.21510690
7981  -0.72741345  -5.37303561   3.62530445
7982  -1.50035841  -3.94943109   2.95858837
7983  -2.77696035  -1.55818162   1.32078993
7984  -1.78167020  -1.66370838   9.14126431
7985   0.26453385  -0.58897352   0.18224739
7986  -0.52408195  -0.94821786  -0.44366243
7987  -0.33006663  -3.50488084  -2.58659709
7988   1.00699145   1.64911828   2.67413251
7989  -5.98359133  -5.30643578  -2.33767956
7990   2.49332856   5.16663022  -5.85683579
7991   0.20107505  -4.55789286  -0.88357388
7992  -1.06200177   1.23924285  -2.24521807
7993  -1.05922219  -2.09543911   3.17815110
7994  -6.37075666   4.75444326  -1.89766353
7995   2.98493383   4.05104516  -1.07831093
7996  -2.22990129  -1.60425309   0.30037116
7997   4.63088721  -2.04023662  -1.85253022
7998  -1.01654958  -4.84591049   0.85491433
7999  -0.32047891  -2.19621321   2.26903267
8000  -8.12541283  -5.95800854  -2.87658677
8001   0.50670559   3.47264159   2.81949975
8002  -3.87175728  -4.23036362  -0.10361914
8003  -3.30688853  -0.95199955   0.86827823
8004  -0.43623066  -0.07949460   4.86647649
8005   6.95086937  -2.98808213   7.38955292
8006  -7.28566208   5.47828510  -2.33979961
8007  -0.14914725  -1.18650027  -0.73904331
8008   1.91711735   0.79393629  -3.24639539
8009   7.28066427   1.27179128  -1.33143900
8010   1.14854272   8.87301896  -2.57693345
8011   2.73610424  -2.48479318   3.29397773
8012  -3.06213578   5.05267955  -3.23097766
8013  -3.37735262  -2.71102071   3.93364475
8014   4.60806544   6.93591777   2.81197485
8015  -1.45094191  -4.54928664   4.75432797
8016  -1.18138643   3.68803518  -1.51888194
8017   9.69889030  -0.61547934   4.50368755
8018  -0.79436454   0.22443668  -7.17566564
8019  -4.96839415  -2.42340010  13.32923348
8020  -2.25721492  -0.41009550   1.62291783
8021  -3.01620565  -2.81414134   0.97895190
8022  -1.05494637   0.63556541   3.85112850
8023   1.52484792  -9.85437613   0.52302438
8024  -2.78080877   6.17399120  -1.91144789
8025   0.61966052  -0.28666310   1.80992967
8026   0.41604127   0.29710121   9.15742027
8027  -8.43109941   3.76892764  -1.19532178
8028  -4.93344865  -5.85955467   2.59120795
8029  -5.65419056  -1.29546290   0.71013384
8030  -8.45013748  12.16719527   7.40164139
8031   2.26726213  -1.42501717  -4.51599863
8032  -1.68261541  -0.72398016  -0.72988212
8033  -7.79114019  -5.43193945   0.81459232
8034  -2.12351625  -8.01609828   1.02365446
8035   4.80471849   2.80565222  -5.64648771
8036   8.07518650  -1.57981080   3.04592613
8037  -7.69289621  -5.21879383  -0.54256484
8038  -0.93368759  -6.99139480  -3.11035676
8039  -3.17714926   4.98492030   6.18695198
8040  -0.41531460   8.81891937   4.05869476
8041 -10.27038932   0.66806565  -2.02337305
8042  -1.13320799  -0.92451674   3.04612633
8043   0.57200159  -1.08664824  -3.32907018
8044  -9.18869144  -1.92706010   3.01160667
8045   3.80512708  -0.92833782   3.59354889
8046  -1.34561762  -0.23098180  -1.71521922
8047   5.13022275  -0.39124054  -1.91831426
8048   3.40037806   0.09153745   4.63845733
8049   4.75972082  -0.71135433   2.28914612
8050   1.63061459   4.71996166  -0.38830460
8051  -1.63274908  -5.29403350   6.72797036
8052   4.71804893   2.08969702  -4.76545984
8053   7.07336500   2.06898494  -0.76662994
8054   3.92438822  -3.87641907  -2.27327645
8055   3.69749551  -5.88817220  -1.59134405
8056  -4.79404220   1.24957717  -3.62828906
8057   0.11479776  -0.42735639   2.39182475
8058  10.87706405   4.29154015   3.44195659
8059  -2.62294841   1.01900909  -4.87817473
8060  -1.82517812  -0.09258816   3.58703053
8061   5.23831063   0.45806974  -1.94882325
8062  -3.74216574  -7.51009438  -5.01867234
8063   1.41957808   3.44982208   6.51043267
8064   3.81139082   0.95246957   1.96254287
8065  -3.08513225  -7.37757992   5.64993846
8066  -1.67561596   5.03430939   1.41580743
8067   0.03918835  -1.28284345   0.90385381
8068   0.46924644  -1.61596989   2.54106488
8069   1.88669646  -3.28180395  -4.94136155
8070   0.69298110   3.23845729   1.21995169
8071  -0.50090379   1.27092061   5.39022366
8072   0.34248699   3.25415388  -6.21514635
8073   4.04508453   1.65427067  -0.19022495
8074   4.55999691   5.00985965  -4.88959769
8075   0.57528315   0.40312480   8.96379891
8076  -2.84566901  -3.34487199   2.85903093
8077   4.54334622  -4.18857219  -8.93711262
8078  -2.22557944  -1.26753411   7.04578163
8079   0.91763473  -1.09958737  -8.43784868
8080  -4.49457520  -0.81134413  -0.00448626
8081   2.94454480  -0.50556228   1.31673302
8082  -3.37539768  -1.93796628   1.83328521
8083  -6.43025541  -0.93343660   1.11202715
8084   0.69972983   2.03484070  -3.43925212
8085   6.59768345  -5.43909865  -1.45366318
8086   2.79825237  -5.42439800  -4.37662752
8087  -2.98749082  -0.45108753  -2.15267888
8088  -2.32869265  -8.03180219   4.18447590
8089   3.24996472  -3.11041923   8.27990714
8090   7.31062328  -6.14457765   0.60182575
8091  -2.60142065   6.86007342  -0.94950682
8092  -0.19869317   2.60783212  -3.49027978
8093   2.00381296   5.17961259   5.61782163
8094  -4.48613645   1.45978316  -1.29970335
8095  -1.07528561  -2.73291691  -6.55092575
8096 -10.35426479  -2.96259895  -2.14341600
8097   4.96486137  -2.47376047   0.12567518
8098   3.24998372  -0.25728682   4.93590090
8099   3.03721460   0.99739405  -5.71189526
8100   2.18663368  -7.14469916  -7.47750207
8101   4.26352842   0.28518191  -0.17366022
8102   0.19528311  -2.16692123  -4.19616425
8103   1.45576798  -0.45390347  -2.91882514
8104   2.18658073  -1.52829495  -1.79415251
8105   6.77218706   4.87785327  -5.68778605
8106   2.87765954  -3.17375784  -3.36076455
8107   4.84710511   1.00531090  -2.90588790
8108   0.39828795  -5.43547091  -2.41239262
8109   0.82076815  -0.72863553   1.97977174
8110   2.25133463   9.66730540  -4.36479186
8111   2.53760807   0.29712869   0.20265803
8112  -2.01950691   2.42770483   7.72118858
8113  -2.36377729   1.90348099   0.76499292
8114   3.95587329   0.50343874  -4.63426151
8115  -1.69599823   0.27038951   3.25153874
8116  -1.01549513   2.53251288   2.29013245
8117   0.24437581   0.64782854  -5.61255119
8118  -2.23682899   0.47270480   2.83420152
8119  -1.25415103  -0.64930794   1.60899940
8120  -0.08761232   3.67188701  -6.01052349
8121  -1.91525584   5.56824069   1.72954284
8122  -1.30699441   2.80374509   6.59898069
8123   3.09112205   0.13127243  -2.00861520
8124   5.68414219  -2.29060147   8.62630347
8125  -1.47603526  -0.83229692   0.15689279
8126  -0.49503593  -2.09738643  -0.28959151
8127  -3.87816352  -0.89898725  -1.21601268
8128  -0.47103321   6.22991729  -3.89727857
8129  -0.92709715  -6.21630049  -3.35164329
8130   3.32376380   4.20181292   5.93991311
8131  -1.30967698   2.84406422   8.13034496
8132   1.45940644   1.94279591  -5.13018347
8133   0.46831796   3.14161669  -2.94730166
8134  -8.02822174   1.75396307  -1.40239967
8135   4.40651449  -1.58140102   0.52562718
8136   3.31836465  10.81276788   4.41592386
8137   4.19098011  -4.41803935  -3.67763375
8138  -8.62843348  -2.54515794  -2.86698926
8139   0.43316701   1.78044767   5.27424193
8140  -4.65775253   0.44910128  -4.06485452
8141   5.79562543  -1.59924535  -1.54587889
8142  -0.34996921  -8.45884488  -4.01407331
8143   5.22478560   1.15498683  -6.92108551
8144   3.27445887  -5.26299225  -1.46989068
8145  -1.19070299  -2.66980184  -5.30221720
8146   1.88782553   0.88741920   5.56339271
8147   1.12430506  -3.46710840   3.34683854
8148   0.59307741  -0.93579460   5.82484278
8149   0.53007253   0.44201085  -2.19396627
8150   9.61795412   1.24460932   4.28340561
8151  -4.26960633   2.58466397   4.54569430
8152   6.35752913  -2.84125094  -1.09472564
8153  -1.69123674  -5.75255256  -5.19355247
8154  -5.25750930   8.74378846   1.11251214
8155   0.78112474   1.48358406  -3.96455468
8156  -1.11317617  -0.23493244  -1.03591644
8157   2.86088281   2.20721282  -3.28175225
8158   3.33264137  -2.67158895  -2.81961572
8159  -7.79451467   3.27149833  -3.46243447
8160  -1.46576138  -1.02247717   4.53139301
8161  -4.78574240   4.40065147   3.78647709
8162   7.64032986  -1.64372184  -4.44856760
8163   0.95198128   1.33488779   1.40916240
8164  -3.90049182  -4.71966625  -4.17644582
8165   4.07467137   1.66163794  -4.07644021
8166  -0.93172864  -1.42026068   3.94891379
8167  -0.92511551   3.42704499   3.77410402
8168  -3.55266034   4.07862570  -1.90257693
8169   4.26797641  -2.33344154   4.00134657
8170   7.58309777   1.09131442   0.50140125
8171  -0.76615497   3.86531898   4.29771721
8172   3.24787929  -9.13262124  -1.12370260
8173   1.88965509  -7.65500102   0.51232319
8174   2.02948298   2.86057626   1.27263402
8175   0.85623924   1.56908727   1.70387950
8176   3.73883759  -2.15498065  -5.56224044
8177  -5.63875492  -2.86957375   1.03903683
8178   6.65127453  -0.32266159   1.04959122
8179  -8.53608898  -4.42044079  -4.97061417
8180  -3.44422620  -0.76961410  -2.26891634
8181  -3.05107566  -2.21541724   1.87397924
8182  -7.66198297  -1.36381778  -7.90084949
8183   8.90236689   0.34745156   1.16303296
8184  -0.53403891  -8.89190877   2.00843361
8185   3.20628670   2.81911458  -1.97507451
8186   0.59153603   1.08339280   6.35805893
8187   1.07935338   5.80279923   2.43683925
8188  -1.15885807   6.23228153   1.67802671
8189  -3.89137763  -7.10921069   1.43424499
8190  -0.17987757   2.06075654   2.34456243
8191  -1.10682255  -4.53168623   3.56974051
8192  -4.49639952   2.29823438   2.41647479
8193   0.88840280   0.38494090  -4.50627622
8194   0.64637225  -5.04958628   0.60193614
8195   7.49724931   1.34294244   1.72562479
8196   0.08330440  -4.33852524  -6.36078208
8197  -2.97674032  -1.92875216   0.71689045
8198   5.44654487  -4.54578238  -5.63716413
8199  -4.39418180   3.51324557   0.25045605
8200  -3.49839705  -2.44939809   2.15191938
8201   2.63620593  -4.46913729  -0.84080801
8202  -0.41127322   3.56835531  -0.06693138
8203  -4.42416747  -4.30682542  -6.60079303
8204  -2.22130934   1.84999511  -1.43496455
8205  -0.78828242   3.07811175  -7.15713161
8206  -4.09626264  -4.37461177  -3.88690718
8207  -3.99823788  -3.95773279   6.77224422
8208  -5.70761646  -3.86525066  -1.06357520
8209   2.77275978   0.01191313  -2.84902690
8210   2.81825710   0.34989542   3.72879369
8211   2.12745719  -3.49965093   0.74701368
8212   2.38042518   1.98406894   4.60323384
8213  -3.47968158  -2.67402085   4.65110855
8214  -5.31157230   0.77213018  -0.30535569
8215   4.45644698  -3.07775833   2.16465735
8216  -2.01926877  -1.50381968   2.96864297
8217  -2.53438120   2.06804738   5.81455178
8218  -0.43703052  -0.72734522   1.85425039
8219   0.01656334   3.49048999 -10.59324271
8220   2.43324662  -3.02389740  -1.96575467
8221   1.27955700   0.70136333   1.23019618
8222   5.88414785  -0.96316471   2.74897807
8223   3.39176523   1.48717367  -2.52793873
8224   2.41625149   2.13942689  -3.56042623
8225  -2.63026385  -8.36681802  -1.07023663
8226   2.63934095   6.92692149  -1.91446722
8227   1.85710198  -1.12011309  -0.81706770
8228   2.39148036  -4.30903289  -1.58151666
8229   1.50307374   2.30139299   1.27422794
8230   0.61353267  -0.81102016   2.46361511
8231   6.34312274  -1.04331097  -4.54924514
8232  -1.71297932   6.80222398   6.05933936
8233  -6.84447913   1.62240490  -5.81583281
8234   6.07766740   1.27559713  -4.31702901
8235   2.75739583   1.17310139   3.89852595
8236  -2.54593273   1.98712916  -0.50295630
8237  -1.15620053  -5.23232764   1.87468795
8238   1.12397984   1.40996151  -0.76854344
8239  -2.23341257  -2.70255907   6.46882974
8240   1.99508023   1.98287672  -5.78326041
8241  -1.55531132   1.21319701  -3.66264611
8242   3.49156263   1.57463196   1.07022340
8243   4.08653909  -0.89768155  -2.49661626
8244  -7.20809392   5.54955579   5.05991454
8245   1.06675215  -3.17897678   1.98934736
8246   8.14976789  -5.40029591   3.13081279
8247  -3.80910579  -2.26298621  -3.60275994
8248   2.92941600   7.74542403  -6.29852165
8249  -1.17828640   1.00691283   1.02632236
8250   0.01020893   3.79657936   5.50602038
8251   7.65643846  -1.39285512  -4.78363353
8252   4.25829061  -0.24742146  -5.81617968
8253  -3.44650428  -0.18228931  -3.17318109
8254   1.29352842  -3.28474461  -0.14887852
8255  10.80250147   6.79098316  -1.42095794
8256  -0.71494961  -1.12512387  -5.46083575
8257   0.34106807   6.07923197   8.48847715
8258  -2.79251187   0.99240719  -0.54460157
8259   1.54363860  -1.99871497  -1.89692170
8260  -1.27392210   3.92237157  -0.48745403
8261   3.35630300  -0.54569242   6.00066090
8262  -1.07170647   3.62770924   3.02442949
8263  -1.56256992  -5.96835686   2.08668995
8264   1.93033706  -2.11877421  -0.78568531
8265   2.86280504  -6.60458884  -2.24021260
8266  -4.69683888  -1.80908774   0.08596596
8267   8.06428540   2.50660899  -1.27119153
8268  -2.17387085  -5.28949553  -6.74414763
8269   3.51626939  -9.54751382  -0.90413094
8270  -6.83416202  -2.74588056   1.67283739
8271   2.74489335  -1.81164050   4.52597470
8272  -1.69251093  -0.52664118  -3.73196362
8273   1.01373688   4.69215547   8.11080489
8274  -2.71944638   3.09750134   5.80565493
8275   0.24948884  -3.41783224   4.35178807
8276  -2.64008964  -0.29387500  -1.66384295
8277  -3.24629180  -0.72281550  -5.44379444
8278  -1.82853132  -1.38923811  -0.95625287
8279   1.23986047  -0.16934286  -0.94453087
8280  -0.02413019  -1.57276816  -2.70883910
8281  -1.94452088   2.53052188   4.53790143
8282   4.48437504  -3.41308681   0.17418247
8283   1.93583212   3.71905087  -0.16992059
8284   1.50976556   3.73039428   5.54198937
8285  -7.75785582   2.04110249  -4.37829450
8286   5.57036364   0.04253152   1.11730854
8287  -2.22678701  -4.41271405   6.24703966
8288   0.45628824  -1.35351985  -1.42071077
8289  -6.34698625   0.54527591   2.72371845
8290  -1.67642868  -7.06728129  -2.05805858
8291  -3.83053369  -2.62490886   8.00820249
8292  -2.57345253   1.46158815  -5.00770301
8293   1.71100089  -2.91982818   6.80710301
8294  -1.32384203  -1.90440877   7.43284615
8295  -5.58833031  -5.56057306   8.49850613
8296   1.96291899   4.28779410   2.45950339
8297   8.94608401   1.17561813   1.38357507
8298  -7.46932069   3.59957997   5.98625682
8299   2.96485029   6.89983741  -5.18650266
8300   3.69765563   1.57066876   0.47675098
8301 -11.69295662  -0.11736685   2.55562053
8302   2.18465806  -4.46277724  -1.18976390
8303   2.52771527   4.82107554   1.94130593
8304  -2.10172863  -3.02085246   6.38598071
8305   0.00895557   2.69497240   0.13649935
8306   0.54010583   1.90526077   0.38715162
8307  -0.29610539   3.99912377  -2.79125853
8308  -0.74948990  -4.88483487  -2.68441408
8309   0.70548922   1.49614859   1.27217074
8310  -1.02871891   2.69555329   2.06880925
8311  -2.26942345   2.98452946   5.98315466
8312   1.67063824  -0.31493654  -1.48463181
8313  -6.41222678  -5.37621150  -0.50481323
8314   3.44462466   8.64703300   6.42665991
8315   0.49072859   1.96992261  -0.33411789
8316   0.93382582   2.51937872   2.52997661
8317  -2.18488978  -9.17553826  -5.80480628
8318  -1.02903004   5.36245487   4.16810028
8319   4.27203119   0.94637419   1.88131162
8320  -5.48399147   0.55116205  -2.02892084
8321   1.10711441  12.09536405  -0.39155147
8322   2.07362807  -4.41075424   2.09566371
8323   3.44963123  -8.23576174   4.59531568
8324   1.69014433   0.61720358  -2.99329669
8325   4.50372510   5.09057154  -1.80433898
8326  -3.87757512   0.35152851  -2.86998709
8327   0.49980438   1.76356261  -9.21128413
8328  -4.37153047  -9.49639036  -3.46248540
8329  -2.79740432  -4.55256767 -11.78664194
8330  -1.21218352  -2.26375369  -2.56809047
8331   2.39987463  -0.54949892   8.28295755
8332   0.81326581   4.29654482   4.80909319
8333  -2.11755699  -7.92050623   2.53271116
8334   3.84621777   1.01592322  -2.65933564
8335  -3.61485903   5.11442312   2.37335160
8336  -0.32419916  -0.69116171   6.71414350
8337  -4.65249327   2.45050618   1.01266360
8338   4.21813413   3.85075809   4.65343749
8339  -3.66788419   1.70456961   6.19521576
8340   1.46323507   2.84115428  -7.14134347
8341   6.90990965  -7.63164906  -2.23413874
8342   3.79113804 -10.17617567   1.48203059
8343   2.42219165  -0.43121145  -5.32673014
8344   1.65623171  -2.17289001   3.03351360
8345  -2.93911917  -4.43601038  -1.59018611
8346   0.19991987   6.47056076   3.93974766
8347  -2.75903138  -0.88262270   3.69177736
8348  -2.56220740   0.45606392   6.59571468
8349  -0.78333088   2.22921758   1.25402475
8350  -0.15831782   3.79183878   5.65323915
8351  -0.12719325  -3.91154902   2.96090706
8352   2.63047294   1.24366938   3.11884523
8353   0.25707957  -5.93436991   3.37227078
8354  -4.67980170   1.54368734  -8.76069581
8355  -6.15264689   2.04503368  -3.51370777
8356  -5.34219423   5.75323175   3.78434212
8357   0.31391989  -2.62041383   2.71909680
8358  -0.17907172   5.05507057  -1.45759673
8359  -3.05914757  -3.73442277  -0.94018331
8360  -1.20944501   0.51146662  -0.88259545
8361   3.12270619  -2.93294222   2.15271508
8362   3.43540139  -4.71083497  -2.27190185
8363  -4.09352308  -5.78085941   6.13139381
8364  -1.52358310   9.38662139 -11.68643171
8365   1.78148145  -2.88322654   1.72803313
8366  -1.72344353  -4.55892906  -1.36124009
8367   2.84748959   6.82916591  -3.83315885
8368  -8.11891347   1.23775629   4.95588594
8369   3.29623606  -4.89250058  -3.57000971
8370   0.26586021   0.57473501   1.73043627
8371  -6.50191476   3.98697122  -1.12685852
8372  -1.37551022  -4.18903241   4.18169963
8373   6.00068977  -0.97363207   0.49376836
8374  -6.64856411  -0.10685467  -0.95966976
8375   0.95448580   8.05246496   3.19688094
8376   0.79851503   1.93355473   5.22375012
8377   6.83706505   5.57040206   2.24170161
8378  -3.55008268   2.31049356  -2.64196963
8379   0.65520240  -0.87346296  -8.84684117
8380   0.20367692   2.49335326  -1.83924709
8381  -0.10318128  -3.33245016   2.49337355
8382   7.44130298   3.03648569  -3.58601328
8383   3.41636728  -5.14263681   6.87505265
8384  -3.39015395  -1.47896445  -3.05295671
8385   2.73068473  -4.37598187   2.36164262
8386  -0.81904712   4.96399065  -3.73357225
8387   4.73295466  -6.92229629  -2.67667372
8388  -2.04143572   1.09830675   3.10177571
8389  -0.48344321   2.51236029   5.00517343
8390   3.79951648  -0.57285744  -0.46681245
8391  -2.55653927   0.04159511   1.70479230
8392   0.94690751  -1.70328090  -2.14937528
8393   1.30067348   1.72608115  -2.26590876
8394  -3.67084470   4.18631561  -0.18350121
8395   0.16468549  -3.81614133   0.78822536
8396  -3.13804091   1.22968072   2.79849172
8397   6.48778694   4.30526559  -2.14578482
8398   3.52987461   6.53576962   4.22875787
8399   4.98132996  -3.07031139   1.08686267
8400  -8.31331917   1.95252163  -1.29662491
8401   4.60888117  -0.78004598   2.48031497
8402   1.10746485   1.25357158   4.15800117
8403   6.34110592  -1.12512050   2.14329267
8404   4.35587165  -0.04731729   4.10245421
8405  -0.13266286  -2.36836080   3.66164826
8406   0.54373250  -1.43176278   1.49145840
8407  -6.14383796  12.49443512   3.79003630
8408  -3.11222385   1.15264442  -2.16141956
8409   3.22045912  -1.73246075  -0.56198994
8410  -8.90441449  -1.08065100   0.79779835
8411   0.47211030  -5.69715306   1.65671374
8412  -0.83772463  -3.23110232  -1.56512770
8413  -5.87801399   1.81789705   3.69654390
8414  -2.15288677  -2.58830955  -4.11617975
8415  -2.60923004  -1.92311735  -1.19230085
8416   1.30992321  -4.00571953  -2.47611882
8417  -3.23999648   5.00516470   6.74643895
8418  -0.35628183  -0.96169855  -4.04298091
8419  -0.84948004   3.61401920   5.86563500
8420  -0.77444377   0.99148273  -3.06631687
8421   6.23345537  -0.44079438   0.45063532
8422  -3.96065848   5.39240927  -1.18782094
8423   4.43826985   6.95515541  -0.31607403
8424  -3.88073411  -0.10708032  -3.71443189
8425   3.43506759   6.04588648   0.34748925
8426   4.54148139  -1.85669795   3.75717973
8427   2.95754012  -3.57944266  -2.14958886
8428   2.68959905  -1.62355558   2.50401339
8429   4.48870539   2.55052285   6.44635688
8430  -4.97689905   3.29493549  -0.08790698
8431   1.95587209  -1.20643292  -1.77454798
8432   3.24296859   3.87762404  -1.43244303
8433   5.52908204  -1.43582790  -2.14563371
8434   5.60747791   2.65999097   1.61978343
8435  -3.10390311  10.67099197   4.92951858
8436   1.40838183   0.29484693   1.39590352

