O2 Si
1.0
        4.9018998146         0.0000000000         0.0000000000
       -2.4509499073         4.2451697663         0.0000000000
        0.0000000000         0.0000000000         5.3987998962
    O   Si
    6    3
Direct
     0.412999988         0.271100014         0.217199996
     0.728899956         0.141899973         0.550533354
     0.858100057         0.587000012         0.883866668
     0.271100014         0.412999988         0.782800019
     0.141899973         0.728899956         0.449466676
     0.587000012         0.858100057         0.116133340
     0.467299998         0.000000000         0.333333343
     0.000000000         0.467299998         0.666666687
     0.532700002         0.532700002         0.000000000
