LAMMPS data file via write_data, version 2 Apr 2025, timestep = 2579, units = metal

11205 atoms
3 atom types

0 60.72 xlo xhi
0 61.39 ylo yhi
0 60.55 zlo zhi

Masses

1 15.999
2 1.008
3 28.085

Atoms # full

10 1 3 1.6 3.2034545812528235 0.37971064660620146 2.034435326179833 0 0 0
2 2 3 1.6 0.6286982904834799 1.5374731030673208 1.0366888973127018 0 0 0
12 3 3 1.6 3.152882763756613 0.4496932978315627 5.017156981356646 0 0 0
4 32 3 1.6 0.6744069741038158 4.3359874796825055 2.024754851442673 0 0 0
6 33 3 1.6 0.8395654923323455 4.946937282235757 5.008203492627477 0 0 0
7 3106 1 -0.8 2.148865435407353 1.0166827554267819 1.005290428286687 0 0 0
11 3107 1 -0.8 2.8167049604774594 0.8835774829953578 3.5086975593339846 0 0 0
15 3108 1 -0.8 4.712892322151069 0.8155870395077847 1.6918391176894492 0 0 0
3 3112 1 -0.8 0.4888228494658556 2.7454827552101633 2.091117956601719 0 0 0
8 3116 1 -0.8 2.2488541758084546 4.151013439410172 5.088230840726979 0 0 0
9 3197 1 -0.8 2.1767742851186775 4.652826667581259 1.530928870529957 0 0 0
17 3199 1 -0.8 4.668966691873236 5.512654934155326 1.1127395195980334 0 0 0
5 3201 1 -0.8 0.41248650757820354 5.020851552650125 3.458690190850119 0 0 0
22 4182 1 -0.8 5.308246985839425 4.109836801080147 3.1831217167122734 0 0 0
19 421 3 1.6 5.705013749183736 1.5023002697373393 0.6288705234079004 0 0 0
21 431 3 1.6 5.718643117975611 4.427985525475257 1.6614149065185764 0 0 0
23 432 3 1.6 5.660937899391 4.543192345005233 4.690755925778692 0 0 0
27 631 3 1.6 8.179605056953791 0.3778039184887714 2.0390385006556677 0 0 0
36 632 3 1.6 10.643992988083003 1.5947904193199411 0.7255691174357395 0 0 0
29 633 3 1.6 8.244911716516334 0.6221547416129583 5.004933533225396 0 0 0
38 662 3 1.6 10.61839025508763 4.514575056970826 1.7941002515839555 0 0 0
40 663 3 1.6 10.791187975396468 4.725669139221159 4.869998272886661 0 0 0
24 4157 1 -0.8 7.216969529285254 1.0331200402091691 0.9279443960475273 0 0 0
20 4158 1 -0.8 5.624630499297015 3.107862464067739 0.7488717300705452 0 0 0
26 4181 1 -0.8 7.218022481511658 5.015851323023224 1.675899494260535 0 0 0
25 4183 1 -0.8 7.2265440822857565 4.281209305488847 4.973874613974349 0 0 0
32 4576 1 -0.8 9.715973762722527 0.7141276585263159 1.700595267136478 0 0 0
28 4577 1 -0.8 7.831222383927676 0.9675324268310391 3.4902638013159106 0 0 0
37 4580 1 -0.8 10.30086963168785 3.15953287967996 0.9676660984422133 0 0 0
30 4582 1 -0.8 8.173574567005865 1.966231828644143 5.8797318004570265 0 0 0
39 4649 1 -0.8 10.312938762065585 4.341599966740601 3.3717695083024317 0 0 0
44 991 3 1.6 13.107053378847295 0.3945413271436625 2.0648242951738216 0 0 0
53 992 3 1.6 15.602479827291571 1.4903044243685906 0.7322945044235157 0 0 0
46 993 3 1.6 13.148545529925197 0.4021976504683361 5.1002981134273835 0 0 0
55 1022 3 1.6 15.577291330324135 4.306784042970083 1.8003588721148258 0 0 0
57 1023 3 1.6 15.6407508019136 4.327597636989839 4.8884499739228096 0 0 0
41 4581 1 -0.8 12.187614540587214 1.2795206696782584 1.0749449320807811 0 0 0
43 4650 1 -0.8 12.176290932498206 4.877654299944424 1.6103539205839132 0 0 0
42 4652 1 -0.8 12.2355692013927 4.050894843950448 5.125245593023814 0 0 0
49 5356 1 -0.8 14.659934245410914 0.59063739597161 1.675973151072514 0 0 0
45 5357 1 -0.8 12.864824279110076 0.8634365075275269 3.582574229255313 0 0 0
54 5360 1 -0.8 15.174210882249305 3.0355667261328887 0.9002007234338709 0 0 0
56 5429 1 -0.8 15.311144188774847 3.955203886772678 3.3532214217149185 0 0 0
61 1211 3 1.6 18.335958901979893 0.291156796098836 1.5783285332650288 0 0 0
70 1302 3 1.6 21.007617289829547 1.8237120174522587 0.9847450145878223 0 0 0
72 1332 3 1.6 20.935149161528262 4.7120229657411965 2.016388896903646 0 0 0
74 1333 3 1.6 20.780410606354298 4.339383810680361 5.001690086959816 0 0 0
58 5361 1 -0.8 17.153552111259675 1.3058535818114043 1.1553740300571504 0 0 0
60 5430 1 -0.8 17.140978207142734 4.607195095208066 1.5531289035070401 0 0 0
59 5432 1 -0.8 17.20037994501006 4.024003905053989 5.160236402801643 0 0 0
66 5846 1 -0.8 19.76404258684359 1.0521479291149098 1.6804876781254894 0 0 0
64 5849 1 -0.8 17.885924552358087 1.5116770809336562 4.72974868236634 0 0 0
68 5892 1 -0.8 19.698204910570354 5.084543968532393 1.0626815297966588 0 0 0
71 6056 1 -0.8 21.35057674691163 3.169913075697486 1.7974754057865037 0 0 0
73 6135 1 -0.8 20.43369737866552 4.895632859603389 3.5343157156232037 0 0 0
80 1303 3 1.6 23.64458190151493 0.512087777463395 4.895341283363457 0 0 0
87 1451 3 1.6 26.072691985379155 1.5677866366738398 0.8909902850510661 0 0 0
89 1461 3 1.6 26.162609991728388 4.3701442969859094 1.8705884108999171 0 0 0
91 1462 3 1.6 26.334323425232885 4.729783133758245 4.944670881352151 0 0 0
75 6051 1 -0.8 22.325764333840603 0.8840752101832879 0.9437238255621316 0 0 0
79 6052 1 -0.8 23.303823173073425 0.806447402203469 3.350833154027299 0 0 0
83 6053 1 -0.8 24.96073365459492 0.4844432955440781 1.313950721307779 0 0 0
81 6057 1 -0.8 24.11057431346356 1.887394132872178 5.594205637357878 0 0 0
76 6060 1 -0.8 22.269962046335973 3.7097505581915913 4.927190343848266 0 0 0
85 6134 1 -0.8 24.720963086363657 4.906066862672 1.3772369970505478 0 0 0
92 6402 1 -0.8 27.561971473281396 0.9439766341630998 0.8290740819196138 0 0 0
88 6403 1 -0.8 26.084901626271115 2.761804171892551 1.9624393685763144 0 0 0
94 6426 1 -0.8 27.331425168994667 4.761160127813221 0.8199458590672506 0 0 0
90 6427 1 -0.8 26.49014850702723 4.915530416844986 3.3476135782000527 0 0 0
93 6428 1 -0.8 27.325435895407228 3.5700873162700772 5.486129609905933 0 0 0
78 1301 3 1.6 23.466394868252497 0.209324901589464 1.8675436386460378 0 0 0
84 6061 1 -0.8 24.791925973032892 4.38663443590396 5.322662201157981 0 0 0
95 1516 3 1.6 28.909814518061967 0.3938467104114986 1.5434831047497464 0 0 0
104 1517 3 1.6 31.235893105057972 2.161789415978333 0.4608841246334485 0 0 0
97 1518 3 1.6 28.75285862935874 0.2507216858317532 4.695263480626719 0 0 0
106 1547 3 1.6 31.209336810386294 4.816832798600508 1.9603128439389697 0 0 0
108 1548 3 1.6 31.353775178925392 4.47812764378758 4.959320997399387 0 0 0
100 6551 1 -0.8 30.113269593804084 1.4680919248452104 1.411726730832995 0 0 0
96 6552 1 -0.8 28.59696869798231 0.033446716999955675 3.097542723314213 0 0 0
105 6555 1 -0.8 31.41382759315582 3.7045797969974545 0.8231355961480114 0 0 0
109 6556 1 -0.8 32.67521518393102 1.4642651847979278 0.6316355590272084 0 0 0
98 6557 1 -0.8 29.179575002184993 1.7821153261737162 4.927821217989227 0 0 0
102 6622 1 -0.8 29.71886437057372 5.368286486953881 1.7389443448757227 0 0 0
107 6624 1 -0.8 31.324129673267613 4.069060764805577 3.3992653405073248 0 0 0
113 6852 1 -0.8 33.09018948618641 0.5526284106936639 3.0643142556456833 0 0 0
112 1646 3 1.6 33.73948609344166 0.7635350867407967 1.6059607514391945 0 0 0
114 1647 3 1.6 33.61806577197607 0.4728534477707165 4.580287882307356 0 0 0
121 1712 3 1.6 36.55350283668983 1.9497549381422947 1.1550225283780875 0 0 0
123 1742 3 1.6 36.45021163655777 4.803919886718176 2.077488936866726 0 0 0
125 1743 3 1.6 36.61896228891921 4.737403509719575 5.140667652561031 0 0 0
117 6851 1 -0.8 35.10237401025916 1.6110961129739658 1.7822984571384828 0 0 0
115 6854 1 -0.8 34.251115240873126 1.9013409070763505 4.98365103352701 0 0 0
119 6897 1 -0.8 34.92205915779556 5.29277870851027 1.955818670280412 0 0 0
126 7007 1 -0.8 37.77571971756857 1.380088596108015 2.049700788717729 0 0 0
122 7011 1 -0.8 36.690147487532506 3.554129524897781 1.0774163606283536 0 0 0
132 7012 1 -0.8 38.7049918115257 1.7192437435904688 5.2080745471457535 0 0 0
124 7090 1 -0.8 36.72708114940204 4.288031192121615 3.592021773676707 0 0 0
129 1711 3 1.6 39.23301145585208 0.6761070065716818 2.0338872563844625 0 0 0
131 1713 3 1.6 38.87970389724378 0.14563756521538562 4.884799885072875 0 0 0
130 7008 1 -0.8 39.5436419624071 61.36168024894153 3.4394853758653197 0 -1 0
146 1856 3 1.6 43.82778752346899 0.6591839299277711 1.7969929343490285 0 0 0
138 1857 3 1.6 41.40626855134342 2.266986599015286 0.6898561417402732 0 0 0
148 1858 3 1.6 43.72079684344788 0.5335172696867941 4.846745885500636 0 0 0
140 1887 3 1.6 41.407532683080255 5.0110155199955635 1.9093434447407025 0 0 0
142 1888 3 1.6 41.444332062731995 4.526945414484734 4.911315292694764 0 0 0
134 7006 1 -0.8 40.40808167720755 1.7359838459360049 1.820337405335969 0 0 0
143 7351 1 -0.8 42.87922955267683 1.6038143776312368 0.8759654154281995 0 0 0
147 7352 1 -0.8 43.61253469006827 1.0882837698777357 3.3370705401911662 0 0 0
139 7356 1 -0.8 41.439730989291945 3.865516033221362 0.7834450571094468 0 0 0
144 7360 1 -0.8 43.00368756335831 4.145959051030129 5.11184411980864 0 0 0
141 7435 1 -0.8 41.14230270326356 4.323578484865916 3.3448051546028914 0 0 0
155 2031 3 1.6 46.484473876304634 1.9710930701379032 1.0258435098764236 0 0 0
157 2041 3 1.6 46.52090039774582 4.81711873163027 2.2060523477735012 0 0 0
159 2042 3 1.6 46.636541787100825 4.804792530411427 5.197015409398858 0 0 0
163 2146 3 1.6 48.92672508798591 0.2418894506430919 1.6106035380505368 0 0 0
165 2148 3 1.6 48.875535068022664 0.41857567726048955 4.630364958403773 0 0 0
151 7353 1 -0.8 45.39878839154971 0.8667196837878385 1.4767665216515304 0 0 0
160 7782 1 -0.8 47.972047983882895 1.3501531106248938 0.9341609339898954 0 0 0
156 7783 1 -0.8 46.49199418971376 3.203807084258105 2.0636104369501114 0 0 0
162 7806 1 -0.8 48.00340744642538 5.378027504020773 1.8751181432839825 0 0 0
158 7807 1 -0.8 46.15702875345713 5.2384037916042585 3.7181616597695775 0 0 0
161 7808 1 -0.8 48.09687116338532 4.138540300106163 5.043111497713052 0 0 0
164 8057 1 -0.8 48.40268481066527 0.0746951081811054 3.125105448557613 0 0 0
166 8062 1 -0.8 49.447003483347544 1.9165701985192964 4.812072236795347 0 0 0
153 7434 1 -0.8 45.43423252852081 5.405759736296598 1.1750048442552903 0 0 0
172 2147 3 1.6 51.56583476225864 1.6803379908999718 0.9963445620531064 0 0 0
174 2177 3 1.6 51.57570480036668 4.592932128975514 2.0041769326444974 0 0 0
176 2178 3 1.6 51.66706864272033 4.852208544450956 4.95655244900539 0 0 0
180 2476 3 1.6 54.111934875333745 0.3625108255892673 1.8301532016946487 0 0 0
182 2477 3 1.6 53.898576185681236 0.31263850003475857 4.821467172940452 0 0 0
168 8056 1 -0.8 50.45920429544452 0.7418304637040943 1.6978131056862356 0 0 0
173 8060 1 -0.8 51.84247505582394 3.0086083315168057 1.870773260330797 0 0 0
177 8061 1 -0.8 52.96693098478919 0.8978249167734961 0.8309791645896347 0 0 0
170 8127 1 -0.8 50.44949493270552 4.990153850103966 0.9261828183083743 0 0 0
175 8129 1 -0.8 51.0381243927099 4.953842719849858 3.479917745787739 0 0 0
178 8132 1 -0.8 53.05306846688086 4.0287316235843145 4.84871841086506 0 0 0
181 8852 1 -0.8 53.43656366361207 0.30360149792847946 3.284783615008681 0 0 0
183 8854 1 -0.8 54.409101723036954 1.7794897796826787 5.248830301984319 0 0 0
185 8851 1 -0.8 55.376145890761066 1.3588271661049909 1.9039849921335006 0 0 0
197 2686 3 1.6 58.7610969216244 0.23042475559811693 1.8436907662418112 0 0 0
189 2687 3 1.6 56.429145309689865 1.995962729396271 0.8723211728241254 0 0 0
199 2688 3 1.6 58.9787877649783 0.2813178017770405 4.8947404535996775 0 0 0
191 2717 3 1.6 56.45754091009067 4.957238621568787 1.9302406404416137 0 0 0
193 2718 3 1.6 56.63579614991283 4.634312352118591 4.886456766999833 0 0 0
202 3111 1 -0.8 60.323211180411256 0.38272731697882006 1.4719246845451812 0 0 0
194 9271 1 -0.8 57.86787143186505 1.2682934988587138 0.9892326950229309 0 0 0
198 9272 1 -0.8 58.52968956763536 0.6022647242643211 3.388846471795875 0 0 0
190 9275 1 -0.8 56.540214816689875 3.5884904054061773 1.0797363010565204 0 0 0
195 9278 1 -0.8 57.948927503756124 3.6958680089301925 4.830393659092237 0 0 0
196 9332 1 -0.8 57.94636335049029 5.560769813662414 2.0485483913447537 0 0 0
192 9334 1 -0.8 55.96369898870206 4.669224641575621 3.4267936752507278 0 0 0
204 3200 1 -0.8 60.30935767806951 4.937045821048765 1.0001477781247627 0 0 0
212 31 3 1.6 3.1144067277501306 5.918636442395931 1.2127925563670259 0 0 0
214 61 3 1.6 3.1108739156226792 8.602828570254587 2.460552906009895 0 0 0
208 62 3 1.6 0.8933606028248853 10.290971115265608 1.2715320818510512 0 0 0
216 63 3 1.6 3.252426241521707 9.345505879261701 5.36473872033507 0 0 0
213 3198 1 -0.8 2.9213332152860905 7.019517735944333 2.353641886048281 0 0 0
210 3271 1 -0.8 2.211375344634772 9.378321130928148 1.3749890715273205 0 0 0
215 3272 1 -0.8 2.646011180632938 9.084789623773096 3.905834084405068 0 0 0
219 3273 1 -0.8 4.660218738038367 8.983148150297847 2.2314007129254865 0 0 0
218 3278 1 -0.8 4.715394371795411 8.662075500572234 5.46499811945682 0 0 0
220 4184 1 -0.8 5.300927341275205 6.098313686054683 4.974944140252848 0 0 0
34 4647 1 -0.8 9.70513300136965 5.737601276822002 1.26418378366684 0 0 0
223 451 3 1.6 5.4490765939950085 10.045259155070134 1.3117704672220623 0 0 0
227 661 3 1.6 8.170594976162867 6.242520631929937 1.2421733973149545 0 0 0
229 691 3 1.6 8.086099131003515 9.103531216692517 2.422647712058703 0 0 0
238 692 3 1.6 10.616962207291325 10.268006570915404 1.09757629705495 0 0 0
231 693 3 1.6 8.086368385117344 9.009498883398038 5.4164755714256785 0 0 0
225 4223 1 -0.8 7.041887268580616 9.866925978002167 1.4653711747582452 0 0 0
228 4648 1 -0.8 7.963091363992773 7.500514868120815 2.227561076559718 0 0 0
233 4653 1 -0.8 9.657067907522459 8.645965624004486 5.389991324378611 0 0 0
234 4711 1 -0.8 9.607163433821682 9.547629600404095 2.1302213553226617 0 0 0
230 4712 1 -0.8 7.690201401163498 9.479530647734952 3.933450502198794 0 0 0
51 5427 1 -0.8 14.694702451992958 5.594669448998946 1.4029409192015116 0 0 0
235 4651 1 -0.8 10.884101483235849 6.3293780431551525 5.092023846916404 0 0 0
242 1021 3 1.6 13.169008340427824 6.0953753868667455 1.2535438294747587 0 0 0
244 1051 3 1.6 13.122884869339057 8.932678505195634 2.276042537991428 0 0 0
253 1052 3 1.6 15.902192278970013 10.191708106880156 1.5469370011738 0 0 0
246 1053 3 1.6 13.378821638373324 9.241845582380934 5.277483350736358 0 0 0
240 4715 1 -0.8 12.113102140100905 9.688799509369426 1.2724569247800828 0 0 0
243 5428 1 -0.8 12.860952793612624 7.339059379784264 2.22790833915683 0 0 0
250 5431 1 -0.8 15.309105069642989 5.87713149311534 5.179011477408892 0 0 0
248 5433 1 -0.8 14.765866113453622 8.418978819983547 5.253795990498871 0 0 0
249 5491 1 -0.8 14.658137384768505 9.184326560950677 1.8680838863827627 0 0 0
245 5492 1 -0.8 12.874563961890203 9.477264023091834 3.767525810085079 0 0 0
257 1231 3 1.6 18.218981781001915 5.72262622758225 1.120430813199624 0 0 0
259 1241 3 1.6 18.50259196796366 8.471214649305342 2.474509669202246 0 0 0
268 1362 3 1.6 20.726547058751706 9.769748240294517 0.6526424578027326 0 0 0
255 5495 1 -0.8 17.241280535174216 9.350754258165626 1.9492773648525232 0 0 0
258 5893 1 -0.8 18.147563543207628 6.916776470508051 2.183146024200022 0 0 0
264 5911 1 -0.8 19.871439630859562 8.80824986552187 1.6621753854342267 0 0 0
260 5912 1 -0.8 18.713941030917947 8.554899312085299 4.070753071425762 0 0 0
449 6227 1 -0.8 20.748661217689087 10.228393823473633 5.348619306571403 0 0 0
77 6132 1 -0.8 22.20490100578233 5.647660880050602 1.7029070916058213 0 0 0
272 1331 3 1.6 23.547247291265773 5.870020138631374 0.8318166901775907 0 0 0
274 1361 3 1.6 23.52466121906802 8.798108590176442 1.605638258434296 0 0 0
276 1363 3 1.6 23.35374299068901 8.410996658404 4.618529578291531 0 0 0
273 6133 1 -0.8 23.996408964553588 7.404108075950075 0.9390051787008062 0 0 0
270 6186 1 -0.8 22.3054444338203 9.400699389212575 0.7165290916628672 0 0 0
275 6187 1 -0.8 22.935987939577302 8.455000154732772 3.070797355279201 0 0 0
279 6188 1 -0.8 24.854003348347888 9.682850457624857 1.817582176564751 0 0 0
277 6191 1 -0.8 23.28410479265304 9.882615622596719 5.226710541412784 0 0 0
278 6192 1 -0.8 24.84163483523093 7.808803004168385 4.805235461667306 0 0 0
283 10120 3 1.6 26.30796605205954 9.985732250149576 1.2020138713314867 0 0 0
454 10120 2 0.4 26.300329838242014 10.521966999764384 0.6033873233384178 0 0 0
269 6137 1 -0.8 22.23836985522244 7.524712866009307 5.427297011725511 0 0 0
280 6429 1 -0.8 26.682463352730903 6.11667060694363 5.6559487774843005 0 0 0
285 6467 1 -0.8 27.57376221006852 9.495429222710582 2.048509989603001 0 0 0
111 6625 1 -0.8 32.367671432047494 5.9094535050480586 1.7920513075945643 0 0 0
287 1546 3 1.6 28.590785002006157 5.772805490291201 0.6535996070827574 0 0 0
289 1576 3 1.6 28.604030355254377 8.25217630444788 2.184311621395648 0 0 0
288 6623 1 -0.8 28.090010595473462 7.227560786411535 1.0526002152923128 0 0 0
295 6626 1 -0.8 31.59901182208415 6.059592148217874 4.973115823464471 0 0 0
299 6629 1 -0.8 32.42741210227115 8.468282685237142 5.326820850459148 0 0 0
294 6686 1 -0.8 30.207544552883277 8.263413398031384 1.990395959322725 0 0 0
290 6687 1 -0.8 28.39398541784385 7.598927863049053 3.631901301595537 0 0 0
300 6689 1 -0.8 32.58695957190674 9.297262746992413 2.2091155985403153 0 0 0
298 10132 3 1.6 31.328391764482 9.099348266558982 1.2602224778362332 0 0 0
291 10133 3 1.6 28.664410447935868 8.407430285402139 4.9615324888292855 0 0 0
292 10133 1 -0.8 29.221899001757414 9.662153753383791 4.221095006731286 0 0 0
457 10132 1 -0.8 30.587413460877997 10.376481874583606 0.6996068619032514 0 0 0
456 10132 2 0.4 30.939613996105873 8.234781847582537 1.3611519604611888 0 0 0
455 10133 2 0.4 28.88536967910453 8.743217697252085 3.970964220772156 0 0 0
297 6688 1 -0.8 31.796721167983346 8.114119015506725 0.10895173471066522 0 0 1
128 7088 1 -0.8 37.50739651607399 5.972103596244752 1.7321986430405718 0 0 0
303 1666 3 1.6 33.800262957303396 6.076900491985006 1.0620402788643115 0 0 0
305 1676 3 1.6 34.11632391072773 8.819335196291636 2.0524749313795945 0 0 0
304 6898 1 -0.8 34.20965797163325 7.5958218195687826 1.0335231608312943 0 0 0
309 6916 1 -0.8 35.293513484381485 9.814874709806936 1.6103615481766471 0 0 0
306 6917 1 -0.8 34.369505053415715 8.097242847021173 3.4889724614916093 0 0 0
310 7091 1 -0.8 36.74732276282361 6.338298780999834 5.221937293991365 0 0 0
315 7142 1 -0.8 37.73898601232625 10.347925343323515 0.8873086687755797 0 0 0
320 7143 1 -0.8 38.39247695639962 9.051754083766438 3.076581925193616 0 0 0
307 10149 3 1.6 33.96802246998837 8.665786829262299 4.911055018044345 0 0 0
301 10149 1 -0.8 34.33153689152035 10.13432215672489 4.535594482000967 0 0 0
313 10161 3 1.6 36.221084057950186 10.198262853261049 0.35815023338250973 0 0 0
458 10149 2 0.4 34.302098037429225 9.201167587605283 4.13316376006112 0 0 0
317 1741 3 1.6 38.81931304568666 6.421584128322819 0.9054117108721499 0 0 0
318 7089 1 -0.8 38.83080533619366 8.013502635426724 0.700609053817089 0 0 0
136 7087 1 -0.8 40.19891936231083 6.048389370983228 1.673225658532387 0 0 0
145 7432 1 -0.8 42.85951899592495 5.715786743069687 1.8223267844819309 0 0 0
319 1771 3 1.6 38.837691839073635 9.395781164332359 1.5480543527137105 0 0 0
321 1772 3 1.6 38.67858167120856 9.280837733859533 4.651316380652601 0 0 0
322 7146 1 -0.8 39.02455565505545 10.822432166378983 4.948838479940271 0 0 0
332 1886 3 1.6 44.03415385873913 6.102056672871366 0.7766411731471708 0 0 0
334 1916 3 1.6 44.15595240905135 8.897598996558337 1.8802920987830503 0 0 0
328 1917 3 1.6 41.67319335509193 10.433617777311893 0.69628411897748 0 0 0
336 1918 3 1.6 43.90414245607943 8.654920911507444 4.838119727144461 0 0 0
324 7141 1 -0.8 40.34488968457021 10.008144359770734 1.5251983987363242 0 0 0
323 7145 1 -0.8 40.04294606740712 8.434275691338241 4.9999381707188535 0 0 0
325 7436 1 -0.8 41.20614578279552 6.086146520185482 5.2666803100725454 0 0 0
330 7486 1 -0.8 43.023994216543315 9.91283102247185 1.4025227320393425 0 0 0
335 7487 1 -0.8 43.66555730230232 8.295039958733028 3.291742173524238 0 0 0
337 7491 1 -0.8 44.278048192322096 10.211210593999791 4.90986535177998 0 0 0
333 7433 1 -0.8 44.25594281638712 7.694550941937721 0.8137456869615116 0 0 0
343 2061 3 1.6 46.73635877441519 10.30589260019894 1.0706341951773253 0 0 0
347 2176 3 1.6 49.14633602984154 5.936122086769468 0.8767698093754793 0 0 0
349 2206 3 1.6 49.19371767695723 8.87526447626198 1.7995118326698882 0 0 0
351 2208 3 1.6 49.015140856734774 9.107876277739878 4.830301004924769 0 0 0
339 7488 1 -0.8 45.612473872898065 9.602120950359616 2.0026957766885563 0 0 0
338 7492 1 -0.8 45.247705830270014 7.87585922723939 5.271870190618533 0 0 0
345 7848 1 -0.8 47.99117983588742 9.320484741963636 0.8263767191635055 0 0 0
348 8128 1 -0.8 49.64802653163611 7.401109517269484 1.3448497567921123 0 0 0
350 8192 1 -0.8 48.589458987681795 8.86624877427289 3.296458046204889 0 0 0
352 8196 1 -0.8 49.196511884423266 10.678877070751348 5.183466657906992 0 0 0
179 8130 1 -0.8 52.93667431357311 5.444286121528393 1.8224455387818148 0 0 0
358 2207 3 1.6 51.51594247731825 10.729947409322737 0.8994492933444614 0 0 0
362 2496 3 1.6 53.90394821039757 6.335958697781917 0.8921221142655568 0 0 0
364 2506 3 1.6 53.9408941605688 9.264959772219894 2.014243143808784 0 0 0
366 2507 3 1.6 54.13989785964359 9.09789285658324 5.041319249730159 0 0 0
355 8131 1 -0.8 51.9628471360555 6.306196568002348 5.582895615052183 0 0 0
353 8133 1 -0.8 50.45690369401779 8.394956767612166 5.022117463582758 0 0 0
354 8191 1 -0.8 50.43447499754213 9.915151177678235 1.7869412758406673 0 0 0
360 8195 1 -0.8 53.024192165194805 10.446645561664289 1.409852128494199 0 0 0
363 8898 1 -0.8 53.673130264604225 7.918992969624931 1.1469997083890122 0 0 0
365 8917 1 -0.8 53.52450549534385 9.04123288531655 3.551844476164073 0 0 0
367 8919 1 -0.8 54.6926024661781 10.56288025669525 5.430689886617165 0 0 0
187 8897 1 -0.8 55.447558972902144 5.9919911426970724 1.2205420685804471 0 0 0
369 8916 1 -0.8 55.512249449040155 9.655420034689946 2.0341333317892496 0 0 0
368 8918 1 -0.8 55.37455006110595 8.061155483693504 5.126874447048598 0 0 0
377 2716 3 1.6 59.119120124078385 6.014123595251421 1.050261471790098 0 0 0
379 2746 3 1.6 59.22509290690863 8.808496657800024 2.184524255852339 0 0 0
373 2747 3 1.6 56.717851899588126 10.245829132819138 1.1368769931161828 0 0 0
381 2748 3 1.6 58.94124512944901 9.224889078131518 5.1314017532340115 0 0 0
383 3204 1 -0.8 60.439721908350904 8.766971181834313 5.5288350069361165 0 0 0
384 3276 1 -0.8 60.47940284812184 9.808886164824665 2.3026873534496723 0 0 0
378 9333 1 -0.8 59.722664387166446 7.409651482265445 1.5700882908200433 0 0 0
370 9335 1 -0.8 57.10806820168091 6.106569764202022 5.347642172486505 0 0 0
375 9376 1 -0.8 58.05864604084223 9.365615201762445 1.23026672720453 0 0 0
380 9377 1 -0.8 58.62063833305456 8.661607976701639 3.6594512132276917 0 0 0
382 9380 1 -0.8 58.87546953140185 10.841300744415415 5.188720252917665 0 0 0
395 81 3 1.6 2.8494829873583027 14.869451535914632 1.2115271908182486 0 0 0
386 82 3 1.6 0.7759107747054793 13.072439479697746 2.483861063048689 0 0 0
385 3275 1 -0.8 1.2635301222318507 11.826300568300896 1.5844611954110541 0 0 0
396 3322 1 -0.8 3.0805077421134666 16.445984596237157 1.443088160640197 0 0 0
392 3323 1 -0.8 1.7132625049515466 14.34810953757212 2.2133051748331596 0 0 0
398 3324 1 -0.8 4.20698245482277 14.04112036835525 1.5198124640887334 0 0 0
387 3326 1 -0.8 0.8555204707342117 12.768930324878461 4.052148108608384 0 0 0
400 461 3 1.6 5.183774654871824 13.041406424648942 2.34855290214514 0 0 0
399 4222 1 -0.8 4.986686521903346 11.532520398724689 1.7809710850005134 0 0 0
401 4242 1 -0.8 4.947732773397226 13.167678949006048 3.9494520650278675 0 0 0
537 3406 1 -0.8 3.967773248906985 16.698435300999652 5.519098057553437 0 0 0
402 462 3 1.6 5.7160296565576765 13.416634152323555 5.366004727641949 0 0 0
409 711 3 1.6 7.601095794736271 14.5180135093905 1.23853556186118 0 0 0
414 712 3 1.6 10.220083061947076 13.196845128980419 2.2436175069808306 0 0 0
416 714 3 1.6 10.369232439794347 13.020172524562945 5.220934414110299 0 0 0
406 4241 1 -0.8 6.703533449733346 13.509469358056268 2.1159735972707194 0 0 0
405 4243 1 -0.8 7.07739690192393 12.57356811134273 5.453164220514016 0 0 0
413 4714 1 -0.8 10.612170561394445 11.860193402543612 1.404950195446885 0 0 0
410 4752 1 -0.8 7.482130100715843 16.03545017353142 1.7997044696148337 0 0 0
412 4753 1 -0.8 9.12566263589884 14.013788001344935 1.3769610991297359 0 0 0
415 4754 1 -0.8 9.718941852262185 12.841523292120618 3.7400003635366215 0 0 0
423 1071 3 1.6 12.834177402131708 14.643725071802523 1.7567394300710855 0 0 0
428 1072 3 1.6 15.566644630446259 13.164955150979072 2.4460163942383786 0 0 0
430 1074 3 1.6 15.798335147340442 13.631045559792222 5.481131756559079 0 0 0
420 4755 1 -0.8 11.508288755480507 14.122616259400736 2.5030487988576677 0 0 0
419 4759 1 -0.8 11.839495916619343 12.373451308631209 5.23537894659556 0 0 0
427 5494 1 -0.8 15.655065102214307 11.531454462128234 2.430927294857571 0 0 0
424 5532 1 -0.8 13.135930486927888 16.161636068926605 2.1529314935981145 0 0 0
426 5533 1 -0.8 14.038814726341764 13.629146253942924 2.142211607731399 0 0 0
429 5534 1 -0.8 16.0764737517156 13.644681970956718 3.89267308848179 0 0 0
422 5531 1 -0.8 12.438910128656373 14.657125728967891 0.19523297525913713 0 0 1
434 5535 1 -0.8 16.47449869789295 13.735539721165983 1.2620759352071944 0 0 0
440 5932 1 -0.8 17.968629614589503 11.722837979329618 0.9025387512108041 0 0 0
441 6190 1 -0.8 20.48431924531468 11.271354205195731 1.1375712980749393 0 0 0
443 6226 1 -0.8 19.12423629663113 11.141446459726037 3.2976077419870387 0 0 0
437 10073 3 1.6 17.33732442340951 12.983644723560658 0.15579471581677545 0 0 0
442 10088 3 1.6 19.20444339210866 11.845686260737205 1.873434866537218 0 0 0
445 10088 1 -0.8 19.080470184707973 13.372389181338916 2.1194003827789523 0 0 0
444 10090 3 1.6 20.067624570968952 11.410806715736248 4.551073392785437 0 0 0
446 10090 1 -0.8 21.42243204064757 11.975459817833748 4.037116549441502 0 0 0
447 10088 2 0.4 18.621551795308516 12.59360674878787 1.6848628889047463 0 0 0
448 10090 2 0.4 21.01700968850575 11.215518167666081 4.56928598149237 0 0 0
439 5933 1 -0.8 19.214145553187173 12.232164023057031 5.6054283465485355 0 0 0
453 10120 1 -0.8 26.36040245518885 11.484918982166661 0.8084302501481723 0 0 0
466 7176 1 -0.8 41.496231655858054 11.352488463678787 5.3872952520887125 0 0 0
469 7490 1 -0.8 41.85072380770853 12.0172718721057 0.6572910991207958 0 0 0
474 7527 1 -0.8 43.09146524688819 14.159143423846674 1.4188399786583934 0 0 0
471 7529 1 -0.8 42.576097030929276 12.283686244763027 3.1668024804134953 0 0 0
470 10164 3 1.6 42.060991529141255 13.035525993864194 1.864298483723239 0 0 0
467 10164 1 -0.8 40.637802267541204 13.42656780177168 2.3499590013186693 0 0 0
464 10164 2 0.4 41.470325416089615 12.915987478477085 2.4663949064198776 0 0 0
472 10188 3 1.6 42.35572460256625 12.514658893217296 4.723699716360371 0 0 0
468 10188 1 -0.8 41.64983309895237 13.873793108708028 4.92283446325327 0 0 0
465 10188 2 0.4 42.04948495132001 12.988967123116534 4.862698347428722 0 0 0
473 7530 1 -0.8 43.73333046862643 12.605829297050688 5.502777375566476 0 0 0
478 10187 3 1.6 44.580512499417566 14.25030585164347 0.8455364005040705 0 0 0
475 10187 1 -0.8 45.36902580501509 15.536548474624235 1.2351753160785794 0 0 0
482 2071 3 1.6 46.98648346289639 13.160357710914734 2.041403986473655 0 0 0
484 2072 3 1.6 47.08612570781223 13.297559223415085 5.150186416373685 0 0 0
491 2226 3 1.6 49.020610261193326 15.266938039260582 1.3069811094664872 0 0 0
480 7528 1 -0.8 45.434298342561476 13.228033761542948 1.7134642710935795 0 0 0
481 7847 1 -0.8 47.386492176518125 11.62836396540154 1.7244111879312267 0 0 0
488 7866 1 -0.8 47.8296049063299 14.18628657135193 1.1461040633338624 0 0 0
483 7867 1 -0.8 47.33515335715591 13.496981884962333 3.574676190595713 0 0 0
485 7869 1 -0.8 46.32361563770948 14.581177215830504 5.720395228520061 0 0 0
492 8232 1 -0.8 48.664453009150094 16.626801467832404 2.0861030622195145 0 0 0
579 10187 2 0.4 45.42285977684135 14.549556135689302 1.2665975344200606 0 0 0
479 7532 1 -0.8 46.2442499242721 11.94231174080866 5.382949539866443 0 0 0
496 2227 3 1.6 51.48181242130334 13.573351240033864 1.9715400761475046 0 0 0
498 2229 3 1.6 52.02285296003785 13.329487094143891 4.99221925758971 0 0 0
505 2516 3 1.6 54.28179922425274 14.551381981084342 1.0101810289879967 0 0 0
495 8194 1 -0.8 51.2360896030064 12.320983043607725 0.9708842469579578 0 0 0
494 8233 1 -0.8 50.18998417490297 14.508737045982738 2.1263575258248224 0 0 0
497 8234 1 -0.8 51.770675883636606 12.97672775821592 3.4418686041264386 0 0 0
502 8235 1 -0.8 52.73403675944951 14.45736594672373 1.461452275087728 0 0 0
499 8238 1 -0.8 51.849914023636885 14.903469711985561 5.312223215529974 0 0 0
506 8937 1 -0.8 54.93547591533937 15.973369021009804 1.4176739951328543 0 0 0
508 8938 1 -0.8 55.09535667036046 13.393718049455014 1.7644317717105025 0 0 0
519 2766 3 1.6 59.07622005692075 14.5366229267404 1.3761781682611207 0 0 0
510 2767 3 1.6 56.57693989690137 13.112471558141884 2.3072854736726547 0 0 0
512 2769 3 1.6 56.72097518980557 13.632006417812194 5.375685066909769 0 0 0
522 3325 1 -0.8 59.97940340667033 13.428092477655222 2.1098690011650185 0 0 0
509 9379 1 -0.8 57.087716400169676 11.747148795648263 1.6065626744345634 0 0 0
520 9407 1 -0.8 59.69319272746555 16.007007176177463 1.6615818862734593 0 0 0
516 9408 1 -0.8 57.57299810008717 14.33162765232236 1.9243711999110578 0 0 0
511 9409 1 -0.8 56.51453189172964 12.987065229821628 3.907775941325665 0 0 0
513 9412 1 -0.8 56.30312383253075 15.190228796335981 5.406065765659256 0 0 0
532 111 3 1.6 3.122577211076393 17.879535635446558 2.178661760217336 0 0 0
524 112 3 1.6 0.7010090495818128 19.381492551573224 1.0865019861999268 0 0 0
534 114 3 1.6 2.8240112128362407 17.80264244125979 5.257321377390992 0 0 0
528 144 3 1.6 0.40439469183921245 22.24953479734494 5.0459459142565635 0 0 0
530 3396 1 -0.8 2.224343912616053 18.93157244911908 1.349586958575143 0 0 0
533 3397 1 -0.8 2.5264133120563335 17.814200590297048 3.673373504357116 0 0 0
538 3398 1 -0.8 4.649487713065396 18.384620270597974 2.189035998321431 0 0 0
525 3400 1 -0.8 0.6200318925400531 20.993456035151258 1.206158775429852 0 0 0
535 3405 1 -0.8 3.3206878105305027 19.267800500138254 5.754615716958631 0 0 0
541 471 3 1.6 5.609569046871177 19.104709781251596 1.1108066673992085 0 0 0
545 492 3 1.6 5.555530322523078 22.106054875335243 5.3221836929741535 0 0 0
542 4262 1 -0.8 5.47524136460715 20.69377734024696 1.334850239118529 0 0 0
531 3477 1 -0.8 1.4984199633021873 21.136475353371655 5.456912292781685 0 0 0
554 4811 1 -0.8 8.83542848601383 16.685634540218317 5.607257257795893 0 0 0
543 491 3 1.6 5.844046628256225 22.02054148119231 2.1799408128008086 0 0 0
549 741 3 1.6 7.938594508428611 17.542541498561004 2.2078137799858166 0 0 0
558 742 3 1.6 10.69138949671608 18.833027776215005 1.721131353371726 0 0 0
551 744 3 1.6 7.775449385874096 17.858734403043464 5.311346239358945 0 0 0
562 773 3 1.6 10.036686410372873 21.944487940453957 5.511859985320624 0 0 0
547 4263 1 -0.8 7.12798929250056 18.593167846615515 1.2809036916013048 0 0 0
544 4302 1 -0.8 5.826263810549857 21.705770379729852 3.7716232365526645 0 0 0
555 4806 1 -0.8 9.531741867174789 17.734349196297565 2.043994082794326 0 0 0
550 4807 1 -0.8 7.488580622899144 17.858719863507986 3.725055396874769 0 0 0
559 4809 1 -0.8 10.064136842606144 20.291076748464086 2.0395157130254127 0 0 0
561 4874 1 -0.8 9.383550224948147 21.85217378024128 4.047327723379698 0 0 0
560 10003 3 1.6 10.19028744919622 21.74948899724611 2.6916664722382824 0 0 0
666 10003 2 0.4 10.609587870527758 21.861151019216493 3.644325758600057 0 0 0
557 4808 1 -0.8 11.070083486340598 18.73457939906096 0.14489358459948787 0 0 1
564 4810 1 -0.8 12.002885272755034 18.51789977598633 2.605249432407429 0 0 0
567 5586 1 -0.8 12.135555935795365 16.757617854147917 4.49473811142846 0 0 0
566 10046 3 1.6 12.868933336060048 17.31227268480646 3.226413094263037 0 0 0
572 10046 1 -0.8 14.219245998500588 17.625403510649484 3.9339101755661563 0 0 0
574 10046 2 0.4 13.308194348584067 17.276073409450174 4.165730978300131 0 0 0
664 10003 1 -0.8 11.57559666236054 21.957923101424438 3.3749176666221197 0 0 0
592 2256 3 1.6 49.21191883174788 18.053537804544657 2.6360671093407664 0 0 0
591 7887 1 -0.8 48.47199348590049 19.256052450437146 1.8959472502425296 0 0 0
593 8287 1 -0.8 49.010721873910754 18.129986598324866 4.236243011265849 0 0 0
587 10275 3 1.6 48.6317466916442 19.80545392453066 0.41394308372091587 0 0 0
599 8356 1 -0.8 49.77140614975874 20.996155477630303 5.457433889747893 0 0 0
582 10275 2 0.4 50.60827750871374 19.36628285420118 60.43220824816809 0 0 -1
601 2257 3 1.6 51.774160285407724 18.655599066967767 1.019155015884069 0 0 0
603 2286 3 1.6 52.09966718358988 21.555438090482706 1.8767603753023048 0 0 0
605 2287 3 1.6 50.9778770717578 21.82572378655033 4.788101582373845 0 0 0
609 2536 3 1.6 54.4116462317741 17.415352301320354 1.9249668847495673 0 0 0
611 2537 3 1.6 53.69668672720835 17.925928971755564 4.9558194453983955 0 0 0
598 8286 1 -0.8 50.76659155104357 18.210867243712634 2.19915224559748 0 0 0
602 8289 1 -0.8 52.43802307880884 20.106678005050398 1.2714378452895714 0 0 0
607 8290 1 -0.8 53.061683617420876 17.665614069747487 1.1122157171609648 0 0 0
606 8293 1 -0.8 52.2126847859306 17.492235030494 5.425272666396503 0 0 0
604 8354 1 -0.8 51.4098284320888 21.330612337364272 3.31409590517656 0 0 0
608 8359 1 -0.8 52.24407384727833 21.488036131749165 5.752821388430641 0 0 0
610 8977 1 -0.8 54.07234918260282 17.319291492090276 3.504720057724029 0 0 0
612 8979 1 -0.8 53.84204983452805 19.533054707051182 4.9179373051351005 0 0 0
616 8999 1 -0.8 54.77255572544314 21.95635827920371 5.564478576057735 0 0 0
585 10275 1 -0.8 50.108141331065966 20.199702979868253 0.13363558062835626 0 0 0
527 3476 1 -0.8 0.07504354276709384 22.13176439570755 3.475057619330979 0 0 0
615 8976 1 -0.8 55.47288311622729 18.60537917858388 1.64387319793895 0 0 0
626 2796 3 1.6 59.391228352130234 17.412033721472458 2.396631025804037 0 0 0
618 2797 3 1.6 56.99089514896699 18.95134893628711 1.2101143116157425 0 0 0
628 2799 3 1.6 58.843589530154645 17.8704658939974 5.355560483001674 0 0 0
620 2827 3 1.6 56.90186916320582 21.92513543422528 1.8832444230573802 0 0 0
622 2829 3 1.6 56.20112703849493 22.334375134697716 4.933388100772767 0 0 0
632 3401 1 -0.8 60.45346320821607 18.5957671058863 2.106728483835838 0 0 0
624 9451 1 -0.8 57.92663301056799 17.869163304329312 1.9320900778857943 0 0 0
627 9452 1 -0.8 59.35128105677797 17.19958607093635 3.983434638566458 0 0 0
619 9454 1 -0.8 57.46280841628988 20.43458154979777 1.648294131793683 0 0 0
629 9457 1 -0.8 59.128012023099394 19.460495971932346 5.389604241710158 0 0 0
621 9499 1 -0.8 56.23770173696515 21.996539177552524 3.3561965254879165 0 0 0
526 142 3 1.6 0.6860735406178365 22.39587974654436 2.0082336226027273 0 0 0
640 141 3 1.6 3.3580448820178144 23.665413937715357 1.234150867382087 0 0 0
642 171 3 1.6 3.125089524419593 26.744603206035496 1.8744673097916367 0 0 0
644 173 3 1.6 2.8577795957577328 26.563485492331438 4.885123458106112 0 0 0
641 3472 1 -0.8 3.377236884293689 25.282037219490423 1.2450852525296925 0 0 0
636 3473 1 -0.8 2.1891340294868793 22.9841428753828 2.128628475911548 0 0 0
645 3474 1 -0.8 4.772245514111008 23.172177217448112 1.8278495394169725 0 0 0
634 3481 1 -0.8 0.918501757122635 23.7518386037684 5.322712869130419 0 0 0
638 3546 1 -0.8 2.1441517105773107 27.565917648411077 0.8984958001257793 0 0 0
643 3547 1 -0.8 2.458213621200399 26.52215835766797 3.325775123235003 0 0 0
647 3548 1 -0.8 4.485963626488944 27.597744560432275 2.0495614137194966 0 0 0
646 3553 1 -0.8 3.969051660453589 25.433516410880014 5.196988258849601 0 0 0
654 771 3 1.6 8.389951721236713 23.649279458862036 1.3286261541198798 0 0 0
656 796 3 1.6 8.232718115402538 26.5802828591858 2.0744528280280896 0 0 0
658 797 3 1.6 7.958558846108328 26.733634969975363 5.013425624119947 0 0 0
650 4301 1 -0.8 7.2941380348217395 22.52263794589276 1.725575634903496 0 0 0
651 4321 1 -0.8 6.415624385972898 26.257875697334313 4.973913890039529 0 0 0
652 4343 1 -0.8 6.918170313819297 27.135463792064815 1.3165624712150457 0 0 0
655 4872 1 -0.8 8.12523022469435 24.97179922929581 2.206822827636061 0 0 0
659 4873 1 -0.8 9.788425692371332 22.936848630930058 1.6919630519450477 0 0 0
661 4921 1 -0.8 9.488075739520234 26.904343038169166 1.1604146917496443 0 0 0
657 4922 1 -0.8 8.331734008415415 27.23568172243817 3.530830164257111 0 0 0
660 4923 1 -0.8 8.747003435690347 25.368898559487832 5.331324348200591 0 0 0
674 10223 1 -0.8 49.345307612304275 22.91304357157203 2.272542245147696 0 0 0
672 10235 1 -0.8 49.26977394184043 26.140858005498146 2.477645840865971 0 0 0
673 10299 1 -0.8 50.04595863474017 28.476437711464406 4.5307504574552215 0 0 0
682 8353 1 -0.8 51.228115166824445 22.487605663789815 0.9448553588376799 0 0 0
677 10223 3 1.6 50.25586637862983 23.676299767690242 1.2731264902089714 0 0 0
670 10223 2 0.4 50.18565280765457 22.79840423005513 1.7555079287093536 0 0 0
668 10235 2 0.4 50.164380618844454 25.735860435710915 2.3175681694300505 0 0 0
681 10299 3 1.6 50.862238984498255 27.24421336725874 4.9573923739042876 0 0 0
669 10299 2 0.4 50.719950200365226 27.798436796654343 4.250961812197288 0 0 0
678 8352 1 -0.8 51.13069573050337 24.84196367974594 1.9513989915178298 0 0 0
680 8407 1 -0.8 51.51040237079607 26.936618374305727 3.5432100118308263 0 0 0
679 10235 3 1.6 50.78734070663223 26.363846067817043 2.2484339217004248 0 0 0
691 2546 3 1.6 54.450142071182746 23.151873695869906 0.9562807930081866 0 0 0
693 2566 3 1.6 54.59598493547773 25.972864886632845 2.071202174098549 0 0 0
695 2567 3 1.6 53.65971012196206 26.25090515147006 4.991777708749043 0 0 0
687 8355 1 -0.8 53.48384207650123 22.413951233736356 2.020980460911246 0 0 0
684 8406 1 -0.8 51.13468837568075 27.270769964049038 0.9925348696441656 0 0 0
683 8408 1 -0.8 50.04086796731017 25.929292942374076 5.347914599188939 0 0 0
689 8443 1 -0.8 53.495260826278425 26.54728809556809 1.0692466283168143 0 0 0
692 8997 1 -0.8 55.076610091442 24.562293707716368 1.448540676127777 0 0 0
694 9037 1 -0.8 54.10313804774648 25.64945229337449 3.549358442688493 0 0 0
769 9038 1 -0.8 53.84394879353364 27.86120844362684 4.8019053431229475 0 0 0
685 8358 1 -0.8 50.70949817054685 23.40231357263236 4.8751029399037025 0 0 0
696 8998 1 -0.8 55.7544716030085 22.208962891262992 0.7835823783088196 0 0 0
698 9036 1 -0.8 55.7335674207762 27.111915728711057 2.124575503315893 0 0 0
705 2826 3 1.6 59.035531383074776 23.879213629834982 0.8019181626802523 0 0 0
707 2856 3 1.6 59.01731621560548 26.76781412915697 1.8441081860404416 0 0 0
709 2858 3 1.6 58.75421718992741 26.584186590105144 4.87731057652885 0 0 0
710 3475 1 -0.8 60.54151449459141 23.50638658451692 1.226995177507367 0 0 0
712 3598 1 -0.8 60.477129385665364 27.447954465482365 1.8628976226342608 0 0 0
706 9497 1 -0.8 58.88590979645242 25.49114840513032 0.856284381153928 0 0 0
701 9498 1 -0.8 58.04015250729351 23.0694281259435 1.7850740646378789 0 0 0
699 9502 1 -0.8 56.51195183170543 23.903173202023545 5.1794769253128985 0 0 0
708 9542 1 -0.8 58.70244694959356 26.20348453797225 3.3186000890836462 0 0 0
702 9543 1 -0.8 57.29488661282262 26.402770149663695 5.520938738130618 0 0 0
714 191 3 1.6 0.7137610626277627 28.302814570124664 0.8906300598560524 0 0 0
716 192 3 1.6 0.6240358928782854 31.382791712642362 1.7719622604085656 0 0 0
718 194 3 1.6 0.4981840027823058 31.150277983912545 4.773627667283561 0 0 0
725 221 3 1.6 3.208938541527899 32.794243701246344 0.8871831910671976 0 0 0
722 3552 1 -0.8 3.3914930370516294 28.050420397126064 5.2057129246259395 0 0 0
715 3597 1 -0.8 0.9270461465552533 29.848580158640296 1.3378349136270036 0 0 0
721 3600 1 -0.8 1.962532739824278 32.29732444295435 1.7922089966301815 0 0 0
720 3602 1 -0.8 1.7285859521421663 30.09941331044177 4.778505295994204 0 0 0
727 3673 1 -0.8 4.380910851547609 31.698272261244064 1.0689473084113101 0 0 0
733 513 3 1.6 5.459613442846687 31.086770689745627 5.111126018142783 0 0 0
732 4345 1 -0.8 5.176847085783264 31.10900144881803 3.5212710304456643 0 0 0
719 3605 1 -0.8 0.9534123642270765 32.56613908278364 5.402077828189159 0 0 0
731 512 3 1.6 5.632140838026355 31.18468436269439 1.9828664051758007 0 0 0
729 511 3 1.6 5.696456150680302 28.165504780172835 1.1279173866327872 0 0 0
740 816 3 1.6 7.866079845359658 32.63526821716669 0.6957148366666046 0 0 0
730 4342 1 -0.8 6.035037251208763 29.704786785735287 1.4678604173415652 0 0 0
736 4344 1 -0.8 6.76252474149561 32.31125803282553 1.813755745123266 0 0 0
735 4347 1 -0.8 6.636244589032683 30.02788593565373 5.431440048519536 0 0 0
745 4952 1 -0.8 8.67209471192968 28.963412234952358 0.3768918100914151 0 0 0
742 4953 1 -0.8 8.961768187221425 31.477211359573886 0.7443760953294954 0 0 0
747 4954 1 -0.8 8.285625898713977 30.386110888828846 2.7409302696630227 0 0 0
741 4955 1 -0.8 9.174963236769255 30.152956566329337 5.0859010877488755 0 0 0
749 4957 1 -0.8 8.132537466438063 32.22475928162162 4.78544164977298 0 0 0
746 9958 3 1.6 9.126275654078091 30.06122058998025 1.4343584032680126 0 0 0
748 10016 3 1.6 8.976305232183252 31.199139963718494 3.9202595073788458 0 0 0
753 9958 2 0.4 8.473604870440349 30.829999011193472 1.8994105157289964 0 0 0
752 10016 1 -0.8 10.130285041554613 32.08767926584766 3.3131591957006 0 0 0
755 10016 2 0.4 8.477316245140198 31.31563333162929 4.8407744920962426 0 0 0
750 9958 1 -0.8 10.53812789019482 29.606801933430333 1.978827272808715 0 0 0
754 10015 2 0.4 8.933696781810246 28.07012374075877 0.6593314201193832 0 0 0
759 9981 1 -0.8 50.665877131520084 31.818376679757186 4.224586189171575 0 0 0
757 9981 2 0.4 51.5408285962448 32.11844979570431 4.545314862489769 0 0 0
758 10256 1 -0.8 50.9642411689199 29.983015637867812 1.687753621637299 0 0 0
756 10256 2 0.4 51.91371147744013 29.67911605756427 1.6103954380666012 0 0 0
761 2311 3 1.6 52.58550904085311 27.793009691498764 0.5890360313249768 0 0 0
772 2586 3 1.6 53.966239161606765 32.71410198467878 0.5398994902373472 0 0 0
762 8442 1 -0.8 53.07190528794818 29.107642007756322 1.3638217785527404 0 0 0
764 8444 1 -0.8 52.86886819607947 31.10682458899866 3.143201226878151 0 0 0
768 8445 1 -0.8 52.8272657674732 31.600452231109205 0.6431335028671529 0 0 0
766 8446 1 -0.8 52.58874094338107 32.64921951861255 5.405851604031295 0 0 0
767 8447 1 -0.8 52.389046182132525 30.085328741436527 5.406323846281036 0 0 0
773 9056 1 -0.8 54.91353965693793 30.250475907153223 5.084381042229198 0 0 0
765 9981 3 1.6 52.12771455367158 31.406294367565494 4.523804463454437 0 0 0
763 10256 3 1.6 52.415773188099664 30.51795976965175 1.7377074455800858 0 0 0
774 9078 1 -0.8 55.21729969241042 32.22530526546873 1.4625917963687791 0 0 0
703 9541 1 -0.8 58.01035247438111 27.93681087217031 1.377597734190224 0 0 0
717 3601 1 -0.8 0.0043604248422656955 31.37361074039384 3.2579988820595482 0 0 0
776 2876 3 1.6 56.433410352447005 28.124970932766857 1.0924017493288973 0 0 0
778 2877 3 1.6 56.390478628574186 31.162458464567276 1.7682129988789497 0 0 0
780 2879 3 1.6 56.3434334256556 30.95972425487998 4.9048881435119105 0 0 0
787 2906 3 1.6 58.85768204953986 32.782107175170545 0.6588700924637745 0 0 0
789 3599 1 -0.8 60.296572464404896 32.05859049092286 0.7576830165599425 0 0 0
784 9545 1 -0.8 59.193810660717894 28.133699534561384 4.991432153750122 0 0 0
777 9572 1 -0.8 56.02643781316231 29.677129654966006 1.243212430432075 0 0 0
783 9573 1 -0.8 57.72492332592888 31.690426402529525 1.0095241650858362 0 0 0
779 9574 1 -0.8 56.74298627660217 31.050744922129496 3.3406904294117528 0 0 0
797 222 3 1.6 3.575936276276535 35.88262041645267 1.5520006072733206 0 0 0
799 224 3 1.6 2.88540137250231 35.673354231091004 4.532126501075088 0 0 0
792 251 3 1.6 0.9785293869713932 37.073060216187585 0.4983357878315613 0 0 0
796 3672 1 -0.8 3.72263754767935 34.27673639156422 1.3261130056094146 0 0 0
795 3674 1 -0.8 2.4894628187649697 36.49493687001908 0.5201479984864303 0 0 0
803 3675 1 -0.8 4.99558180940287 36.64125742918997 1.4600712080164333 0 0 0
798 3676 1 -0.8 3.018142854225139 36.19539150660253 3.0250691448848945 0 0 0
794 3678 1 -0.8 1.4112482247064366 35.06435279856718 4.679683496271367 0 0 0
802 3681 1 -0.8 3.963320633445448 34.50354501276769 4.809425697837706 0 0 0
793 3748 1 -0.8 0.8225249310953414 38.365355720002164 1.4576517073868924 0 0 0
790 223 3 1.6 0.479679128367017 34.09791469089008 5.552001250909058 0 0 0
806 541 3 1.6 6.016139900941381 37.287447502022026 0.38881337500676794 0 0 0
811 817 3 1.6 8.532573249585877 35.68813878796789 1.2940887947683213 0 0 0
813 818 3 1.6 7.957622635790952 35.69427422195785 4.452262187764397 0 0 0
815 837 3 1.6 7.788285882145288 38.71417133757415 5.288340465047325 0 0 0
808 4381 1 -0.8 6.502188046736477 34.9936372178293 4.611141368769776 0 0 0
809 4402 1 -0.8 7.39848766998658 36.4826215124741 0.450434529817331 0 0 0
807 4403 1 -0.8 6.212200648238897 38.87545936735997 0.6642429550745518 0 0 0
810 4997 1 -0.8 8.4618804185394 34.1119744523238 0.9255264078475769 0 0 0
817 4998 1 -0.8 9.915384161414917 36.351105032293276 0.8328200811707164 0 0 0
812 4999 1 -0.8 8.264804706121645 35.929886437804 2.8776905076814736 0 0 0
816 5000 1 -0.8 8.947586183548715 34.644199203493876 5.125559019386047 0 0 0
814 5002 1 -0.8 8.031952099832635 37.117871629640916 5.223407127387426 0 0 0
821 5042 1 -0.8 9.484255724243624 38.8382826752556 0.5172963544073216 0 0 0
820 10002 3 1.6 10.251662068218467 37.59824604610504 60.44882527628879 0 0 -1
825 10002 2 0.4 9.56878854223934 38.03893264414265 60.53886441047951 0 0 -1
822 10002 1 -0.8 11.782567867740534 37.93372884029923 60.32127671503738 0 0 -1
833 9931 1 -0.8 47.903821619945155 37.87132638625643 5.1128127106581 0 0 0
837 10239 3 1.6 49.48872362951303 35.140793394804035 5.089525044111563 0 0 0
832 10239 1 -0.8 47.988518561789974 34.85268123941728 5.312236684699256 0 0 0
828 10239 2 0.4 48.94135776125474 35.05788298907129 5.271431833274215 0 0 0
831 10302 1 -0.8 50.642648426824955 33.43139902297987 1.597779457340242 0 0 0
836 8482 1 -0.8 49.855183266454745 35.14035633981543 3.5350202030656876 0 0 0
835 10302 3 1.6 50.97667608652386 34.65408825681602 2.498476588302881 0 0 0
827 10302 2 0.4 51.32952487308947 33.79992978604247 2.2036520295734467 0 0 0
834 10302 1 -0.8 52.23666872020045 34.07561939138632 3.2232464859682843 0 0 0
829 10302 2 0.4 52.33822907234853 34.651894902555426 4.050299657328775 0 0 0
844 2321 3 1.6 51.681398471800954 36.87096187784831 0.27139180956963754 0 0 0
849 2587 3 1.6 54.08199344518288 35.7019133352138 1.3259929538854047 0 0 0
851 2588 3 1.6 53.758659894919646 35.663860307779224 4.377449820294122 0 0 0
853 2606 3 1.6 54.08570109306351 38.50802642666844 5.548497865210888 0 0 0
841 8481 1 -0.8 51.18779100346151 35.92757984837 1.4990609946735434 0 0 0
846 8485 1 -0.8 52.36044681537849 35.36431721608228 5.030796758318846 0 0 0
845 8522 1 -0.8 51.14736715673945 38.391694708919616 0.5428911781302929 0 0 0
847 8523 1 -0.8 53.289547650932 36.777457289364634 0.40874151927865715 0 0 0
848 9077 1 -0.8 53.599106668040896 34.22969134832064 0.9206851853181764 0 0 0
850 9080 1 -0.8 53.84197634950791 36.13125518153377 2.853622967462317 0 0 0
852 9081 1 -0.8 54.315540166541666 36.94905858116151 5.234071186583611 0 0 0
854 9082 1 -0.8 54.73336094159156 34.42268628896002 4.6938322878630325 0 0 0
945 8527 1 -0.8 50.177990998695506 38.74315277688492 4.4563197206758804 0 0 0
953 8530 1 -0.8 52.589660887613874 39.03399801706897 5.268562765900693 0 0 0
855 9079 1 -0.8 55.661827042827895 35.85470098600045 1.0181701789829822 0 0 0
863 2907 3 1.6 59.206100782874756 35.6606113973779 1.6327205652642152 0 0 0
865 2909 3 1.6 58.7235494158538 35.53915685485543 4.651851053340843 0 0 0
858 2936 3 1.6 56.64723842437405 37.047953687746435 0.5812818560377594 0 0 0
868 3677 1 -0.8 59.69276893673959 34.30989079353162 5.039780549043149 0 0 0
869 3747 1 -0.8 60.68745953870883 35.91606398454736 1.0254370812535212 0 0 0
862 9617 1 -0.8 58.829689539043265 34.08655809376492 1.6009342637794437 0 0 0
861 9618 1 -0.8 58.17429536724551 36.558515520845795 0.770452878873373 0 0 0
864 9619 1 -0.8 59.0949575150686 36.09546090811989 3.179165059467169 0 0 0
860 9620 1 -0.8 57.228298452460045 34.9486274190696 4.7243485249154205 0 0 0
859 9662 1 -0.8 56.33256071149473 38.35837443729938 1.485775941593837 0 0 0
970 9665 1 -0.8 57.53897975799999 39.0410536385064 5.3987647668428025 0 0 0
884 3754 1 -0.8 4.125659880433757 39.205562211834824 4.6211215359971325 0 0 0
870 252 3 1.6 0.6910497112717279 39.95871585950637 1.7012764394071047 0 0 0
872 254 3 1.6 0.6675247307805421 39.999446953967016 4.716727277263219 0 0 0
879 281 3 1.6 2.9169390550728345 41.490650540575636 0.13435880952802226 0 0 0
881 301 3 1.6 3.188300311983957 44.379303655912466 1.2972292260866483 0 0 0
883 303 3 1.6 3.1809669116364505 44.39664786869706 4.30959999719216 0 0 0
876 3750 1 -0.8 1.5518663104375645 40.77601693279851 0.6067099665428647 0 0 0
871 3751 1 -0.8 1.1987218766608794 40.235449147267886 3.2094939768327393 0 0 0
873 3755 1 -0.8 0.33828120208381546 41.458830331855694 5.3259522902678444 0 0 0
880 3822 1 -0.8 3.2035852756397087 42.77683985327694 1.075701857350891 0 0 0
885 3823 1 -0.8 4.0938842076944075 40.39408140634019 0.23851971282217388 0 0 0
877 3825 1 -0.8 2.211461812281528 43.34923681311051 5.078150790495108 0 0 0
886 3878 1 -0.8 4.641954944348446 43.728456429551244 4.170285702685525 0 0 0
887 542 3 1.6 5.520478257090233 40.301247329925324 0.9858354753358471 0 0 0
888 4405 1 -0.8 5.20489339129507 40.472131451946126 2.5591213787669043 0 0 0
889 543 3 1.6 5.396091932585307 40.050974071186076 4.0949103689041495 0 0 0
874 282 3 1.6 0.660332462160261 43.04094301606568 5.391138634129275 0 0 0
890 4406 1 -0.8 5.601430390590722 41.391054961568166 4.990710172638105 0 0 0
824 10035 2 0.4 9.982830172709502 39.8455460486624 2.7777675519768708 0 0 0
891 561 3 1.6 5.687598775221012 42.99983479579459 5.152832618792954 0 0 0
904 836 3 1.6 9.681597708613356 40.34763676390064 1.013878874908041 0 0 0
896 851 3 1.6 7.724499648556889 42.335168113500046 0.05135591913214958 0 0 0
908 852 3 1.6 10.735010784260474 43.08419926067305 4.930413787727308 0 0 0
893 4404 1 -0.8 6.368357219711655 41.590627464596814 0.5052978649701192 0 0 0
892 4407 1 -0.8 6.671920145493102 39.089345545750035 4.19539355004816 0 0 0
894 4441 1 -0.8 7.174311519136505 43.53817019260089 4.8328149866440535 0 0 0
902 5043 1 -0.8 8.868409048521215 41.23554400106325 60.51391762642497 0 0 -1
905 5045 1 -0.8 9.009287061535344 40.571388998935895 2.4612035254296996 0 0 0
901 5046 1 -0.8 9.059932036519779 39.6396198295622 4.960425849829418 0 0 0
907 5048 1 -0.8 10.639613874604228 41.63587024429833 4.216566494930073 0 0 0
897 5092 1 -0.8 8.157269917502235 43.485481141492215 1.0770431355128123 0 0 0
903 5093 1 -0.8 9.663050677229702 44.09531184910563 4.2561290361583195 0 0 0
906 10035 3 1.6 9.87600921256847 40.29897024595715 3.760707548034798 0 0 0
911 10035 1 -0.8 10.72766924039298 39.20247002678535 3.0379581171073244 0 0 0
909 5044 1 -0.8 11.124415510934195 41.07092353463966 1.0538078980185142 0 0 0
914 5617 1 -0.8 11.647696421585017 43.75690627316599 0.9587721330266167 0 0 0
913 10060 3 1.6 12.123673637045298 42.26621027991057 0.6731176310965978 0 0 0
919 10060 1 -0.8 13.387376705183371 42.27395743116728 1.597794199907307 0 0 0
921 10060 2 0.4 12.36965704706103 43.137166967708225 1.1009475214143098 0 0 0
918 10065 1 -0.8 14.445143483883552 44.502620273313106 3.504188242231288 0 0 0
910 5095 1 -0.8 12.193512014659174 43.754519172721054 4.7449034008899975 0 0 0
926 10205 1 -0.8 44.37671553424826 43.85339539788969 5.557618338079696 0 0 0
929 10295 3 1.6 45.83588139029416 44.39861752962172 2.7066604466387445 0 0 0
928 10295 1 -0.8 46.78224963352047 43.166847790830815 2.8763358839752096 0 0 0
927 10295 2 0.4 47.40407253024224 43.934848265600664 2.8749571794176183 0 0 0
942 2356 3 1.6 48.923021078301005 44.593931755693255 1.3932121490922627 0 0 0
944 2358 3 1.6 48.94932415268023 44.51131189623143 4.372793960197926 0 0 0
938 7921 1 -0.8 48.06458146114686 43.59943665121364 5.304106314884685 0 0 0
941 8587 1 -0.8 48.65881850499351 43.11396858822502 0.8650668002297703 0 0 0
940 10244 3 1.6 49.13950578722449 41.70749307867815 0.2904762034083588 0 0 0
948 2322 3 1.6 51.413938596436275 39.8463330188516 1.218264044943848 0 0 0
950 2323 3 1.6 51.452283083540586 39.690968453785366 4.31258712929233 0 0 0
952 2341 3 1.6 51.371649000963195 42.78528734138678 5.126895515105772 0 0 0
957 2616 3 1.6 53.892668083197165 41.48374846980665 0.5363275226780428 0 0 0
959 2626 3 1.6 53.85244102002717 44.439942172738384 1.4160856226466036 0 0 0
961 2627 3 1.6 53.945257666476394 44.318029716345904 4.445171733352512 0 0 0
946 8524 1 -0.8 50.16682346538113 40.879015579944955 1.2055952700144892 0 0 0
954 8525 1 -0.8 52.594723560091445 40.551037540555654 0.3706747012532164 0 0 0
949 8526 1 -0.8 51.92324556088913 39.69062111839371 2.7578944834057517 0 0 0
951 8529 1 -0.8 51.11542453466355 41.21449435097418 4.800639643563485 0 0 0
947 8588 1 -0.8 50.404690783669274 43.778488445687486 4.289233026615378 0 0 0
955 8590 1 -0.8 52.91742962457038 43.121080300115224 4.761771012925859 0 0 0
962 9116 1 -0.8 55.06816747953312 39.3652997138899 4.6057067788170665 0 0 0
963 9137 1 -0.8 54.98497688916727 40.69903838408172 1.4377635528606028 0 0 0
958 9138 1 -0.8 53.46130531228178 42.88514385718324 1.2204159742818357 0 0 0
964 9159 1 -0.8 55.45142660796801 43.73849602218445 4.503518237886523 0 0 0
965 2937 3 1.6 56.4099690242274 39.965337776917444 1.6551660152470402 0 0 0
967 2939 3 1.6 56.51857427969124 40.04996353119187 4.658126782738068 0 0 0
974 2966 3 1.6 58.859441134783324 41.348300992889264 0.6573084491626604 0 0 0
976 2986 3 1.6 58.877587384574205 44.41850007871645 1.316027821604775 0 0 0
978 2988 3 1.6 59.04641688656956 44.524727336405974 4.316339023325225 0 0 0
980 3749 1 -0.8 59.885915026836 40.47727113484909 1.5538737242461982 0 0 0
979 3756 1 -0.8 60.06487102633103 39.06532352841467 4.69774392070593 0 0 0
981 3824 1 -0.8 60.51191345238482 43.86533416205017 4.317268691445339 0 0 0
971 9663 1 -0.8 57.45608455159194 40.561526297885514 0.5920373913362238 0 0 0
966 9664 1 -0.8 56.965307823154774 40.31315027103434 3.13552687266649 0 0 0
975 9707 1 -0.8 58.617828644771514 42.82039106156399 1.2884006390116642 0 0 0
972 9708 1 -0.8 58.03351375451248 43.384192879915574 4.826502267802094 0 0 0
1109 9156 1 -0.8 55.389050033487194 44.622388457485805 0.9736274870457312 0 0 0
969 2967 3 1.6 56.58171833633403 43.04413933207973 5.415694810223332 0 0 0
968 9667 1 -0.8 56.40116780322364 41.44327302103085 5.458011978883134 0 0 0
882 3872 1 -0.8 2.6867204849067723 44.68293882815503 2.805189529027879 0 0 0
983 302 3 1.6 0.7153462391835423 45.82041716121725 0.31540315910252525 0 0 0
985 332 3 1.6 0.8523755781102035 48.74901358993579 1.3582879161224268 0 0 0
987 333 3 1.6 0.2553091509322989 48.761702567185644 4.376883849684555 0 0 0
988 3871 1 -0.8 2.1683230501749833 45.12564799747194 0.3038802621176762 0 0 0
993 3873 1 -0.8 4.644933923470218 45.01530751237531 1.0301069377246597 0 0 0
984 3876 1 -0.8 0.6838633498231091 47.14202963203334 1.24885961487497 0 0 0
991 3877 1 -0.8 3.214678337645183 45.791683121371065 5.132212745660735 0 0 0
989 3879 1 -0.8 1.2293951216338117 47.525565732624116 4.731293967489635 0 0 0
990 3947 1 -0.8 2.330443253614422 49.18098318445172 0.8917831349189915 0 0 0
995 3949 1 -0.8 4.76126098398265 50.048161209818424 0.4980548197745023 0 0 0
986 3951 1 -0.8 0.5907829442023423 49.23476697522521 2.8751451972120576 0 0 0
997 571 3 1.6 5.51027161449091 46.207250420522904 0.3669562378070014 0 0 0
998 4463 1 -0.8 5.3299274588009835 47.571944937143776 1.2049666673387112 0 0 0
1001 582 3 1.6 5.2118710225145195 48.906805812454465 4.38166938157415 0 0 0
992 304 3 1.6 2.7305150543271464 47.328090290251886 5.276661124662168 0 0 0
994 3881 1 -0.8 3.716360060584214 48.3089172455642 4.452226817304353 0 0 0
1126 3952 1 -0.8 0.5103372779881123 49.998360905806436 5.39060499910988 0 0 0
900 873 3 1.6 8.178487619151511 44.71166132440635 4.342920583522852 0 0 0
1000 4482 1 -0.8 5.508699364042851 49.52124932601319 2.9275033639358155 0 0 0
898 871 3 1.6 8.150571168455409 45.06975281168619 1.3384741190179488 0 0 0
899 5132 1 -0.8 7.75689484540351 45.27793497078728 2.891942623260513 0 0 0
999 581 3 1.6 5.732269720394958 49.12217979395737 1.386622734048963 0 0 0
1013 902 3 1.6 10.585401941371943 49.150867451729624 0.9928653398341984 0 0 0
1015 903 3 1.6 10.186589113630909 48.81933988640232 3.9843364965187082 0 0 0
1002 4462 1 -0.8 7.0462560457325845 45.76069991481014 0.4003270377714623 0 0 0
1004 4481 1 -0.8 7.25588982114719 49.413391279292654 0.9658831793487407 0 0 0
1003 4484 1 -0.8 6.259813818733754 47.721464467354146 4.682345315843809 0 0 0
1007 5131 1 -0.8 9.533537062843052 45.77218142829327 0.9737370507462306 0 0 0
1012 5134 1 -0.8 10.213102692628674 48.089192607250276 60.40147333592431 0 0 -1
1008 5137 1 -0.8 8.774416217200804 48.4669226542015 4.6924087256960245 0 0 0
1009 5187 1 -0.8 9.690525009740622 50.45683098388659 0.7528452318139778 0 0 0
1014 5189 1 -0.8 10.129317032017847 48.525858376900935 2.4099266906369166 0 0 0
1005 5136 1 -0.8 8.119707616970848 45.969213657381054 5.356512530412488 0 0 0
915 1106 3 1.6 12.56700762338595 45.06654585879297 1.1443540877139329 0 0 0
920 10065 2 0.4 13.5573418545799 44.876782294270384 3.2396455308362127 0 0 0
1021 5626 1 -0.8 14.037878232047523 44.980805698801454 0.5457334923189886 0 0 0
916 5627 1 -0.8 12.450631459888973 45.41491631222498 2.707704289462881 0 0 0
917 10065 3 1.6 13.066119510061096 44.92672764620252 4.072922400609893 0 0 0
1027 1122 3 1.6 15.79184777273055 48.81829544144235 0.8554962305514624 0 0 0
1029 1123 3 1.6 15.45311008410686 49.16776147865327 3.980629164790725 0 0 0
1016 5135 1 -0.8 11.933050667203561 46.32511316428602 0.3854888565469896 0 0 0
1018 5190 1 -0.8 12.136984107741764 49.56165974029791 1.0298726283409103 0 0 0
1017 5192 1 -0.8 11.369010537591564 47.94210280108387 4.618895611102026 0 0 0
1026 5629 1 -0.8 15.23836525437917 47.31789536598967 0.6377307545250008 0 0 0
1019 5630 1 -0.8 13.217966959920421 46.18067234595698 5.0681407676082495 0 0 0
1022 5631 1 -0.8 13.932475301454978 48.620707106578735 4.248821099520771 0 0 0
1023 5677 1 -0.8 14.664234195538599 49.88436457233554 0.3563284018861201 0 0 0
1028 5679 1 -0.8 15.952660181303099 49.044632213497664 2.452198554054542 0 0 0
1025 9942 3 1.6 15.000236640428218 45.973710519782216 60.299292172118086 0 0 -1
1031 5682 1 -0.8 16.453339899865526 48.383552746409435 4.95482070451338 0 0 0
1020 1107 3 1.6 12.888272979881418 47.75122643863436 5.150335899343993 0 0 0
1178 1261 3 1.6 18.337590325905403 50.29475362443062 60.38778781624747 0 0 -1
1032 5680 1 -0.8 17.15891364082508 49.192887720563476 0.04979398474345085 0 0 0
1035 5961 1 -0.8 18.245790586114435 50.16027224788408 4.940293388781954 0 0 0
1036 5977 1 -0.8 19.736763426442934 49.79488307330642 0.4043629586554513 0 0 0
1040 10105 3 1.6 19.490971669408225 50.00096421259217 3.933168738081506 0 0 0
1042 10105 1 -0.8 19.205088658106018 48.73497720333283 3.0592335201318788 0 0 0
1044 10105 2 0.4 19.52504193238144 50.05289699258646 2.943591431077124 0 0 0
1037 10082 2 0.4 18.450881574753673 49.28106661838258 5.276673221663082 0 0 0
1041 10104 1 -0.8 21.82624820925784 49.503268872480156 2.134173100706362 0 0 0
1068 7193 1 -0.8 38.022111347000966 49.56967040271992 0.8190252608159456 0 0 0
1064 7195 1 -0.8 36.15118282393844 49.50977319853929 2.4600776057986993 0 0 0
1229 7196 1 -0.8 36.63885471667634 50.1972020433575 4.971949530219753 0 0 0
1063 10175 3 1.6 36.459932528422804 49.43224218252498 0.9002073308873481 0 0 0
1061 10175 1 -0.8 35.967245470278 48.131416998174416 0.22938278421565572 0 0 0
1059 10175 2 0.4 36.1863269469487 49.07349361956661 0.39502499815870634 0 0 0
1065 10289 3 1.6 37.24815283025932 49.99630895435987 3.508834376675398 0 0 0
1062 10289 1 -0.8 38.50356820311476 49.085079234431575 3.5230201731551465 0 0 0
1060 10289 2 0.4 38.1890143919342 49.97085495242953 3.24082009264919 0 0 0
925 10295 1 -0.8 44.302440852733504 44.150785072393546 2.8816275268995124 0 0 0
1078 7622 1 -0.8 42.706601117680414 49.62117191515141 1.7162211100135198 0 0 0
1075 7625 1 -0.8 41.32063370971206 48.85302135296917 3.785398201364012 0 0 0
1076 10176 3 1.6 41.51982490860223 49.421995443417124 5.259466707787887 0 0 0
1070 10176 2 0.4 41.01878580457333 50.35732278083057 5.602250410709961 0 0 0
1074 10214 3 1.6 41.206005280301 49.3662325966615 2.2794299115804555 0 0 0
1072 10214 1 -0.8 40.471335834933136 48.43729794098042 1.268979410256415 0 0 0
1069 10214 2 0.4 40.40678748746137 49.39094618660995 1.5744486068766983 0 0 0
1079 7578 1 -0.8 44.147729413548575 46.470042764797086 5.410050228659112 0 0 0
924 10205 2 0.4 46.20801312979276 45.276805787957805 5.343093620808754 0 0 0
923 10295 2 0.4 45.0896039200439 44.60523111006193 3.300904628612758 0 0 0
930 7576 1 -0.8 45.97015479243822 45.32337432201755 3.9748871721017998 0 0 0
931 10205 3 1.6 45.11773138246283 45.2219622349335 5.310135857382887 0 0 0
943 8627 1 -0.8 48.4656217882023 44.849720044120645 2.8967134269980277 0 0 0
1085 2086 3 1.6 46.6970174799431 46.264784586733896 0.5050305304275365 0 0 0
1087 2096 3 1.6 46.46416186740735 49.169795244818175 1.5048840673461836 0 0 0
1089 2097 3 1.6 46.28250489889117 49.197893525618355 4.578263414684683 0 0 0
1081 7577 1 -0.8 45.97809997587353 45.05424908416081 1.257052111457523 0 0 0
1082 7582 1 -0.8 44.74959241326258 48.889148477353274 4.868096808982976 0 0 0
1083 7624 1 -0.8 45.1876534228103 49.874161972323556 0.804691124209317 0 0 0
1090 7942 1 -0.8 48.23231253698309 45.76561280072466 0.5161908786289765 0 0 0
1086 7943 1 -0.8 46.413123019743715 47.566472414543185 1.415338461799981 0 0 0
1092 7961 1 -0.8 47.823307597715136 49.60065675429515 0.7375679791911184 0 0 0
1088 7962 1 -0.8 46.53763812251511 49.636533092371195 3.0471254588450156 0 0 0
1091 7964 1 -0.8 47.14126567911782 47.88187738583964 4.925107601422544 0 0 0
1093 8631 1 -0.8 49.02027322486656 45.9250385743576 5.159349341823463 0 0 0
1096 8632 1 -0.8 49.59670434330232 48.27921245452417 4.191754904321399 0 0 0
1094 2359 3 1.6 48.6525026199805 47.48143080947044 5.242468067712736 0 0 0
960 9157 1 -0.8 53.67345348791538 44.86381610699892 2.9569073183607353 0 0 0
1099 2357 3 1.6 51.38234060569608 45.75468004861251 0.26471175732010754 0 0 0
1101 2387 3 1.6 51.52298824069711 48.74000505526027 1.1756569067163212 0 0 0
1103 2388 3 1.6 51.15615483762052 48.64588393294544 4.262254754846324 0 0 0
1281 2646 3 1.6 54.03642232467793 50.236216589672516 0.290735483783321 0 0 0
1095 8626 1 -0.8 50.511097617004154 44.85106194546612 1.2611141417669722 0 0 0
1100 8629 1 -0.8 51.04950537990756 47.31465030379475 0.5773854890827989 0 0 0
1104 8630 1 -0.8 52.9362953946235 45.42124953122211 0.5264621619901754 0 0 0
1097 8682 1 -0.8 50.45202268899732 49.922974420776 0.8947744106223665 0 0 0
1102 8684 1 -0.8 51.753716863215985 48.70600454447909 2.7703287791742617 0 0 0
1106 8685 1 -0.8 52.929813301239406 49.09385074362838 0.4840561087655187 0 0 0
1274 8686 1 -0.8 51.36783251483305 50.04201417801411 5.077201671482438 0 0 0
1105 8687 1 -0.8 51.92000365121319 47.44384638321277 5.023495173254822 0 0 0
1110 9160 1 -0.8 54.43093562214843 47.95639136941864 4.599162687718885 0 0 0
1107 9158 1 -0.8 53.748021370341625 45.549229553191445 5.474219513209665 0 0 0
1123 3875 1 -0.8 60.38633983406357 44.72093591134448 0.851601919043172 0 0 0
977 9737 1 -0.8 58.66486563560483 44.96100821451485 2.819533956906915 0 0 0
1111 9197 1 -0.8 55.50069308797738 49.5764980217193 0.45916161447928017 0 0 0
1113 2987 3 1.6 56.33977758804588 45.764071698261326 0.3577059464560511 0 0 0
1296 3016 3 1.6 58.98823463205781 50.10114755253773 0.4497214060228825 0 0 0
1115 3017 3 1.6 56.45420599433274 48.68659780688318 1.4136053840578724 0 0 0
1117 3018 3 1.6 55.90097036754324 48.5896536562815 4.449231445722522 0 0 0
1125 3950 1 -0.8 60.4873233574617 49.50393643751782 0.43555366206324797 0 0 0
1124 3953 1 -0.8 59.44661571405305 48.27198468122567 4.487250552290351 0 0 0
1118 9736 1 -0.8 57.85375362668371 45.214532430302555 0.36559201447233936 0 0 0
1114 9739 1 -0.8 56.16747011113527 47.10717031615514 1.2401478322766029 0 0 0
1119 9741 1 -0.8 56.976546643461106 47.44808297022103 4.80705051809441 0 0 0
1120 9782 1 -0.8 57.99053527929865 48.969712903240676 1.0168527634411229 0 0 0
1116 9784 1 -0.8 56.15948818364964 49.10768324035371 2.9421766182077276 0 0 0
1122 2989 3 1.6 58.475502330577285 47.33621640284519 5.37275505308818 0 0 0
1121 9740 1 -0.8 58.97103039208042 45.80530592419117 5.290679915788511 0 0 0
1133 331 3 1.6 3.2042756862372737 50.44380807446982 0.3967629161673442 0 0 0
1135 361 3 1.6 3.2288259020731833 53.29636059217548 1.4776746019738498 0 0 0
1129 362 3 1.6 0.7084355447868006 54.64855542432286 0.5660477976560796 0 0 0
1137 363 3 1.6 3.236902733953614 53.13858503095681 4.497739458041035 0 0 0
1134 3948 1 -0.8 2.866515350413514 51.73586619565222 1.296530942256408 0 0 0
1130 3955 1 -0.8 2.138342155644585 51.99672523355989 4.807375611351776 0 0 0
1131 4021 1 -0.8 2.2656428179912163 54.2389363825149 0.5919559609419767 0 0 0
1136 4022 1 -0.8 3.0113013931834667 53.71817554239234 3.0159323752817166 0 0 0
1140 4023 1 -0.8 4.758963251034973 53.51725406322192 1.0321439960239047 0 0 0
1139 4028 1 -0.8 4.709811638464731 52.4858149170327 4.554628855618883 0 0 0
1127 334 3 1.6 0.6829825845683833 51.60851167596875 5.3842046071484875 0 0 0
1156 5191 1 -0.8 10.500867483708737 50.39519231075666 4.178155306315092 0 0 0
1148 901 3 1.6 8.120226539443914 50.71817559611153 0.5748379471278471 0 0 0
1144 601 3 1.6 5.712494261795086 54.75801403597291 0.6581070103727729 0 0 0
1150 931 3 1.6 8.148872538446689 53.46142537234589 1.7835563694166472 0 0 0
1159 932 3 1.6 10.707456339430637 54.36475315945763 0.4215601854656604 0 0 0
1152 933 3 1.6 8.184599578039588 53.33181297603606 4.78235080063842 0 0 0
1146 4522 1 -0.8 7.266119028076339 54.37340918697631 0.79964525028907 0 0 0
1149 5188 1 -0.8 7.7153253763625465 51.932117610441026 1.5416760613122453 0 0 0
1154 5193 1 -0.8 9.72346690607897 52.8504791807817 4.780835894681755 0 0 0
1155 5251 1 -0.8 9.718743297650322 53.63205365733286 1.4617413900901302 0 0 0
1151 5252 1 -0.8 7.834881589817353 53.86592787903886 3.3050781747584703 0 0 0
1157 904 3 1.6 10.700035561380249 51.631756550795075 5.1844334630814215 0 0 0
1145 4485 1 -0.8 7.234858814814309 52.07562675811875 5.147657563641471 0 0 0
1163 1121 3 1.6 13.250098685353464 50.626887905020105 0.5630702115754138 0 0 0
1171 5681 1 -0.8 15.528471730408672 50.74847015414824 4.369428946502473 0 0 0
1165 1151 3 1.6 13.323657070359063 53.43052974555509 1.8014426566971162 0 0 0
1174 1152 3 1.6 15.880195620389294 54.6837227901069 0.5468053073473969 0 0 0
1167 1153 3 1.6 13.125669761389961 53.42823299089778 4.8297342749521 0 0 0
1161 5255 1 -0.8 12.255187114907265 54.0263280793766 0.7419623060056679 0 0 0
1164 5678 1 -0.8 13.361410434810374 51.821309327627105 1.6486526797054077 0 0 0
1169 5683 1 -0.8 14.68447120020191 53.09733886248802 5.034408025744019 0 0 0
1170 5741 1 -0.8 14.80545831339069 54.02422994001071 1.5540154516961644 0 0 0
1166 5742 1 -0.8 12.859214836530036 53.837499070999755 3.291453711791022 0 0 0
1160 5194 1 -0.8 12.227928037069319 52.1376801832992 5.162474615138007 0 0 0
1039 6249 1 -0.8 19.7841950724093 50.94315877369004 2.6658392808174916 0 0 0
1038 10104 3 1.6 20.709228241145784 50.401970704374385 1.4820233030918293 0 0 0
1043 10104 2 0.4 20.68505046325318 50.89799606677423 0.7486635727444914 0 0 0
1045 6247 1 -0.8 21.451675050116446 51.4549815740251 0.5586083674279683 0 0 0
1180 1271 3 1.6 18.279530182146953 52.9604244571406 1.5163553917467558 0 0 0
1182 1272 3 1.6 18.30748972922498 53.2532647054839 4.539845811305565 0 0 0
1189 1392 3 1.6 20.797573564854094 54.564461527241185 0.8697620118202218 0 0 0
1176 5745 1 -0.8 17.374897575887992 54.166525504407076 0.8678301944585668 0 0 0
1179 5978 1 -0.8 17.93781715915964 51.6304261502438 0.677095721710814 0 0 0
1185 5996 1 -0.8 19.820735496577374 53.42864944529467 1.4447455972331251 0 0 0
1181 5997 1 -0.8 17.83137785316371 52.85531829407193 3.055710080594706 0 0 0
1184 5998 1 -0.8 19.817044820312795 52.787406696745904 4.854122758775554 0 0 0
1183 5999 1 -0.8 18.287508616212925 54.87094937154439 4.688591326373851 0 0 0
1368 6300 1 -0.8 20.48558961261429 55.918275983683394 1.71124217943111 0 0 0
1186 6250 1 -0.8 20.747393882658837 50.364186468531635 4.855230655347622 0 0 0
1193 10118 3 1.6 22.843081215608585 51.35190466293886 60.343161492201894 0 0 -1
1195 1391 3 1.6 23.661984096866625 53.505443894575315 1.5004851956270964 0 0 0
1197 1393 3 1.6 23.589520374470915 53.01590559183477 4.52549834133416 0 0 0
1203 1486 3 1.6 26.296067732827314 54.9104002387531 0.651684616787667 0 0 0
1194 6248 1 -0.8 23.884007005192778 52.27852001583831 0.5225650769985767 0 0 0
1191 6296 1 -0.8 22.395252235751034 54.32912315337966 0.9308964460648296 0 0 0
1196 6297 1 -0.8 23.232622337972852 52.96232226840828 2.9570232540748576 0 0 0
1200 6298 1 -0.8 25.04214712626174 54.35987129935719 1.5322350738192083 0 0 0
1199 6302 1 -0.8 24.938748336091233 52.20474659398882 4.823709318218235 0 0 0
1205 6497 1 -0.8 27.596270988699796 53.96541927833571 0.588800162981584 0 0 0
1198 6301 1 -0.8 23.927132165337955 54.56854522297898 4.868809543173664 0 0 0
1209 1586 3 1.6 28.86405967026822 53.4291438577256 1.449673502217877 0 0 0
1217 1587 3 1.6 31.69310460289169 54.87860421378064 0.9869734576261333 0 0 0
1211 1588 3 1.6 28.697450038073992 53.21745561923622 4.505583276110285 0 0 0
1208 6707 1 -0.8 29.31397710394614 52.030369578275845 0.8134883018573228 0 0 0
1213 6708 1 -0.8 29.75091413546762 52.04652541311535 4.755042023854677 0 0 0
1218 6709 1 -0.8 32.38588962793271 52.452036324403636 4.576482748477749 0 0 0
1214 6746 1 -0.8 30.14250946014549 54.451983010086934 1.4163900117183459 0 0 0
1210 6747 1 -0.8 28.316326459438613 53.27322535003479 2.950422309611526 0 0 0
1219 6750 1 -0.8 32.94102133898656 54.00756560183132 1.5538131030344895 0 0 0
1212 6751 1 -0.8 29.371341275676357 54.62023434912856 4.930789342455615 0 0 0
1215 10143 3 1.6 31.155703322390757 52.054600548460144 5.499388107866224 0 0 0
1056 10142 2 0.4 34.33640509240526 51.92598125081247 1.3089156386686638 0 0 0
1058 6932 1 -0.8 35.749776905973796 50.579977033135926 0.11662661099791218 0 0 0
1221 10142 3 1.6 34.5761374922342 51.59140830962076 0.38784626848928305 0 0 0
1057 10142 1 -0.8 33.64628683003874 51.233543916971676 1.5824465911423742 0 0 0
1067 10289 1 -0.8 37.846785069208096 51.318414744793046 2.936904908561475 0 0 0
1066 10289 2 0.4 38.10280807636133 51.675390020824 2.041999194570943 0 0 0
1223 1681 3 1.6 34.48087083964136 53.85020020383082 2.0236221873022884 0 0 0
1225 1682 3 1.6 33.862535273294014 52.97230838120951 4.911410188787419 0 0 0
1238 1796 3 1.6 38.63727930089691 53.47022175848955 1.589175035783947 0 0 0
1232 1797 3 1.6 36.54728211100714 55.463664483652394 0.6303704993828433 0 0 0
1240 1798 3 1.6 38.519389993460116 53.26127233345696 4.565402764346896 0 0 0
1222 6933 1 -0.8 35.24817464260056 52.79706463684358 1.1305892351170408 0 0 0
1228 6951 1 -0.8 35.34286453444691 55.168524248587275 1.6758035625877714 0 0 0
1224 6952 1 -0.8 34.60024071530271 53.48374871224974 3.576380336876366 0 0 0
1237 7194 1 -0.8 38.36930323888476 52.090631600741325 0.8792434057652975 0 0 0
1233 7197 1 -0.8 37.2076975440537 52.67864928535736 5.278039104706591 0 0 0
1234 7247 1 -0.8 37.866735856043825 54.55396456853985 0.676379765611885 0 0 0
1239 7248 1 -0.8 38.23584451327696 53.84543175706618 3.0966649006350266 0 0 0
1236 1781 3 1.6 39.12302416311425 50.69452805955307 0.9149785971932975 0 0 0
1251 1951 3 1.6 43.61964122468098 50.28058981681098 0.5755825014874308 0 0 0
1071 7192 1 -0.8 40.29866017843374 50.62310042601481 1.9865105846407463 0 0 0
1244 7626 1 -0.8 42.02962597230962 50.90864556445258 5.086780826831105 0 0 0
1253 1971 3 1.6 43.96435711999432 53.13374240325328 1.59728983380764 0 0 0
1247 1972 3 1.6 41.35911587908865 54.69905104193931 0.9914650393651003 0 0 0
1255 1973 3 1.6 43.909886772896286 53.28629387858972 4.663339321633119 0 0 0
1243 7246 1 -0.8 40.25780928406295 53.65519899193297 1.5044908219300406 0 0 0
1242 7251 1 -0.8 39.8615140567437 52.37319987164151 4.595622019848325 0 0 0
1252 7623 1 -0.8 43.47269490070113 51.88199672126113 0.7282135552387917 0 0 0
1249 7676 1 -0.8 42.88033373607663 54.322661887422946 1.420226874595962 0 0 0
1254 7677 1 -0.8 44.11476287789941 52.76699080501774 3.1550262606753363 0 0 0
1245 1952 3 1.6 41.24544373217757 52.261004155879164 5.384770738079982 0 0 0
1266 2386 3 1.6 49.04485531035369 50.616872823830214 0.5002512122844757 0 0 0
1256 7681 1 -0.8 44.499598236457466 54.775349930558356 4.9056304404828905 0 0 0
1262 2116 3 1.6 46.37840347652901 54.81122453353169 0.7123749669123088 0 0 0
1268 2416 3 1.6 49.02592593578337 53.53425707240194 1.6013434301316247 0 0 0
1270 2418 3 1.6 48.718444645792005 53.378902722643396 4.684009382382165 0 0 0
1258 7678 1 -0.8 45.440722493972615 53.56354480994832 1.0941248502586063 0 0 0
1257 7682 1 -0.8 44.7482991637133 52.30185469582243 5.643375162709353 0 0 0
1263 7965 1 -0.8 47.209601992628805 52.92383775867338 5.00893323034712 0 0 0
1264 8002 1 -0.8 47.94283279327796 54.40187367726115 0.7749722953948458 0 0 0
1267 8683 1 -0.8 48.782588294632625 51.9531281397386 1.3707347699047387 0 0 0
1269 8747 1 -0.8 48.838275982102246 53.8911261501901 3.1611532809040868 0 0 0
1277 2417 3 1.6 51.70852929979315 54.69051082823429 0.3936757756843942 0 0 0
1283 2656 3 1.6 54.07169561278572 53.02140676565413 1.3056405529746171 0 0 0
1285 2657 3 1.6 53.74877769330098 53.08103083849743 4.2733651114691344 0 0 0
1272 8688 1 -0.8 49.7301995944658 52.13388530597388 4.901936552052732 0 0 0
1278 8689 1 -0.8 52.29742877725038 52.37778637965647 4.312922892480458 0 0 0
1273 8746 1 -0.8 50.540085316966554 53.88159283700164 1.1608033803061961 0 0 0
1279 8750 1 -0.8 53.02934484351894 53.77183028397622 0.3338310194983863 0 0 0
1282 9198 1 -0.8 53.78995435782668 51.434833938062916 1.3363243349545502 0 0 0
1284 9217 1 -0.8 53.94964515095413 53.652529503920434 2.781334382371597 0 0 0
1275 2389 3 1.6 51.22753498631949 51.65029493434581 5.2732790622962 0 0 0
1286 9219 1 -0.8 53.83370006504262 54.263395977058906 5.370035628078481 0 0 0
1287 9218 1 -0.8 54.92776508442495 52.00567329983152 4.531613671279022 0 0 0
1288 9216 1 -0.8 55.56886414289592 53.223287195933466 0.7633175175056434 0 0 0
1298 3046 3 1.6 59.05072324168822 53.01827700677924 1.4454743048157994 0 0 0
1292 3047 3 1.6 56.59887660678917 54.407329892577756 0.42713592515404486 0 0 0
1300 3048 3 1.6 58.7815045396581 52.96179990663285 4.426248628561067 0 0 0
1302 3954 1 -0.8 60.22617956433504 52.237611659473146 4.483423001436998 0 0 0
1303 4025 1 -0.8 60.57191747955863 53.38894581729043 1.090783028691673 0 0 0
1297 9783 1 -0.8 58.86735974680492 51.41824453346129 1.3697217786215872 0 0 0
1293 9786 1 -0.8 57.595908052583376 51.90622796611544 4.738700447255559 0 0 0
1294 9826 1 -0.8 58.08553535861595 53.79774312198472 0.42244383862576074 0 0 0
1299 9827 1 -0.8 58.64020674039351 53.51493438980948 2.922716970920201 0 0 0
1480 9829 1 -0.8 56.400145176941976 55.57738111337895 1.5210707790236562 0 0 0
1290 3019 3 1.6 56.18167649863392 51.46431552704136 5.393762664559954 0 0 0
1304 4026 1 -0.8 0.3718583698556198 55.90561439137962 1.5187495635865187 0 0 0
1315 391 3 1.6 3.1982300494864555 58.937637231085134 0.9344012623115692 0 0 0
1305 392 3 1.6 0.6245192859974542 57.47886514783124 1.765406247505555 0 0 0
1307 393 3 1.6 0.8104269944991539 57.292911400872526 4.789047131533864 0 0 0
1316 3109 1 -0.8 3.0777954580365283 60.165919136400404 1.9647763367382631 0 0 0
1312 3114 1 -0.8 2.154838158711035 60.64980366977647 5.454597919875554 0 0 0
1319 3115 1 -0.8 4.669198697367088 61.273472318286736 5.037100328196718 0 0 0
1310 4029 1 -0.8 2.3244707330711916 56.7515154762791 4.7609252622835685 0 0 0
1311 4097 1 -0.8 2.15433605158467 57.78823381086481 1.3562445677077846 0 0 0
1318 4098 1 -0.8 4.7098317441362925 58.38145595366673 0.9513798962429413 0 0 0
1306 4100 1 -0.8 0.4033900191489465 57.8130974876723 3.3225835341695498 0 0 0
1320 4523 1 -0.8 5.362500298569342 55.95058428958766 1.6765815560081805 0 0 0
1322 4542 1 -0.8 5.469188121992677 57.923469016492994 3.4077805941416757 0 0 0
1336 5254 1 -0.8 10.498675029744565 55.95847113876831 0.5821033208089231 0 0 0
1321 611 3 1.6 5.698095490128065 57.50609157325354 1.870952925818417 0 0 0
1323 612 3 1.6 5.788919682983485 57.549822848923455 4.940198285660041 0 0 0
1331 961 3 1.6 8.259675160054872 58.93058113723511 1.0631059385621158 0 0 0
1337 962 3 1.6 10.739240140614651 57.17962777789585 1.5986481588023225 0 0 0
1339 963 3 1.6 10.6855217797839 57.274053117202655 4.613668632903986 0 0 0
1327 4541 1 -0.8 7.232386880955076 57.751313312440224 1.439734224104858 0 0 0
1326 4543 1 -0.8 7.305081956774029 57.011185227686276 5.046305666372167 0 0 0
1332 4578 1 -0.8 7.994430620706245 60.16960168947503 2.0548425524806255 0 0 0
1335 4583 1 -0.8 9.744656905526003 0.021090788051226328 5.035022326816038 0 1 0
1334 5307 1 -0.8 9.781180503106961 58.41275380424949 1.1883983400399312 0 0 0
1338 5308 1 -0.8 10.4146457864798 56.742886774754666 3.1165893759314325 0 0 0
1340 5310 1 -0.8 10.318587639803708 58.84410049752968 4.707607438440767 0 0 0
1347 1181 3 1.6 13.197386470843169 58.90012061861518 1.1108035716754425 0 0 0
1353 1182 3 1.6 15.936588837845482 57.51045458742861 1.6758883082481595 0 0 0
1355 1183 3 1.6 15.77694371356093 57.286741484217885 4.71123023240272 0 0 0
1343 5309 1 -0.8 12.284194005147123 57.64368959448636 1.5340918119937859 0 0 0
1342 5311 1 -0.8 12.23826125515757 57.09059064627104 5.00617269092134 0 0 0
1348 5358 1 -0.8 12.74824800187687 60.21677905018251 1.930076972082543 0 0 0
1351 5363 1 -0.8 14.695390001438366 61.35072373713887 5.229911572613058 0 0 0
1352 5744 1 -0.8 15.81416632082263 56.293807882580374 0.6351792949507012 0 0 0
1350 5797 1 -0.8 14.753117405943067 58.57806279784431 1.4027697847504177 0 0 0
1354 5798 1 -0.8 15.811986428134857 56.87648513793941 3.1569943107266396 0 0 0
1356 5800 1 -0.8 15.315817431788176 58.829263963704854 4.7732062415516285 0 0 0
1344 5313 1 -0.8 12.18808615306329 60.55234098606588 5.470388839311269 0 0 0
63 1212 3 1.6 18.228359559682602 61.33456222108036 4.565737747890759 0 -1 0
62 5847 1 -0.8 18.00863431229606 61.00213681715678 3.0073249187612436 0 -1 0
1363 1291 3 1.6 18.446623260806533 58.86406685630096 0.47592686582578997 0 0 0
1369 1422 3 1.6 20.89985689783977 57.46678021256497 1.8084528445315042 0 0 0
1371 1423 3 1.6 21.11872368351822 57.60307594485232 4.894288520697976 0 0 0
1359 5799 1 -0.8 17.370195969779015 58.237126198785404 1.5033896089714465 0 0 0
1358 5801 1 -0.8 17.25576959169768 57.16040054100322 5.358206756688435 0 0 0
1364 5848 1 -0.8 18.420013490501468 60.48097300339172 0.512539093936642 0 0 0
1367 5850 1 -0.8 19.76907908752669 61.02238484893797 4.965187342939914 0 0 0
1366 6037 1 -0.8 19.926964797326157 58.35962729752776 0.8765021747847057 0 0 0
1370 6364 1 -0.8 20.782089555046973 57.94530942437629 3.348917223394698 0 0 0
1379 1421 3 1.6 23.477208492963477 58.78558466476606 0.866728322224559 0 0 0
1385 1496 3 1.6 26.244812430703103 57.724628042306264 1.7817304796851567 0 0 0
1387 1497 3 1.6 26.255605181282355 57.39621482594658 4.800390998814711 0 0 0
1380 6054 1 -0.8 23.280765955953957 60.00141816276374 1.9050080819568576 0 0 0
1383 6059 1 -0.8 24.82249010556949 60.79426095391713 4.9367337663266335 0 0 0
1374 6303 1 -0.8 22.48638285087455 56.740921538395554 4.966295537999497 0 0 0
1375 6362 1 -0.8 22.4141968041783 57.64540981374283 1.2688015856227468 0 0 0
1382 6363 1 -0.8 24.9928340943674 58.23029711605408 0.9004427392687782 0 0 0
1384 6498 1 -0.8 26.787506058033724 56.30843718004072 1.2701942413750047 0 0 0
1391 6516 1 -0.8 27.488077115490704 58.747441547298955 1.6624464446800291 0 0 0
1386 6517 1 -0.8 25.73074099828071 57.49895977944663 3.28397043764425 0 0 0
1390 6518 1 -0.8 27.544410338487552 56.4414077247592 4.930846644563522 0 0 0
1388 6519 1 -0.8 26.70049663546714 58.88958826479493 5.188319553809999 0 0 0
1395 1616 3 1.6 28.76358350716044 58.91301505691991 0.6719465542301056 0 0 0
1401 1617 3 1.6 31.24729842253595 57.7429387536511 2.045812470173139 0 0 0
1403 1618 3 1.6 31.24066853861765 57.55953796337931 5.085928120232172 0 0 0
1396 6553 1 -0.8 29.315687874047306 60.42178338333677 0.7852858067725078 0 0 0
1399 6558 1 -0.8 29.883509290414327 60.6755546926094 5.335336379212693 0 0 0
1400 6749 1 -0.8 31.891732486072623 56.299827688277524 1.8066147335443925 0 0 0
1398 6802 1 -0.8 29.96490957272281 57.92735220552735 1.0822342927978292 0 0 0
1402 6803 1 -0.8 30.77037273406776 57.894660865868794 3.5789970430516242 0 0 0
1407 6804 1 -0.8 32.377774081146526 58.86281846960974 1.7381591984077212 0 0 0
1406 6806 1 -0.8 32.45058950000284 56.493737971324165 5.027525213155788 0 0 0
1411 1701 3 1.6 33.58787978483142 59.21804640482744 0.7346188754762107 0 0 0
1427 1826 3 1.6 38.6483128032244 59.45571211597035 0.7736782709993365 0 0 0
1417 1827 3 1.6 36.24625460322619 58.132774008149234 1.8062355178745693 0 0 0
1419 1828 3 1.6 36.152150998564075 57.3980861332717 4.817936424464045 0 0 0
1412 6853 1 -0.8 34.081512528294844 60.72964364611317 0.9601220501159072 0 0 0
1415 6855 1 -0.8 34.77638590856125 60.7424965725746 4.691585669511051 0 0 0
1414 6992 1 -0.8 34.897521866360236 58.3256416197092 0.9555189664028366 0 0 0
1424 7014 1 -0.8 37.44786950011376 60.81651492555838 4.762709416708573 0 0 0
1416 7250 1 -0.8 37.02558734867758 56.9231096508644 1.0978437142847057 0 0 0
1422 7254 1 -0.8 37.62586730044111 56.744197603463675 4.704116701787139 0 0 0
1423 7313 1 -0.8 37.32029277714356 59.3379908341433 1.7025998363984296 0 0 0
1418 7314 1 -0.8 35.76551104612556 57.85577729035975 3.3203558783928435 0 0 0
1421 1829 3 1.6 36.11074627298703 60.340308627836485 5.49853164483742 0 0 0
1428 7009 1 -0.8 39.23407882453979 60.944953477857936 0.8889861340796302 0 0 0
1443 2001 3 1.6 43.70104167353675 59.14877658829237 0.6733234164654125 0 0 0
1433 2002 3 1.6 41.168620791694316 57.73238895604832 1.7858250930174004 0 0 0
1435 2003 3 1.6 41.54350228386957 57.62977709177639 4.807345568959369 0 0 0
1429 7253 1 -0.8 40.308432695804626 56.6182450214879 4.983009630566093 0 0 0
1430 7312 1 -0.8 39.830219018552356 58.43907431595401 1.2161369155529405 0 0 0
1444 7354 1 -0.8 43.46908744659336 60.489255863760484 1.5541913221478447 0 0 0
1440 7358 1 -0.8 42.38318802710211 61.07753859665514 5.149459284046274 0 0 0
1432 7680 1 -0.8 40.99317040133852 56.130077645956625 1.671057255512568 0 0 0
1438 7683 1 -0.8 42.980767262338254 56.9068751258991 4.971493496416942 0 0 0
1439 7742 1 -0.8 42.49354807663857 58.117101237040856 0.947749045463519 0 0 0
1434 7744 1 -0.8 41.416884870548316 58.21879132534419 3.309044416952652 0 0 0
1449 2126 3 1.6 46.20533697188133 57.63850948326818 1.8833654255117782 0 0 0
1451 2127 3 1.6 46.60063822841725 57.764694217866804 4.891630888853474 0 0 0
1459 2446 3 1.6 48.80396337092637 58.664902431835955 0.47826059257614906 0 0 0
1447 7359 1 -0.8 45.05497254475325 61.00977974816337 4.983265965163029 0 0 0
1446 7743 1 -0.8 45.145297292627326 58.4732152467576 0.9875192078555116 0 0 0
1448 8003 1 -0.8 46.037917354822746 56.046176841518566 1.6891145002220989 0 0 0
1455 8021 1 -0.8 47.73009060433465 58.01427254549316 1.485591287908502 0 0 0
1450 8022 1 -0.8 45.97171997952123 58.00196335719606 3.4304109549433166 0 0 0
1454 8023 1 -0.8 47.94132904122203 56.86707407391898 4.790151972447034 0 0 0
1452 8024 1 -0.8 46.92914771897338 59.19664679387898 5.541372058469171 0 0 0
1460 8058 1 -0.8 48.85794310530705 60.26085898751971 0.7571875917400255 0 0 0
1465 2447 3 1.6 51.45014020994248 57.49273025191143 1.6186085327576232 0 0 0
1467 2448 3 1.6 51.54739654207617 57.39120676908465 4.526523178481869 0 0 0
1475 2676 3 1.6 53.98902324137449 58.92315907637411 0.7916268572189552 0 0 0
1463 8063 1 -0.8 50.059477676989914 60.77048445117236 4.982153089672206 0 0 0
1464 8749 1 -0.8 52.02791354511702 56.06334137455008 1.1611525858181075 0 0 0
1462 8802 1 -0.8 50.27740335084059 58.02115978325584 0.6563588423044959 0 0 0
1466 8803 1 -0.8 50.846095055900705 57.33192624032993 3.090002005316071 0 0 0
1471 8804 1 -0.8 52.697323270464885 58.51600164271737 1.6632201191602343 0 0 0
1468 8805 1 -0.8 51.93583307468136 58.91787262377138 4.82950018894354 0 0 0
1470 8806 1 -0.8 52.901549993046295 56.51779926410315 4.482183070313676 0 0 0
1476 8853 1 -0.8 54.60594664648513 60.29587012028961 1.3584914686039091 0 0 0
1479 8855 1 -0.8 55.14537688423499 60.677168069354074 4.9376866918523 0 0 0
1478 9257 1 -0.8 55.111121123902585 57.7642004101001 0.7750603771720356 0 0 0
1473 2658 3 1.6 54.03273860299153 55.86540463505924 5.421777489453612 0 0 0
1477 9220 1 -0.8 55.52515312754806 56.201124166584115 4.91929036793203 0 0 0
1491 3076 3 1.6 58.80176598942826 58.85290095599876 0.6042944466240079 0 0 0
1481 3077 3 1.6 56.40224176074198 57.188732960372896 1.546931764257684 0 0 0
1483 3078 3 1.6 56.63419910150573 57.311341545831645 4.548048694935143 0 0 0
1494 4099 1 -0.8 60.32196244551346 58.37891193296532 0.8975524798544331 0 0 0
1493 4101 1 -0.8 60.57039631723862 56.0734819395882 5.223379124290475 0 0 0
1495 4103 1 -0.8 60.277915808855816 60.71381191373855 4.856972340774122 0 0 0
1492 9273 1 -0.8 58.36188487780763 60.09151409160344 1.5401158167033462 0 0 0
1486 9831 1 -0.8 58.093389236825935 56.630784717994594 4.598586419316982 0 0 0
1487 9872 1 -0.8 57.78350641879865 57.636900775309336 0.8525387164093959 0 0 0
1482 9873 1 -0.8 56.35660876902804 57.78543111142484 3.0410959250395666 0 0 0
16 3117 1 -0.8 4.779021257004129 3.6180004985399843 5.665382316133205 0 0 0
14 4 3 1.6 3.246199847588405 3.334984194003123 6.058075922161201 0 0 0
13 3113 1 -0.8 2.9734271901850335 1.7422147945661326 5.96401355266395 0 0 0
1500 5 3 1.6 3.164298477092306 3.1554898466009784 9.012570699317813 0 0 0
1497 6 3 1.6 0.5557238111269427 1.7646253814162467 9.851720895537676 0 0 0
1499 3118 1 -0.8 3.014207242283631 3.837188780217818 7.564518810094976 0 0 0
1501 3119 1 -0.8 3.0462500474185448 4.284924869224677 10.14936878002233 0 0 0
1498 3120 1 -0.8 1.9721734461285552 2.08716536817763 9.155315729800416 0 0 0
1502 3121 1 -0.8 4.61335220268475 2.455039985325064 9.107456588715186 0 0 0
1496 3124 1 -0.8 0.3890967164079006 0.15666613717307679 9.815192596778862 0 0 0
31 634 3 1.6 8.192768951030953 3.5711457087149263 6.047072166410075 0 0 0
33 4584 1 -0.8 9.702910388687743 4.124332900456605 5.900046533460784 0 0 0
1328 4545 1 -0.8 7.235113687956754 60.89275712120622 5.58288671933579 0 0 0
1504 422 3 1.6 5.85794590492774 2.0820937120885508 10.06242378268599 0 0 0
1507 635 3 1.6 8.210820341432854 3.6832672210223496 9.014965813391386 0 0 0
1511 636 3 1.6 10.402241086069196 1.595910150846157 9.783249941463803 0 0 0
1505 4160 1 -0.8 7.014271992153501 3.197487945823735 9.975763808611754 0 0 0
1503 4161 1 -0.8 6.469902686101868 0.6707167118173091 9.586810669946525 0 0 0
1506 4585 1 -0.8 7.646746416155559 3.8878183466183494 7.524773130718552 0 0 0
1508 4586 1 -0.8 8.78056173998851 5.089099315283007 9.510320765309805 0 0 0
1509 4587 1 -0.8 9.415921259850595 2.610229473840797 9.00333494516836 0 0 0
1510 4589 1 -0.8 10.1130981966347 0.108763636440431 9.235722276238436 0 0 0
48 994 3 1.6 13.131409171702765 3.2186293376572848 6.177701846931773 0 0 0
47 5362 1 -0.8 12.824095139192053 1.6413656873573816 6.073110148333966 0 0 0
50 5364 1 -0.8 14.698360404757295 3.4485759225869086 5.86226820579149 0 0 0
1514 995 3 1.6 12.901944993249955 3.2512652902114723 9.19126270472198 0 0 0
1518 996 3 1.6 15.517225201732263 1.703287835341501 9.75128087816869 0 0 0
1512 4590 1 -0.8 11.94020992311089 1.9928067618087542 9.485726647865615 0 0 0
1513 5365 1 -0.8 12.76267722616273 3.7191741304093546 7.657320603055047 0 0 0
1515 5366 1 -0.8 12.479762107417093 4.486033427891551 10.12670849260195 0 0 0
1516 5367 1 -0.8 14.445246411312713 2.8615291942287806 9.446842003138762 0 0 0
1517 5369 1 -0.8 15.279196746490918 0.4719616948238568 8.744442777750873 0 0 0
65 1213 3 1.6 18.16925272337644 2.819586489490068 5.615924178320485 0 0 0
67 5851 1 -0.8 19.723609444623822 3.2046622304220707 5.443160538008182 0 0 0
1521 1214 3 1.6 18.07159589275825 3.030495769086409 8.65092450336633 0 0 0
1525 1306 3 1.6 20.648647677903888 1.8590473047222469 9.909703912054011 0 0 0
1519 5370 1 -0.8 17.023196777995025 2.2795016138179665 9.622832665638157 0 0 0
1520 5852 1 -0.8 17.845301938170913 2.4848749616925505 7.155689126045724 0 0 0
1522 5853 1 -0.8 17.85071130384936 4.627671791221915 8.718811752910224 0 0 0
1523 5854 1 -0.8 19.6001111173535 2.7372923236278233 9.065709614127861 0 0 0
1524 6067 1 -0.8 20.221071658576165 0.3085089315627667 9.851889805367158 0 0 0
82 1304 3 1.6 23.600135356640013 3.4053446472391204 5.790889746141854 0 0 0
1376 6058 1 -0.8 22.318654630685522 0.005735425397446923 5.665933084758476 0 1 0
1528 1305 3 1.6 23.13373484204239 3.3012454098955866 8.908579999660066 0 0 0
1532 1452 3 1.6 25.872340367962387 2.031984091674486 9.734409345982055 0 0 0
1527 6062 1 -0.8 23.156795341885108 3.6205506613984393 7.328473397991585 0 0 0
1529 6063 1 -0.8 22.624964285512757 4.593854433226408 9.713425260561145 0 0 0
1526 6064 1 -0.8 22.136186388647 2.080501874118855 9.29028951076033 0 0 0
1530 6065 1 -0.8 24.65685562728083 3.0078758543573048 9.346363638383309 0 0 0
1533 6405 1 -0.8 27.293689717999683 2.7842682928286333 9.589374150981275 0 0 0
1531 6406 1 -0.8 25.850015304060197 0.7447430504847051 8.778068052259776 0 0 0
1392 6520 1 -0.8 27.34175704561312 61.38705440015305 5.461207807496808 0 0 0
99 1519 3 1.6 28.796833543632637 3.019899779262626 5.883234872193484 0 0 0
101 6559 1 -0.8 29.9293807257384 4.149974926257445 5.667245148381196 0 0 0
110 6627 1 -0.8 32.54712999106775 3.720527542619749 5.76043875145508 0 0 0
1535 1520 3 1.6 28.783598052991497 2.9210707913781273 8.961408010199191 0 0 0
1539 1521 3 1.6 31.203632332472868 1.3461007521403594 10.276184293427574 0 0 0
1534 6560 1 -0.8 28.786932669261393 2.4736285980294976 7.409891696614568 0 0 0
1536 6561 1 -0.8 29.207872485149416 4.473490425705051 8.992661212902265 0 0 0
1537 6562 1 -0.8 29.79553663950185 2.0129887656674184 9.83684289881169 0 0 0
1540 6565 1 -0.8 32.36869645144373 1.7287688576355393 9.229156207772634 0 0 0
1408 6808 1 -0.8 32.395512276715834 0.10237041068478675 5.567183228052892 0 1 0
116 1648 3 1.6 34.04964161871781 3.143834486647648 5.993110488598503 0 0 0
118 6856 1 -0.8 35.17892112896564 4.269279392071 5.725483547753266 0 0 0
127 7016 1 -0.8 37.83755108380264 4.074590576433519 5.98919402563806 0 0 0
1542 1649 3 1.6 33.66791823124266 2.6638532125226746 9.022034995965779 0 0 0
1549 1715 3 1.6 38.94659047237512 2.7027443425313225 9.311565145044073 0 0 0
1546 1716 3 1.6 36.27469471555921 1.5697130250627256 10.340497253304136 0 0 0
1541 6857 1 -0.8 34.20159479454639 2.5776675716875728 7.501429802409419 0 0 0
1543 6858 1 -0.8 33.23599109054265 4.165492227037146 9.345575967503489 0 0 0
1544 6859 1 -0.8 34.82794185570876 2.203121872084114 10.040196349084917 0 0 0
1547 7020 1 -0.8 37.461844908186166 2.586917617357036 9.938721319347252 0 0 0
1545 7022 1 -0.8 36.47946231553763 0.24596795624963289 9.459906373959084 0 0 0
1637 1667 3 1.6 33.57669960961676 5.631965051229189 10.012875564158094 0 0 0
1550 7018 1 -0.8 39.557843791365364 4.1712324570716195 9.587419917919801 0 0 0
133 1714 3 1.6 39.00255015825008 2.968788098358524 6.18853845113312 0 0 0
150 1859 3 1.6 44.03353003688612 3.3610768732654526 6.066917663489339 0 0 0
135 7015 1 -0.8 40.46574742558228 3.5953628405214686 5.824814304599212 0 0 0
149 7357 1 -0.8 43.8242547577121 1.7691202513677646 5.881666550890981 0 0 0
1548 7017 1 -0.8 38.955359335277144 2.4260856533484962 7.717821490907116 0 0 0
1556 1860 3 1.6 43.603777969821635 3.2249396232912093 9.055809414012682 0 0 0
1553 1861 3 1.6 41.46464180979466 1.4791970713538098 10.345846512773015 0 0 0
1551 7019 1 -0.8 39.88963435415873 1.6413428305364612 10.067627807243138 0 0 0
1555 7362 1 -0.8 43.66829396739329 3.8108551925245493 7.563637487168438 0 0 0
1557 7363 1 -0.8 43.67086635907606 4.493592255281791 10.0573945455896 0 0 0
1554 7364 1 -0.8 42.26987790571477 2.3456767403041927 9.25058204559834 0 0 0
1552 7367 1 -0.8 41.803689568039026 61.29965363841564 10.23974843831856 0 -1 0
152 7361 1 -0.8 45.57537114619794 3.730032965313922 5.763983969264392 0 0 0
167 2149 3 1.6 49.232165041527516 3.229441158804255 5.728933050006476 0 0 0
1456 8025 1 -0.8 47.577955241409335 0.2923502873671561 5.582956021848079 0 1 0
1560 2032 3 1.6 46.30044627519772 2.0321493719537425 9.939859005363882 0 0 0
1563 2150 3 1.6 48.803595920885954 3.2841015275861176 8.776032677423176 0 0 0
1558 7365 1 -0.8 44.86644567773182 2.2417835899275222 9.244736079723877 0 0 0
1561 7785 1 -0.8 47.32823106726059 3.159520552512021 9.418024348787595 0 0 0
1559 7786 1 -0.8 46.87602275007389 0.5725152270331242 9.563358727695828 0 0 0
1562 8065 1 -0.8 48.7480636296727 2.8552752295202146 7.222033970414783 0 0 0
1564 8066 1 -0.8 49.35454430547706 4.785098632546742 8.977043981762295 0 0 0
184 2478 3 1.6 54.106492908447166 3.264480398561422 5.795467692833007 0 0 0
169 8064 1 -0.8 50.609524853856065 4.050135793503346 5.863112040871686 0 0 0
1567 2151 3 1.6 51.228104822282795 1.579894927872523 9.756216642761794 0 0 0
1570 2479 3 1.6 53.76506164369417 3.1413613495067096 8.812698905723273 0 0 0
1565 8067 1 -0.8 49.8032153530506 2.2921633210887724 9.548750908493389 0 0 0
1566 8069 1 -0.8 51.38479287954254 0.36385795148432937 8.719034429773368 0 0 0
1568 8070 1 -0.8 52.45061900225742 2.6386803400677525 9.612372449174982 0 0 0
1569 8857 1 -0.8 53.419732217387626 3.1820544295949698 7.247102143652055 0 0 0
1571 8858 1 -0.8 54.24864905527208 4.611246231620003 9.288124594900458 0 0 0
1572 8859 1 -0.8 55.001753184584125 2.1218317892930836 9.017474166743197 0 0 0
200 9276 1 -0.8 59.37584487796863 1.6519100404137002 5.657205075454019 0 0 0
186 8856 1 -0.8 55.50517115928825 4.0667922247399835 5.888831476645715 0 0 0
201 2689 3 1.6 59.07010730166936 3.218361725331602 5.883243443682629 0 0 0
203 3202 1 -0.8 60.42736515759823 4.099972535867928 5.798634055321965 0 0 0
1577 2690 3 1.6 58.77041957125643 3.4863303527574865 8.904880061501382 0 0 0
1574 2691 3 1.6 56.32830196338111 1.8246977204177515 9.881120814739289 0 0 0
1579 3122 1 -0.8 60.04179801123015 2.495414801208169 9.10545036388097 0 0 0
1576 9279 1 -0.8 58.41865709344275 3.468898110281983 7.336593181340884 0 0 0
1578 9280 1 -0.8 59.13254362042178 4.993986048420976 9.37187467970095 0 0 0
1575 9281 1 -0.8 57.47343980189048 2.953040315334231 9.698643404918256 0 0 0
1573 9283 1 -0.8 56.90963051691263 0.38157487741589435 9.447344584732905 0 0 0
217 3277 1 -0.8 3.3404051515408804 10.935291981268541 5.560917643636732 0 0 0
206 34 3 1.6 0.8064506291032525 7.888034538009717 6.334758699432811 0 0 0
205 3203 1 -0.8 0.9952510113673553 6.4342463756323145 5.63598907482026 0 0 0
209 3205 1 -0.8 2.230607358414726 8.655591686389501 6.39625523222779 0 0 0
1586 35 3 1.6 3.2055383168705975 5.881207604164097 10.266954418040651 0 0 0
1581 36 3 1.6 0.9146230795261366 7.623718516175529 9.330325938447034 0 0 0
1583 64 3 1.6 0.8682703740541923 10.464625613166527 10.407031322221702 0 0 0
1580 3206 1 -0.8 0.2997285474958202 7.7368746787932725 7.848072931707711 0 0 0
1584 3208 1 -0.8 2.1480601010747518 6.5920395754891 9.286809181925499 0 0 0
1587 3209 1 -0.8 4.713597936463227 6.300041839293574 9.885662174227852 0 0 0
1582 3210 1 -0.8 1.4275783845054808 9.0412310561749 9.898739006967254 0 0 0
1589 4186 1 -0.8 5.227520008607339 7.084100755137432 7.4572761224241315 0 0 0
1591 4187 1 -0.8 5.105642509542551 8.865513746756903 9.481853627719484 0 0 0
1592 452 3 1.6 5.5463693797094376 10.184452467889393 10.316544654067027 0 0 0
221 433 3 1.6 5.599285780256643 7.3809564091470286 5.915737107731174 0 0 0
236 664 3 1.6 10.786056784762037 7.671243319314136 5.998882264786309 0 0 0
224 4185 1 -0.8 7.1705200797811175 7.743908003699931 5.812197945844167 0 0 0
232 4716 1 -0.8 7.7928578504486845 10.2080809421297 6.4447245589359685 0 0 0
1590 434 3 1.6 5.54639374188106 7.369663126515017 9.015903678202223 0 0 0
1595 665 3 1.6 8.317449139598681 6.494251116048764 10.127635767152007 0 0 0
1599 666 3 1.6 10.764202861749332 7.800914724851963 9.01670638711178 0 0 0
1601 694 3 1.6 10.746776542681607 10.644264669317158 10.13314266257364 0 0 0
1593 4188 1 -0.8 7.129576158943941 7.170084330836379 9.265977568941212 0 0 0
1598 4655 1 -0.8 10.327137032202296 7.368593574440837 7.520149297594811 0 0 0
1596 4657 1 -0.8 9.617250141287688 7.432383001434591 10.086668072455955 0 0 0
1600 4658 1 -0.8 10.963587438971649 9.396763661734637 9.126729582291054 0 0 0
1594 4225 1 -0.8 7.091754196512435 10.492685735010328 9.967942087520427 0 0 0
251 1024 3 1.6 15.60143914828221 7.248801206457475 5.98057321935868 0 0 0
239 4654 1 -0.8 12.230840856771495 8.40222640846443 6.051105523138595 0 0 0
247 5496 1 -0.8 13.655889547567863 10.649378032554877 5.99237398380852 0 0 0
1604 1025 3 1.6 12.958761057291941 6.00889395593799 10.293103792723246 0 0 0
1608 1026 3 1.6 15.403717563858425 7.223381610597662 9.120296654532995 0 0 0
1610 1054 3 1.6 15.47259044828113 10.116476481179607 10.159702663264289 0 0 0
1602 4659 1 -0.8 12.122889736147028 6.999939156183935 9.334588204272642 0 0 0
1607 5435 1 -0.8 15.11937304349183 7.141710227692103 7.525991391131107 0 0 0
1605 5437 1 -0.8 14.514929990036354 6.107924667376125 9.874553516393766 0 0 0
1609 5438 1 -0.8 14.949847292045344 8.64438566000424 9.74279562660849 0 0 0
261 1242 3 1.6 18.41391791742331 8.581014416963876 5.652204322252283 0 0 0
262 5914 1 -0.8 17.910224232136724 10.059492729019308 6.125865307314231 0 0 0
265 6136 1 -0.8 20.67277411310147 5.550164203679681 6.051317330802494 0 0 0
266 1334 3 1.6 21.05278966369268 7.080061901295295 6.44478426977392 0 0 0
254 5434 1 -0.8 17.17915025092447 7.558899832414458 5.943615532553503 0 0 0
263 5913 1 -0.8 19.70008119812539 7.975412884605256 6.423978578673022 0 0 0
1613 1232 3 1.6 18.081553782371415 5.871616155940442 9.7269179094222 0 0 0
1617 1336 3 1.6 20.887270594694602 7.416003910480583 9.416398492367708 0 0 0
1619 1364 3 1.6 20.743618858365945 10.35213614331999 10.39493055812927 0 0 0
1611 5439 1 -0.8 16.97273884020069 6.989447841311955 9.393413217367204 0 0 0
1614 5895 1 -0.8 19.583842397113887 6.455561760573053 9.623396028534435 0 0 0
1616 6138 1 -0.8 21.51420926836265 7.0544836320576 7.976602175447184 0 0 0
1618 6142 1 -0.8 20.42433103957278 8.94579504452794 9.617994162978531 0 0 0
1612 5499 1 -0.8 17.026488879838205 10.194566558731998 9.734295416394625 0 0 0
281 1463 3 1.6 26.023009052256512 7.579218303043537 5.883936101586616 0 0 0
284 6430 1 -0.8 27.26490533863112 8.591106408210393 5.723912092864473 0 0 0
1622 1335 3 1.6 23.23568183884568 5.926009832995995 10.401158295524512 0 0 0
1626 1464 3 1.6 25.822531838625746 7.063032066157166 8.824530847626558 0 0 0
1620 6140 1 -0.8 22.05411178617111 7.012886325740992 10.441336771521884 0 0 0
1623 6141 1 -0.8 24.587009092558933 6.313658395262513 9.57883219127114 0 0 0
1625 6431 1 -0.8 25.379159653729275 7.540155029064783 7.354538143151844 0 0 0
1627 6432 1 -0.8 26.182591054079356 8.360802129130645 9.662130041454205 0 0 0
1629 6433 1 -0.8 27.168838531597487 6.152636992539669 8.754628129968305 0 0 0
1628 10121 3 1.6 25.223281943152678 9.320670464782859 10.476952430436034 0 0 0
1717 6228 1 -0.8 22.289526345520557 9.615292692728856 7.527777749286814 0 0 0
1624 6229 1 -0.8 23.7745582561376 9.258799315432844 9.815856117318594 0 0 0
450 10089 3 1.6 22.109232572677456 10.387458607285657 6.159818806472423 0 0 0
452 10089 2 0.4 22.168530054425602 10.771014388962218 7.083670099176916 0 0 0
1718 9912 3 1.6 23.063774645255567 10.235644784650875 8.776869876016438 0 0 0
1719 9912 1 -0.8 24.4362443622789 10.767815001664337 8.26783319439146 0 0 0
1716 9912 2 0.4 24.053200545527382 10.057915126774176 8.894658529001587 0 0 0
1720 10121 1 -0.8 25.887659700702105 10.69440201756078 10.758223825482192 0 0 0
296 1549 3 1.6 31.394404284210406 7.369029071574852 5.880027499307228 0 0 0
293 6628 1 -0.8 29.83095309985497 7.775031700583158 5.8437601454282655 0 0 0
1630 1550 3 1.6 28.59480596882578 5.886155547002989 9.494586552315353 0 0 0
1633 1551 3 1.6 31.290967000558474 7.281468284293439 8.93367940658594 0 0 0
1632 6630 1 -0.8 31.707447890911034 6.961356229968226 7.415154493169312 0 0 0
1631 6632 1 -0.8 29.70569008244715 7.029516543471163 9.203533302268315 0 0 0
1634 6633 1 -0.8 31.809673053379157 8.73748988684819 9.334770288131224 0 0 0
1636 6634 1 -0.8 32.12722934017279 6.3236022830222876 9.917495158550201 0 0 0
1635 10286 3 1.6 32.56492556702072 8.877636069456717 10.732152935783162 0 0 0
1724 10286 2 0.4 33.07622744364287 7.143221022207149 10.462083370515051 0 0 0
311 1744 3 1.6 36.483926587409414 7.645071485806772 6.1680150095591335 0 0 0
308 6918 1 -0.8 34.93646056275708 8.0266583028118 6.005208872079573 0 0 0
314 7092 1 -0.8 37.47139919885891 8.79984100687748 5.614280430413382 0 0 0
1640 1746 3 1.6 36.33605166063251 6.7124318446207365 9.144426338104186 0 0 0
1638 6900 1 -0.8 34.83824379514214 6.13375409363285 9.120645886135588 0 0 0
1639 7093 1 -0.8 36.824905731661666 7.185780938526507 7.672634318645322 0 0 0
1643 7096 1 -0.8 37.44498178273264 5.6051864957098605 9.567888423842296 0 0 0
1641 7097 1 -0.8 36.57566327745169 7.848161792862717 10.22351365819418 0 0 0
1642 10154 3 1.6 36.750046446887964 9.364356842334939 9.842023759092825 0 0 0
1644 7148 1 -0.8 38.24588854393406 9.513206891413411 9.244169752380147 0 0 0
1726 10154 2 0.4 36.10384119747053 8.712660394543965 9.34151033842532 0 0 0
1728 9947 2 0.4 38.952193284211 10.073706523704027 8.910504749433965 0 0 0
1727 10154 1 -0.8 35.630953345826725 9.365255353722775 8.755707805668877 0 0 0
2437 7147 1 -0.8 36.48241708713342 10.287985547330589 11.099606842159982 0 0 0
326 1889 3 1.6 41.12837279757344 7.60322664599473 5.861395705819105 0 0 0
329 7437 1 -0.8 42.61856632751705 8.259189307046405 5.7449203112126055 0 0 0
1645 1745 3 1.6 38.93259307697483 5.536981181246818 10.186509156198543 0 0 0
1654 1890 3 1.6 43.74451487750301 6.118687519836665 10.008389807281592 0 0 0
1649 1891 3 1.6 41.08877252679799 7.495377383549431 8.955379363474592 0 0 0
1651 1919 3 1.6 41.552243766760505 10.584828306193755 9.811223692480024 0 0 0
1646 7095 1 -0.8 39.91089910262553 6.787532665687227 9.832515831147978 0 0 0
1648 7438 1 -0.8 40.668832542154824 7.479282163836824 7.401285541230461 0 0 0
1652 7440 1 -0.8 42.49593948805791 6.655471664848118 9.11844456898266 0 0 0
1650 7442 1 -0.8 41.40617495478607 9.001686127380237 9.42299018148727 0 0 0
1730 7177 1 -0.8 39.75058213104033 10.376322764109066 7.313506588440805 0 0 0
1731 9947 3 1.6 38.946929573318776 10.794725268805948 8.623899627649712 0 0 0
1647 7178 1 -0.8 40.08267226204675 11.19396353255071 9.6584948216742 0 0 0
341 2043 3 1.6 46.52507584048193 7.666274272373976 6.218898262394952 0 0 0
340 7809 1 -0.8 46.7757068271062 6.064080595815864 6.192682811937852 0 0 0
344 7810 1 -0.8 47.874748754224875 8.439736468396019 5.765543045223876 0 0 0
1658 2044 3 1.6 46.40713724325991 7.614133696332893 9.15808008815692 0 0 0
1660 2062 3 1.6 46.43342898921117 10.41522919586707 10.405089604506044 0 0 0
1663 2180 3 1.6 49.06333840557853 6.1447241279904015 9.789424097842987 0 0 0
1655 7441 1 -0.8 45.21093441652777 6.561851147538287 9.46480588291687 0 0 0
1657 7811 1 -0.8 46.128408953408204 8.18339430300965 7.685414931696409 0 0 0
1659 7812 1 -0.8 46.54204397063118 8.798746081662449 10.239383943501673 0 0 0
1661 7813 1 -0.8 47.85789256724518 6.908966635267878 9.06036317779316 0 0 0
1734 7531 1 -0.8 44.74407246799613 11.010339106773555 7.3459492567179785 0 0 0
1656 7536 1 -0.8 44.931944169733335 10.774720927122452 9.976507082717308 0 0 0
356 2179 3 1.6 51.576726546629516 7.813001820441561 6.019244620040168 0 0 0
359 8134 1 -0.8 52.93047799456381 8.695887716405489 6.025382097371115 0 0 0
1667 2181 3 1.6 51.53983127232268 7.76526533777094 9.00670714704641 0 0 0
1669 2209 3 1.6 51.5697929058586 10.566134825710913 10.44662944857898 0 0 0
1672 2497 3 1.6 53.99000134758917 6.093318706518614 9.875584452581542 0 0 0
1666 8135 1 -0.8 50.97390286281207 7.843191202840976 7.5046279239591795 0 0 0
1664 8137 1 -0.8 50.40061341395945 7.047407901596935 9.884213987992263 0 0 0
1668 8138 1 -0.8 51.86840066733939 9.244699826379069 9.562597077831414 0 0 0
1670 8139 1 -0.8 52.89201690161941 6.874463055524439 8.988432060764783 0 0 0
1665 8197 1 -0.8 50.02326615596288 11.015470464730488 10.258960181412958 0 0 0
371 2719 3 1.6 56.609559912615985 7.493831404972156 5.995501292802455 0 0 0
374 9336 1 -0.8 57.824812226123484 8.558438137965265 6.0847097092703715 0 0 0
1673 8900 1 -0.8 55.3605791521141 6.951555511298635 9.940251345250093 0 0 0
1681 2720 3 1.6 58.97349244873568 6.4157543992543395 10.134318064675819 0 0 0
1676 2721 3 1.6 56.39529095883046 7.740263574229186 8.988472494772648 0 0 0
1678 2749 3 1.6 56.27796549818979 10.588558598873194 10.100691836131098 0 0 0
1682 3211 1 -0.8 60.4364805695685 7.089702767716734 10.259136493729995 0 0 0
1675 9337 1 -0.8 56.09388426634335 7.235242036071743 7.492608324959866 0 0 0
1679 9339 1 -0.8 57.929736288865065 7.380910470152897 9.363370632651913 0 0 0
1677 9340 1 -0.8 56.15742014307745 9.338863738924413 9.086356327001022 0 0 0
388 84 3 1.6 0.8521038291901525 13.449474399311304 5.51243962267653 0 0 0
389 3331 1 -0.8 0.38464233690276844 14.998826184476716 5.522360732709068 0 0 0
393 83 3 1.6 3.340239725324295 12.194284252659685 6.5566088865287355 0 0 0
390 113 3 1.6 0.3634623044151628 16.296441585296705 6.495126156487568 0 0 0
391 3327 1 -0.8 2.330683737205191 13.351108089945976 6.101666479013266 0 0 0
397 3329 1 -0.8 4.7982240768604045 12.843737415381343 6.553930210626359 0 0 0
404 472 3 1.6 5.335242635431295 16.332622184743382 6.288571327465301 0 0 0
1690 85 3 1.6 3.037996333290952 14.973809420343752 10.601425799118678 0 0 0
1688 86 3 1.6 3.240989770155715 12.12532836422113 9.509991079364609 0 0 0
1685 115 3 1.6 0.43925830644700214 16.324531931304072 9.499693303431036 0 0 0
1585 3281 1 -0.8 2.053624155973716 11.552743613949792 10.418933405000367 0 0 0
1687 3328 1 -0.8 2.9363242243914054 11.67247165853381 8.005900671326446 0 0 0
1689 3333 1 -0.8 3.231298807384426 13.736723776233784 9.587428262162552 0 0 0
1686 3334 1 -0.8 1.6371469245383512 15.750775397616515 10.40774379166479 0 0 0
1691 3335 1 -0.8 4.25270121139308 16.010085456499823 10.379858026603326 0 0 0
1588 3336 1 -0.8 4.6621340702189 11.482583008912645 9.919194673784299 0 0 0
1684 3404 1 -0.8 0.6583041215167561 15.796870472104192 7.994283338300338 0 0 0
1693 473 3 1.6 5.4751885853079685 16.385933248601983 9.396791026267977 0 0 0
1692 4265 1 -0.8 5.006961373943051 16.172429201529617 7.861766328003531 0 0 0
403 4244 1 -0.8 5.954283300926846 14.986923815275569 5.632667410157458 0 0 0
417 4758 1 -0.8 10.410844885672272 14.570346166983173 5.680051551446498 0 0 0
407 713 3 1.6 7.962466993438869 11.80543563338004 6.559658997738223 0 0 0
418 743 3 1.6 9.956771144655018 15.914468790448524 6.466101995006929 0 0 0
411 4756 1 -0.8 9.49159177566325 12.193164469711016 6.286203594928311 0 0 0
1698 715 3 1.6 7.656236528782304 14.574740289909297 10.715794993923977 0 0 0
1696 716 3 1.6 7.923446045111257 11.809384944638634 9.558994167347958 0 0 0
1701 745 3 1.6 10.050863667483048 15.80230065339253 9.374124980539728 0 0 0
1694 4267 1 -0.8 6.707199968222649 15.385518028403903 9.690472180770424 0 0 0
1597 4717 1 -0.8 9.511843045909318 11.547676501060144 9.626184331888036 0 0 0
1695 4757 1 -0.8 7.5526708743088875 12.239923183404429 8.050833402920855 0 0 0
1697 4761 1 -0.8 7.4926027518153635 12.98670494184302 10.55991977249316 0 0 0
1699 4762 1 -0.8 9.185688086224644 14.953270232843089 10.435235567581882 0 0 0
1700 4812 1 -0.8 9.411429643463075 15.518632468133541 7.922303499375635 0 0 0
431 5538 1 -0.8 15.986540095125315 15.09421333444689 6.108442674694203 0 0 0
1606 5497 1 -0.8 14.58688426392456 11.192435374928497 9.325931913780721 0 0 0
421 1073 3 1.6 13.132075186028137 12.164404296210863 6.172343313883648 0 0 0
425 5536 1 -0.8 14.254996592554107 13.20370119221421 5.709470786396175 0 0 0
432 10047 3 1.6 15.05076756650912 16.050423724543894 7.020914894447944 0 0 0
571 5587 1 -0.8 13.593442691188235 16.020206043893744 6.421373970513914 0 0 0
1706 1075 3 1.6 12.785765001471388 14.901289550450223 10.39155399544182 0 0 0
1704 1076 3 1.6 13.285393671343526 12.15145092429063 9.25033992944161 0 0 0
1603 4719 1 -0.8 12.116136856872918 11.485049922455554 10.151348504106926 0 0 0
1702 4816 1 -0.8 11.557234151572226 15.261436993224404 9.429606144702577 0 0 0
1703 5537 1 -0.8 12.755956662004856 12.330761717751434 7.732395565239408 0 0 0
1705 5541 1 -0.8 13.57344717796435 13.599670684630802 9.848297197072153 0 0 0
1707 5542 1 -0.8 13.898001528998956 16.01970981513165 10.604477756571377 0 0 0
1708 5588 1 -0.8 15.248771446846863 15.509624872650623 8.508479840113012 0 0 0
1709 9961 3 1.6 15.373632589149828 15.978690593417442 10.018521318250096 0 0 0
1710 5590 1 -0.8 16.30383454830266 15.003704556281656 10.909249389010983 0 0 0
1786 9961 2 0.4 15.460038895323821 16.593760046088427 9.79716686843884 0 0 0
1615 5937 1 -0.8 19.37879960697722 11.2093087610166 10.439976239148441 0 0 0
435 1251 3 1.6 18.04147668299473 11.652772534591493 6.523448034993982 0 0 0
433 5539 1 -0.8 16.684244317286794 12.479834368530039 6.224296691466607 0 0 0
1712 1252 3 1.6 18.02871014510135 11.463712113667645 9.604993140019806 0 0 0
1711 5934 1 -0.8 18.419449115786673 11.720566507937315 8.075544645647307 0 0 0
1713 5936 1 -0.8 17.103611412841097 12.627634608685211 10.186406208582055 0 0 0
1714 10074 3 1.6 17.499699899185998 13.953478891959588 10.937312143568652 0 0 0
1715 10074 1 -0.8 18.672678309149724 14.286350804072796 9.973415521467684 0 0 0
1788 10074 2 0.4 17.971115321191327 13.574385417128221 10.16869930943356 0 0 0
451 10089 1 -0.8 22.147559169344188 11.774669739355007 6.8531190079594175 0 0 0
1621 6194 1 -0.8 21.97316922389606 11.03084376612392 9.62528284991873 0 0 0
1729 9947 1 -0.8 37.75113794967311 11.802299266610234 8.443079789652385 0 0 0
463 10165 3 1.6 40.05630713768676 11.312214006022302 6.06117360347216 0 0 0
462 10165 1 -0.8 39.84117577144343 12.621172696289614 6.8623093088962515 0 0 0
461 10165 2 0.4 39.845420386073485 11.621044263189523 6.971119995530898 0 0 0
1735 1937 3 1.6 44.213659303491276 11.565592599576124 8.762417956896348 0 0 0
1653 7494 1 -0.8 42.63360722328887 11.277640310636052 8.84044934954465 0 0 0
1733 9966 1 -0.8 43.05813536358626 13.635219684795649 10.296624841622034 0 0 0
1732 9966 2 0.4 43.87901633860819 13.306321914103671 9.840065482148667 0 0 0
1736 7534 1 -0.8 44.791931594977726 13.048209350408989 8.904599477790102 0 0 0
476 1936 3 1.6 44.77900940165392 11.449546904602801 5.80610675554536 0 0 0
489 2228 3 1.6 49.54137305159909 11.905360117950496 6.193145888841361 0 0 0
487 7868 1 -0.8 48.49626031703827 13.09851026372083 5.917448278573642 0 0 0
486 9904 3 1.6 46.433094131657974 15.87009551484007 6.651283650970279 0 0 0
584 9904 1 -0.8 45.04693741815869 16.42960194845157 7.114245119591292 0 0 0
581 9904 2 0.4 46.345430127321414 15.858881125998678 7.55831069796454 0 0 0
1737 9966 3 1.6 44.57548030184211 13.99434700563686 10.152774606681117 0 0 0
1740 2081 3 1.6 46.630792778702215 16.014162483717808 9.473361419417726 0 0 0
1745 2230 3 1.6 49.121187404957 14.755507446047476 10.324161373267286 0 0 0
1743 2231 3 1.6 48.99138746861069 11.757683450939881 9.241679228193801 0 0 0
1738 7535 1 -0.8 45.17771967032652 15.44040433264381 9.853545268385094 0 0 0
1662 7850 1 -0.8 47.49470308984157 11.183307586301023 9.449501534461271 0 0 0
1739 7889 1 -0.8 47.058375761167326 15.430336578128609 8.037410740250232 0 0 0
1741 7891 1 -0.8 47.64250418787211 15.334140612537078 10.527096993809177 0 0 0
1742 8237 1 -0.8 49.44782344747392 11.405053230417021 7.725288012121525 0 0 0
1744 8241 1 -0.8 49.07848876839231 13.363432917216128 9.46788273349221 0 0 0
500 2258 3 1.6 51.4415261020318 16.248641951200213 6.124512433560126 0 0 0
503 2517 3 1.6 54.45839326456941 11.955708956527356 6.207114705414755 0 0 0
493 8236 1 -0.8 51.033256139937926 12.4494741672924 5.911705416964464 0 0 0
501 8239 1 -0.8 53.53641910062581 12.916633452523806 5.313452772834225 0 0 0
614 8978 1 -0.8 54.726874762393614 17.261164398224267 6.01674535491532 0 0 0
1748 2260 3 1.6 51.36443636326284 16.57655558281823 9.216517747501058 0 0 0
1753 2518 3 1.6 53.823562426436865 15.142724408782481 10.203804461682651 0 0 0
1751 2519 3 1.6 53.82427208541288 12.283595026029094 9.137933059380574 0 0 0
1671 8199 1 -0.8 52.5353770609633 11.768830307848823 9.961363043292351 0 0 0
1746 8242 1 -0.8 49.93392633711087 15.910947533082341 9.529095100655647 0 0 0
1747 8292 1 -0.8 51.82241783845876 16.182094340279072 7.695691389052071 0 0 0
1749 8296 1 -0.8 52.40390536879538 15.870276523613759 10.216340108304161 0 0 0
1750 8940 1 -0.8 53.755915850152526 11.72378244834628 7.6305333861293 0 0 0
1752 8942 1 -0.8 53.821363340452585 13.897985273487388 9.169271125518259 0 0 0
1754 8943 1 -0.8 54.969001126770166 16.178881678428876 9.752767134912299 0 0 0
1674 8944 1 -0.8 55.21315427103647 11.751276165768319 9.767812251318896 0 0 0
515 9410 1 -0.8 58.2497840706214 13.372963639488338 5.778401136814356 0 0 0
1683 3279 1 -0.8 60.360672262782586 10.861685144977857 9.443251338749251 0 0 0
507 8939 1 -0.8 55.82920633703401 12.771943298293593 6.407555036355877 0 0 0
517 2768 3 1.6 59.064055854593335 12.058660933186285 6.234515885269759 0 0 0
514 2798 3 1.6 56.19787288023209 16.62904556068607 6.154242203595443 0 0 0
521 3330 1 -0.8 60.591055693996935 12.526415554683329 6.39147984237836 0 0 0
1761 2770 3 1.6 58.738231188332996 14.536240287854591 10.251200754251052 0 0 0
1759 2771 3 1.6 59.00468303877338 11.691368520842884 9.189766779920248 0 0 0
1756 2800 3 1.6 56.508310846759315 16.2828087044706 9.300631938850612 0 0 0
1762 3408 1 -0.8 59.7520133023486 15.77575326102944 10.055512104335486 0 0 0
1680 9382 1 -0.8 57.78833136844914 11.168999235826933 10.104358909718382 0 0 0
1758 9411 1 -0.8 58.54963563077847 11.539923397944234 7.65970489374793 0 0 0
1760 9414 1 -0.8 59.30641541908697 13.247349045437133 9.479775109138552 0 0 0
1757 9415 1 -0.8 57.287377751197226 14.93085733382586 9.689053901379646 0 0 0
1755 9456 1 -0.8 56.60960058009858 16.45093260215044 7.701976082878843 0 0 0
536 143 3 1.6 2.9031112414071485 20.781606529755564 6.170970421934104 0 0 0
529 3403 1 -0.8 1.4899612158394322 17.376746699315145 6.062052650794807 0 0 0
539 3479 1 -0.8 3.988993112617746 21.859791576938495 5.652872860185446 0 0 0
1764 116 3 1.6 0.6697403994776545 19.348422787074835 10.259162673989348 0 0 0
1767 146 3 1.6 3.1604314413657764 20.862526731205733 9.357465246221514 0 0 0
1763 3407 1 -0.8 0.45478272459161934 17.94454162624558 9.486300899856982 0 0 0
1765 3410 1 -0.8 2.2044290694294717 19.819820114022864 10.140720479128236 0 0 0
1766 3478 1 -0.8 2.7509716298518727 20.889066472561257 7.784172620702084 0 0 0
1769 3486 1 -0.8 4.667008598476176 20.310324314622978 9.540864266200815 0 0 0
552 4814 1 -0.8 8.259186208722975 19.31277365239365 5.782368819526215 0 0 0
565 4878 1 -0.8 10.929541579795066 20.61641633368793 5.743591721206603 0 0 0
553 772 3 1.6 7.8270091800475585 20.543290877921763 6.736107442316959 0 0 0
546 4264 1 -0.8 6.403567189418121 17.519678888932763 6.0990674181812246 0 0 0
548 4303 1 -0.8 6.37054567129358 21.1061435138552 6.30311475303714 0 0 0
556 4875 1 -0.8 8.835850124100723 21.764070989002107 6.564711321407912 0 0 0
1771 474 3 1.6 5.621655853018241 19.34122832928182 10.42340601606141 0 0 0
1778 746 3 1.6 10.399898881587879 18.590414210390335 10.686755084586231 0 0 0
1774 775 3 1.6 8.233209171740416 20.593116992723296 9.729923635397178 0 0 0
1770 4266 1 -0.8 5.88185979528733 17.93114340031831 9.664433086339148 0 0 0
1772 4268 1 -0.8 7.008415064984801 20.12172560639312 10.667702264071105 0 0 0
1777 4815 1 -0.8 9.885658497521861 17.356178863020705 9.77450230497388 0 0 0
1776 4817 1 -0.8 9.584619115142324 19.931793658369845 10.286353554858586 0 0 0
1773 4876 1 -0.8 7.880107546191506 20.041081695341017 8.256523553661198 0 0 0
1775 4881 1 -0.8 8.27956578340225 22.207802027123815 9.668334866175055 0 0 0
568 1101 3 1.6 12.54504065857694 17.154417099388358 6.022111908021723 0 0 0
563 4813 1 -0.8 11.148115482253491 16.922070609864416 6.767228405484498 0 0 0
569 5589 1 -0.8 12.771419286932378 18.73664056412516 5.9172043030784085 0 0 0
570 10055 3 1.6 12.23050680491856 20.11448177916126 6.484392894831498 0 0 0
573 10055 1 -0.8 13.251107501322785 21.309617284064156 6.506192340884381 0 0 0
575 10055 2 0.4 11.393624787042826 20.155483486078328 6.451877773218306 0 0 0
576 10047 1 -0.8 15.302105878449874 17.568855604094708 6.8632303711343665 0 0 0
577 10047 2 0.4 14.58801476036527 16.885539907631312 6.776115615676404 0 0 0
1779 4818 1 -0.8 11.937884227853697 18.792906311232052 10.340768731770913 0 0 0
1780 5611 1 -0.8 11.70406993731348 19.693676907627566 7.919632726446572 0 0 0
1781 9995 3 1.6 12.638259980320178 18.858920137321903 8.917239896920664 0 0 0
1784 9995 1 -0.8 14.006029373590755 19.571112966777086 8.951940167843535 0 0 0
1783 9995 2 0.4 13.285204328363063 18.965167425576368 8.704147952265126 0 0 0
1782 9995 1 -0.8 12.855089943582287 17.43286460030909 8.352110747413246 0 0 0
1785 9995 2 0.4 12.192725648447274 17.195737671854165 7.6747659811489815 0 0 0
1787 9961 1 -0.8 15.982332136764857 17.394456161373057 9.991639621254741 0 0 0
594 2259 3 1.6 48.79934794077061 17.629752340068528 5.762480520592741 0 0 0
590 7888 1 -0.8 47.328738734449935 17.023775853041897 5.9883346600956315 0 0 0
595 8294 1 -0.8 49.14055108814916 18.833289900352113 6.7771159180229645 0 0 0
596 10224 3 1.6 49.306806040430644 20.42815159300925 6.8839582627511176 0 0 0
589 10224 1 -0.8 47.99888963281586 21.110905724880183 7.378352278708042 0 0 0
588 10224 2 0.4 48.92391171428024 20.860151090149415 7.647504324468799 0 0 0
1789 10201 2 0.4 47.33080664788167 19.796326411521548 9.834750033564864 0 0 0
1791 7890 1 -0.8 46.89084482480731 17.607646187493373 9.354295730542699 0 0 0
1793 7892 1 -0.8 48.728788692618906 19.640831269894264 9.644133461615645 0 0 0
1796 8362 1 -0.8 49.34340314375355 22.412935228018206 10.065133045073004 0 0 0
1792 10201 3 1.6 47.359113292373586 18.972120288329947 10.05846132172009 0 0 0
1790 10201 1 -0.8 46.411112798831894 20.171186660242896 9.815284326319714 0 0 0
613 2547 3 1.6 53.68505069976835 20.81692902742578 5.898878513857212 0 0 0
597 8291 1 -0.8 49.855969828929155 16.439707937194704 6.018952975802847 0 0 0
1795 2288 3 1.6 49.73645861703301 20.905742901872067 9.66390276410776 0 0 0
1794 8357 1 -0.8 50.21823943534471 20.880833975716904 8.096943527935393 0 0 0
1799 2261 3 1.6 51.99337570965657 19.257624520463008 10.508666908107003 0 0 0
1802 2549 3 1.6 54.50304925612735 20.341690099326343 8.874370533836823 0 0 0
1798 8295 1 -0.8 51.48558037218203 18.158439693776614 9.433428875439793 0 0 0
1797 8297 1 -0.8 51.048633469329005 20.532227942170213 10.509077190499793 0 0 0
1800 8298 1 -0.8 53.42532455959789 19.84505788810297 9.957826876471671 0 0 0
1801 9000 1 -0.8 53.9008677022864 20.23113273998175 7.390724401847661 0 0 0
1803 9003 1 -0.8 54.99870759312497 21.858962404987103 9.130115075509032 0 0 0
633 3480 1 -0.8 59.798929603805476 21.967547308778737 5.915409516556843 0 0 0
623 9455 1 -0.8 57.259240090024804 17.6432665761512 5.4904946567081065 0 0 0
630 2828 3 1.6 58.70116169904737 20.81799842687766 6.170149851620331 0 0 0
631 3402 1 -0.8 59.66170812633434 17.06880821204819 6.491214774276096 0 0 0
625 9500 1 -0.8 57.27732917124757 21.365488363982546 5.660717253021651 0 0 0
1804 9004 1 -0.8 55.80226559519954 19.420552158407723 9.082903717032014 0 0 0
1806 2801 3 1.6 56.78517821868283 19.07000341838885 10.306861762720912 0 0 0
1809 2831 3 1.6 58.978348124014175 20.920396269828775 9.247105363979637 0 0 0
1811 3409 1 -0.8 60.501935410980366 20.51451344773169 9.578542875697053 0 0 0
1805 9458 1 -0.8 57.18494742416802 17.52838600325162 10.074857060382577 0 0 0
1807 9459 1 -0.8 58.039961581235566 20.081935758851372 10.253275299091635 0 0 0
1808 9501 1 -0.8 58.62340047639025 20.47284793584715 7.740660393351002 0 0 0
637 3550 1 -0.8 1.568810446069956 26.260628113199573 5.802689762608653 0 0 0
635 172 3 1.6 0.5136112049058643 25.092263583015512 6.1290709945955095 0 0 0
649 501 3 1.6 5.473252207808646 25.21984791172638 5.753323761865511 0 0 0
1768 3485 1 -0.8 2.9894153697954406 22.35522064060765 9.975949183080031 0 0 0
1816 145 3 1.6 3.4609009605176864 23.89367133704128 10.196950838006071 0 0 0
1813 174 3 1.6 0.8016299805232417 25.214143468452786 9.216145576228936 0 0 0
1815 3482 1 -0.8 2.3240467894506023 24.929226241194662 9.680517048427967 0 0 0
1817 3483 1 -0.8 4.789163025090209 24.16541332887037 9.333997923490974 0 0 0
1812 3551 1 -0.8 0.5563148096185834 24.72263755001195 7.699396982360136 0 0 0
1814 3555 1 -0.8 0.4800493845073778 26.796989900947437 9.278801161129897 0 0 0
1819 502 3 1.6 5.858313661408957 25.283005556535603 8.847634440113335 0 0 0
1818 4322 1 -0.8 5.531399538336081 25.635995084458738 7.311231179289453 0 0 0
648 4304 1 -0.8 5.925169298478206 23.66946877001204 5.569071870006138 0 0 0
662 4877 1 -0.8 10.560789998354492 23.442090519478686 5.774556765761712 0 0 0
663 10008 3 1.6 10.096820830622192 24.951394820834153 6.04845823990697 0 0 0
665 10008 1 -0.8 11.176921572536695 26.026480348022858 5.644992385320868 0 0 0
667 10008 2 0.4 9.172799253632498 25.2716510175813 6.197765727853623 0 0 0
1822 774 3 1.6 8.272490506415181 23.790292397223414 9.969495913358351 0 0 0
1821 4323 1 -0.8 7.29703721117488 24.589807019884777 8.965518914095938 0 0 0
1820 4324 1 -0.8 5.703390884943137 26.63835228674978 9.730880441990433 0 0 0
1823 4879 1 -0.8 9.724373358018253 24.404894621907076 9.792122129169904 0 0 0
1824 4924 1 -0.8 9.567306274117646 25.16666071398224 7.522815688524119 0 0 0
1826 4926 1 -0.8 9.316479883544789 26.900124768529917 9.455893300613768 0 0 0
1825 9951 3 1.6 10.144071416092414 25.64996647401086 8.910507810567422 0 0 0
1828 9951 2 0.4 9.506500522553067 25.04697565756538 8.486924578699401 0 0 0
1827 9951 1 -0.8 11.696706470190922 25.86764104992856 8.82992510492568 0 0 0
1831 10231 3 1.6 50.09232925884514 23.612703839090553 10.826839265885658 0 0 0
671 10299 2 0.4 52.082103985277364 26.53590015537429 5.771821709077474 0 0 0
675 10299 1 -0.8 51.834591231797354 27.39185764966538 6.190259324983626 0 0 0
686 2301 3 1.6 50.97927198735098 24.711598321634845 5.749838911851507 0 0 0
688 8410 1 -0.8 52.44825792758734 25.27365210991733 5.4008101518987734 0 0 0
697 9039 1 -0.8 54.8240864980687 25.81379992644452 6.0542723961485825 0 0 0
1834 2302 3 1.6 51.990088297332164 24.637127028928784 8.559590934777523 0 0 0
1837 2548 3 1.6 54.365236364574166 23.267538367107882 9.576281393192447 0 0 0
1832 8360 1 -0.8 51.265484451064076 24.175618183540248 9.910414491211577 0 0 0
1833 8409 1 -0.8 51.01498662754414 24.416904316063892 7.3178814036368 0 0 0
1835 8411 1 -0.8 52.542597575207786 26.119569538026763 8.812864232508636 0 0 0
1836 8412 1 -0.8 53.31636780115481 23.715454177181837 8.448687591244362 0 0 0
1838 9001 1 -0.8 55.482122330922635 24.415626190465282 9.793795978872057 0 0 0
1867 10257 1 -0.8 50.355204200899735 26.833031176125992 8.923533958916813 0 0 0
1866 10257 2 0.4 51.31265247659381 26.519932252968996 8.923687246053081 0 0 0
1868 10257 3 1.6 51.72711438823865 27.280695985055743 9.507624773000286 0 0 0
700 2857 3 1.6 56.31923787724422 25.24539783175841 6.077869503421493 0 0 0
711 3549 1 -0.8 59.76819457293309 25.600182148365665 5.672562079039032 0 0 0
1810 9505 1 -0.8 58.77978081767399 22.515596824166536 9.411156676936997 0 0 0
1843 2830 3 1.6 59.02350805607588 23.829386780607784 10.320807653616322 0 0 0
1840 2859 3 1.6 56.6303568125721 25.324079510021544 9.12940980708289 0 0 0
1844 3554 1 -0.8 60.536357023627176 24.37447479311306 10.177489275169851 0 0 0
1842 9503 1 -0.8 58.027604122779984 25.018593433987842 9.879184161951438 0 0 0
1839 9544 1 -0.8 56.76168355513403 24.88503685345934 7.585460574900324 0 0 0
1841 9546 1 -0.8 56.28973808954016 26.89846679478678 9.230048835719092 0 0 0
723 193 3 1.6 2.8789018884231616 29.484266581304592 5.730853121660617 0 0 0
726 3604 1 -0.8 4.112675385296457 30.514585111113224 5.823437350021258 0 0 0
1849 195 3 1.6 2.825225476252459 29.54628970382499 8.701315214100209 0 0 0
1845 196 3 1.6 0.47960207837387936 28.13640455579479 10.177481742493873 0 0 0
1851 225 3 1.6 2.590554922080377 32.61401184353785 9.267000675995007 0 0 0
1848 3603 1 -0.8 2.2703069541507763 29.28503376975859 7.211476775581303 0 0 0
1850 3607 1 -0.8 3.067452801809338 31.13945808580196 8.824763549787313 0 0 0
1846 3608 1 -0.8 1.7322571459470393 29.078598659305452 9.788063139847837 0 0 0
1852 3609 1 -0.8 4.1811156484477365 28.676566765778173 8.900195481534567 0 0 0
2674 3682 1 -0.8 2.8863503929323095 32.76677088243123 10.842217988040373 0 0 0
1847 3683 1 -0.8 1.027132868800596 32.88108297065348 9.025359367582244 0 0 0
1854 514 3 1.6 5.461573784228164 28.24781085888832 9.812378740523338 0 0 0
734 4346 1 -0.8 5.638045273593526 32.610193872015046 5.612278141544176 0 0 0
818 10029 3 1.6 8.856930731640121 33.216105247869386 5.799577485001607 0 0 0
737 4925 1 -0.8 8.140030898959825 27.947300663758813 6.075540787358247 0 0 0
1865 10017 2 0.4 9.987031052392329 28.013753591631474 11.103253981775016 0 0 0
738 806 3 1.6 8.065673609831286 29.58327958147689 6.075413788792509 0 0 0
1858 807 3 1.6 7.968975712305935 30.12822466787263 9.104704745424415 0 0 0
1860 819 3 1.6 6.790617501054678 32.877755749753916 10.035417215601123 0 0 0
1855 4349 1 -0.8 6.762812117383438 29.027927267809176 9.278310273163044 0 0 0
1856 4383 1 -0.8 5.626006342878719 33.00974310450044 8.94155064965891 0 0 0
1857 4956 1 -0.8 8.159114958920279 30.30736858830862 7.510518429191268 0 0 0
1859 4958 1 -0.8 7.528005154021886 31.468946341580263 9.870047027755588 0 0 0
1861 4959 1 -0.8 9.254925713830795 29.463095709970627 9.76725874778447 0 0 0
1863 10017 3 1.6 9.554868709453286 28.092288201187877 10.49548707605489 0 0 0
823 10029 1 -0.8 10.26729575672966 32.65909414522952 6.2118192917667265 0 0 0
1864 10017 1 -0.8 10.966178854470256 27.95953545385529 11.117219144307944 0 0 0
770 2576 3 1.6 53.726878935773954 29.233928993322433 5.636030630910793 0 0 0
1872 2577 3 1.6 53.61593998730645 29.451315925341454 8.69577940277442 0 0 0
1874 2589 3 1.6 53.500908534079855 32.46529002266812 9.601476796629324 0 0 0
1869 8449 1 -0.8 52.23308484221392 28.736075156767203 9.083364896206918 0 0 0
1870 8488 1 -0.8 52.04713148341378 33.15327648482802 9.539364835075004 0 0 0
1871 9057 1 -0.8 54.06512280385181 29.019383225772803 7.208994533431929 0 0 0
1873 9058 1 -0.8 53.537107537307996 31.07417431554153 8.780118832013594 0 0 0
1875 9059 1 -0.8 54.72588028751755 28.940876335463404 9.782320926472645 0 0 0
788 3606 1 -0.8 60.00140264464733 30.571254720585056 5.644081226426931 0 0 0
781 9577 1 -0.8 56.38372464891196 32.477071171501656 5.483716267923135 0 0 0
785 2878 3 1.6 58.914909624744084 29.419239717514465 5.920205056815612 0 0 0
782 9575 1 -0.8 57.44066227280522 30.031490884273573 5.670735216521567 0 0 0
1881 2880 3 1.6 58.80635128055697 29.617624897354975 8.893289320539461 0 0 0
1877 2881 3 1.6 56.208575951426546 28.33409795448607 9.971255318086397 0 0 0
1883 2910 3 1.6 58.53367286521937 32.625122666474894 9.36744628909129 0 0 0
1884 3610 1 -0.8 59.82989853210793 28.97359319198945 9.9632455858525 0 0 0
1880 9576 1 -0.8 59.05148050353883 28.947375394285203 7.454295593376803 0 0 0
1882 9578 1 -0.8 59.01728431411282 31.213542827912995 8.752535449828523 0 0 0
1878 9579 1 -0.8 57.27882854938514 29.353263677937406 9.325066628499359 0 0 0
2712 9623 1 -0.8 58.78824394576577 32.54658023418691 10.965291447278892 0 0 0
1879 9624 1 -0.8 57.00142151134114 32.91204040279415 8.97991139494306 0 0 0
804 531 3 1.6 5.410364227411471 34.1998527415876 5.484751878914243 0 0 0
801 253 3 1.6 3.2045134147988064 38.52806169784375 5.756099064203892 0 0 0
800 3680 1 -0.8 3.1020795932640355 36.92643182615476 5.531435708702421 0 0 0
1853 3684 1 -0.8 3.3236172653982954 33.7964274741499 8.43009454303091 0 0 0
1887 226 3 1.6 0.21680855117162476 34.21349808578365 8.606611937128017 0 0 0
1892 255 3 1.6 3.2526989950881604 38.681810855846905 8.764776829038016 0 0 0
1889 256 3 1.6 0.8368146100310248 37.06011959030546 9.759629983492427 0 0 0
1886 3679 1 -0.8 0.5506191867779264 34.57388657698309 7.08162167545624 0 0 0
1888 3686 1 -0.8 0.646126132547078 35.47291663306345 9.517258564396316 0 0 0
1891 3753 1 -0.8 3.7774869750614464 38.78778778199543 7.2414093226450085 0 0 0
1890 3758 1 -0.8 1.9489124649194811 37.71154632987136 8.787751671633071 0 0 0
1893 3759 1 -0.8 4.3809559498391355 38.065548101309986 9.733654511323053 0 0 0
1895 532 3 1.6 4.849760411522103 34.31540899886693 8.419537235935643 0 0 0
1894 4382 1 -0.8 5.346013415108805 34.78953337431303 6.975501102520147 0 0 0
1896 4384 1 -0.8 5.043037452558318 35.57613018371162 9.408894205431357 0 0 0
1907 10030 1 -0.8 9.751919592361652 33.25660345917594 9.09585892384577 0 0 0
826 10029 2 0.4 8.331461976816954 33.83991284316178 6.226568153214847 0 0 0
1862 5004 1 -0.8 7.692562299015635 34.136467385330015 9.649048314412552 0 0 0
1897 544 3 1.6 5.637490711162842 37.03422859238999 9.804774539566441 0 0 0
1900 838 3 1.6 7.701745662456506 38.839594704466606 8.26138559624908 0 0 0
1898 4409 1 -0.8 6.751767968548495 37.63168691505573 8.809260590166813 0 0 0
1902 5001 1 -0.8 8.067791049823766 33.5757244929533 7.117602329960184 0 0 0
1904 5005 1 -0.8 9.219185688717301 35.66555507290953 8.135184789624443 0 0 0
1901 5050 1 -0.8 9.18288367039273 38.263027542111445 8.181727513587042 0 0 0
2731 5051 1 -0.8 9.220056171384645 36.94064910253426 10.381543592890532 0 0 0
1903 10030 3 1.6 8.708571932406983 34.20278701701973 8.449080103079005 0 0 0
1905 10036 3 1.6 9.749776594303274 36.970536873045994 8.901503790978019 0 0 0
1909 10030 2 0.4 8.81928657012409 33.609757503572716 9.185175263959907 0 0 0
1908 10036 2 0.4 10.345267590396917 37.066259183137355 9.280789824084454 0 0 0
1906 10036 1 -0.8 11.2852945146134 36.95704491797046 9.025447715431163 0 0 0
839 9931 3 1.6 49.362727991877094 38.00389502658445 5.613563250926703 0 0 0
830 9931 2 0.4 48.810109358398684 37.640219650518965 5.393280290785839 0 0 0
1914 10246 3 1.6 48.96447800026985 38.4405610255958 8.406720877232168 0 0 0
1911 10246 1 -0.8 47.82668999687228 37.47107848147469 7.978867924297553 0 0 0
1910 10246 2 0.4 48.64796893945221 37.96902563825491 7.771371637737593 0 0 0
1913 8528 1 -0.8 49.54334819861225 38.793750506741084 6.980253018713725 0 0 0
838 8486 1 -0.8 49.86080248680101 36.52358060239197 5.771195119787466 0 0 0
842 2316 3 1.6 51.915842406496516 34.03717474234861 5.812451368519438 0 0 0
840 8483 1 -0.8 50.35010811115208 34.001187973294705 5.732249877371282 0 0 0
1876 9084 1 -0.8 54.516943851271165 33.57199506885381 8.982653095819206 0 0 0
1915 10269 1 -0.8 50.10375704746873 34.574030028709274 8.3935785395046 0 0 0
1912 10269 2 0.4 51.02851518864564 34.592429895214856 8.069546239938777 0 0 0
1920 2324 3 1.6 51.54820336460412 37.32437888455749 9.698956258919296 0 0 0
1923 2607 3 1.6 54.08072026301537 38.716225487556315 8.65136561246917 0 0 0
1917 8484 1 -0.8 52.29971912264895 34.41089400072766 7.332312731182179 0 0 0
1919 8487 1 -0.8 52.019142354735635 35.79696369951408 9.544872914055412 0 0 0
1916 8532 1 -0.8 50.052745111174225 37.59912648729874 9.21419687112177 0 0 0
1921 8534 1 -0.8 52.559556145764766 38.220448797814704 8.808680898130623 0 0 0
1922 9117 1 -0.8 54.49012420977069 38.785497964478694 7.092714587481999 0 0 0
1924 9119 1 -0.8 55.069952869682716 37.70198551004973 9.437533753549216 0 0 0
1918 10269 3 1.6 51.60711202548321 34.475132494600295 8.747325105399888 0 0 0
856 2908 3 1.6 56.08286194577178 34.07168677647667 5.481952034088117 0 0 0
867 2938 3 1.6 58.99481466602723 38.42093867517782 5.722269261958868 0 0 0
866 9622 1 -0.8 58.93557977105723 36.80256741749524 5.643440845835632 0 0 0
1885 3685 1 -0.8 59.382595123249466 33.861364052216615 8.772370087033604 0 0 0
1926 2911 3 1.6 55.9795285650848 34.114619834777606 8.612479244036424 0 0 0
1931 2940 3 1.6 58.96780929373965 38.592821621158805 8.744730730823582 0 0 0
1928 2941 3 1.6 56.51289777700413 37.02163174936914 9.6997384026648 0 0 0
1932 3760 1 -0.8 60.13675745966066 37.82036655906771 9.562154304159224 0 0 0
1925 9621 1 -0.8 56.043439869375575 34.52066114767729 7.044274787862962 0 0 0
1927 9625 1 -0.8 56.39762679464917 35.42033066510756 9.487258843432462 0 0 0
1929 9669 1 -0.8 57.627782989327436 37.67796452519371 8.727942496997912 0 0 0
1930 9666 1 -0.8 59.43023558638951 38.83375831787979 7.221884454166496 0 0 0
875 3752 1 -0.8 1.7549982814223228 39.23426999384215 5.63305145681313 0 0 0
1938 283 3 1.6 2.380490125667277 41.69855092899748 9.296616809322789 0 0 0
1937 3757 1 -0.8 2.848582736145582 40.157822366343154 9.276176500792088 0 0 0
1933 3826 1 -0.8 0.20647596843398672 43.55408617612072 6.855308634665738 0 0 0
1936 3828 1 -0.8 0.9043065852208314 41.85037752236817 8.698510473258322 0 0 0
1939 3829 1 -0.8 3.330131378770967 42.66390856151633 8.413732989960916 0 0 0
1935 3830 1 -0.8 0.25511086415560436 44.36381791089404 9.318919477878074 0 0 0
1941 562 3 1.6 4.859139773976443 43.101512492664746 8.172405488390899 0 0 0
1940 4442 1 -0.8 5.199242329535845 43.43826417432458 6.634537973763419 0 0 0
1942 4443 1 -0.8 5.249184072121373 44.38664134404473 9.070316591886078 0 0 0
2762 3827 1 -0.8 2.3353310570050523 42.16954546703656 10.835937081907554 0 0 0
1899 5047 1 -0.8 7.230275097760472 39.13396299617319 6.743884186692699 0 0 0
1945 853 3 1.6 7.296342543165437 41.76630369411949 9.116573108390735 0 0 0
1948 854 3 1.6 9.762470301118595 42.95741874696077 8.045253977616305 0 0 0
1943 4444 1 -0.8 5.766435421673082 41.868733090505444 8.632446955925811 0 0 0
1944 5049 1 -0.8 7.637127808418977 40.19159172381221 9.129874483078117 0 0 0
1947 5094 1 -0.8 10.318917127378914 42.93861407917628 6.515340526234372 0 0 0
2771 5096 1 -0.8 7.398290487483822 42.4110279013766 10.589517681263523 0 0 0
1946 5097 1 -0.8 8.155214719952268 42.7258420407423 8.11550111040324 0 0 0
1949 5098 1 -0.8 10.236027146778495 44.34254195896033 8.76094216725917 0 0 0
1950 5099 1 -0.8 10.204239208127518 41.67666448087552 8.890033040400523 0 0 0
1953 10278 1 -0.8 10.37634080388966 39.64070282599894 10.477966364420986 0 0 0
1954 10278 2 0.4 10.579487305403063 41.63204863593455 9.779803342982863 0 0 0
1951 10278 3 1.6 11.140975738649292 40.86259970520302 9.859776582149777 0 0 0
1952 10278 1 -0.8 12.46964454294546 40.4942391679835 9.092307689381709 0 0 0
932 10245 2 0.4 47.40385178860883 43.54509752300129 7.479034101770562 0 0 0
935 10245 3 1.6 47.20115828170987 43.881813518343456 6.591520396130695 0 0 0
933 10245 1 -0.8 46.561548732127534 42.53085498788122 7.060753491739833 0 0 0
1957 10206 2 0.4 46.616988119377524 44.59379923061782 9.420260351855282 0 0 0
1964 2342 3 1.6 48.72986501527188 41.27250847505437 9.56764530176312 0 0 0
1959 7922 1 -0.8 48.03515211724497 44.14162127825938 7.905275127256724 0 0 0
1962 7924 1 -0.8 47.52074458595326 42.31338384015409 9.754466527937721 0 0 0
1963 8531 1 -0.8 48.459291258713876 39.72071388749942 9.241437370783801 0 0 0
2796 8591 1 -0.8 49.64665525570575 41.45263186445964 10.88739440073331 0 0 0
1960 10206 3 1.6 47.233236622791324 43.77864399279854 9.238954623108448 0 0 0
1958 10206 1 -0.8 45.76058804208183 44.249487027171284 9.014672257004154 0 0 0
1965 8592 1 -0.8 49.592778253662324 41.86529825290834 8.347813441515727 0 0 0
1967 2343 3 1.6 50.942528195540056 42.696249940306075 8.232964572205681 0 0 0
1971 2617 3 1.6 53.611198780338455 41.69963156857026 9.290428132039152 0 0 0
1966 8589 1 -0.8 51.19758022182494 43.12701409569037 6.700756384058422 0 0 0
1968 8593 1 -0.8 51.00266053357347 44.009025214821136 9.194127296109231 0 0 0
1969 8594 1 -0.8 52.1110800025604 41.69899290426821 8.745928633243109 0 0 0
1970 9118 1 -0.8 54.20523578836018 40.199269289672934 9.272673783262102 0 0 0
2805 9139 1 -0.8 53.76911647143281 42.24330350645878 10.802852016519271 0 0 0
1972 9140 1 -0.8 54.43568443893524 42.69686693999676 8.331155021041374 0 0 0
1934 284 3 1.6 60.65641226193254 43.090101341425104 8.375957391195316 -1 0 0
1978 2968 3 1.6 58.209867963083205 41.57753986092988 9.519201187831639 0 0 0
1974 2969 3 1.6 55.971520078124776 43.137201284807304 8.367807833555387 0 0 0
1979 3831 1 -0.8 59.17053868223159 42.564618467396656 8.667138659078184 0 0 0
1977 9668 1 -0.8 58.653817912759926 40.02742337749987 9.426822161510504 0 0 0
1973 9709 1 -0.8 56.45458125191728 43.6135318289586 6.914276437320288 0 0 0
1976 9711 1 -0.8 56.77183445509701 41.82825824002526 8.86155641569241 0 0 0
1975 9712 1 -0.8 56.21236434387483 44.34083868328806 9.41085777911635 0 0 0
1141 4483 1 -0.8 5.431895199986034 50.10591251462565 5.4387497187832015 0 0 0
1983 305 3 1.6 3.097216675508106 47.350780717500044 8.333443010990232 0 0 0
1980 306 3 1.6 0.635543482659947 45.931962589827826 9.331531933909439 0 0 0
2044 335 3 1.6 3.2413297230129747 50.19509412965411 9.361603206291537 0 0 0
1982 3880 1 -0.8 2.7374712706193836 47.77431653352323 6.8255140737131486 0 0 0
1984 3882 1 -0.8 2.907768637680636 48.6201602568256 9.312909519282268 0 0 0
1981 3883 1 -0.8 2.1441384924562987 46.14875888743065 8.82144302207245 0 0 0
1985 3884 1 -0.8 4.615915138393065 46.84029722267384 8.356599919030053 0 0 0
2820 3886 1 -0.8 0.4638852285984967 46.49089249148689 10.834603790676717 0 0 0
2829 4464 1 -0.8 5.153313496621362 46.27304346876176 10.844886264218319 0 0 0
1986 572 3 1.6 5.5453397103496656 45.95179993117122 9.316894050036902 0 0 0
1006 874 3 1.6 7.6798634698856425 47.52284731147664 5.418237221723762 0 0 0
1989 875 3 1.6 8.03869988465612 47.497402877130284 8.402386373117674 0 0 0
1992 876 3 1.6 10.517307756053066 45.929332179109295 9.015760466954662 0 0 0
1987 4465 1 -0.8 7.073747444002599 46.36340406976642 9.030108243130218 0 0 0
1988 5138 1 -0.8 7.505937291701007 47.96223824853577 6.9584453673064335 0 0 0
1990 5139 1 -0.8 8.131009416911098 48.784121248085015 9.378043792679575 0 0 0
1991 5140 1 -0.8 9.480412598761868 46.826547392403945 8.162684001898707 0 0 0
2838 5141 1 -0.8 10.210630522776244 46.311849486433545 10.564662812610532 0 0 0
1999 9973 1 -0.8 15.988026951780325 45.44905567412094 9.197870133274233 0 0 0
1956 9973 2 0.4 15.559193232759354 46.318698086449416 9.304576726605319 0 0 0
1995 1108 3 1.6 12.981878841574353 47.67887759474364 8.229419885027085 0 0 0
1993 5142 1 -0.8 11.991516227554964 46.43797001417435 8.577202292079564 0 0 0
1994 5632 1 -0.8 12.84149086642768 48.21575750404488 6.705552519479385 0 0 0
1996 5633 1 -0.8 12.733722816475337 48.91815969221901 9.245381367052307 0 0 0
1997 5634 1 -0.8 14.483335605225646 47.21576694250437 8.426706860765147 0 0 0
1998 9973 3 1.6 15.431005143683048 46.82487751519091 9.635466549109177 0 0 0
1033 10082 3 1.6 17.711304426160893 48.896840913755334 5.788741743077097 0 0 0
1034 10082 1 -0.8 19.044314579435333 48.08770430216901 5.7214009213318855 0 0 0
2000 5636 1 -0.8 16.500651778294067 47.992312188495056 9.688945936930168 0 0 0
2001 5962 1 -0.8 17.23761937163218 49.02510201965452 7.311276714805942 0 0 0
2003 5963 1 -0.8 18.674884434422683 49.39566158651319 9.381238919588116 0 0 0
2002 9983 3 1.6 17.688314932034466 48.36706448597339 8.6937836800078 0 0 0
2005 9983 1 -0.8 18.37275777776408 47.04343730649467 8.292691631934614 0 0 0
2004 9983 2 0.4 17.89768824999353 47.89585006951964 8.274392699394983 0 0 0
2006 10106 1 -0.8 22.303985806505562 50.17834284948917 9.240652618194607 0 0 0
2008 10140 1 -0.8 27.88842899911378 50.13395979130719 9.777130898917015 0 0 0
2011 10157 1 -0.8 32.46903553069078 49.8700743479152 9.195602732411569 0 0 0
1080 1946 3 1.6 44.034862376916145 47.95393587011672 5.9694327417049955 0 0 0
1077 7580 1 -0.8 42.54370788399288 48.53439620800432 6.122073268971466 0 0 0
1073 10176 1 -0.8 40.239834060050086 49.87934294180387 6.037126016800133 0 0 0
2018 7583 1 -0.8 43.62001654851659 48.70844206575823 9.46668393244043 0 0 0
2015 10215 1 -0.8 43.33828664780078 46.42930895971173 8.189462623441155 0 0 0
2014 10215 2 0.4 44.24180523043079 47.41952611910795 7.727668392680929 0 0 0
1961 7923 1 -0.8 47.52090920549057 44.96041173941844 10.238594365524119 0 0 0
2017 10215 3 1.6 44.36128378931985 47.47374205538688 8.745959253906493 0 0 0
934 7579 1 -0.8 46.34941875357049 45.19666043021478 6.301084111123552 0 0 0
2016 7581 1 -0.8 44.87075781445529 48.041595425287575 7.343277940400213 0 0 0
2020 2087 3 1.6 46.98979358439961 46.45263345387263 9.974128788229708 0 0 0
2023 2360 3 1.6 49.17430839744152 47.51140845468444 8.224539158367197 0 0 0
2019 7584 1 -0.8 45.461257175832046 46.8805834192356 9.73950893787404 0 0 0
2021 7945 1 -0.8 47.75360611188758 46.946163583006516 8.658435547834245 0 0 0
2022 8633 1 -0.8 49.06388563269386 48.02924913088091 6.708645445274304 0 0 0
2024 8634 1 -0.8 49.51872565535909 48.73900012115118 9.22037327219204 0 0 0
1108 2628 3 1.6 53.407079755305325 47.12798936091944 5.537624846224342 0 0 0
2026 2361 3 1.6 51.307314349138174 45.58695515926346 9.352035647147321 0 0 0
2029 2629 3 1.6 53.81757283893205 47.190457033225165 8.564327508451878 0 0 0
2134 2647 3 1.6 53.761733615034274 50.093645489430436 9.518815679285364 0 0 0
2025 8635 1 -0.8 50.331034626824646 46.40541281339715 8.3700658560249 0 0 0
2892 8636 1 -0.8 51.13754167714021 46.074724628252135 10.88865807620346 0 0 0
2027 8637 1 -0.8 52.83837725092622 45.9626810096086 8.949432217443745 0 0 0
2028 9161 1 -0.8 53.5236515771734 47.656308868963684 7.05206234191593 0 0 0
2030 9162 1 -0.8 53.61641677354252 48.47567830477781 9.528244499080357 0 0 0
2031 9163 1 -0.8 55.34958468417851 46.6974085497617 8.631544240940164 0 0 0
1289 9785 1 -0.8 56.09141455693752 49.849628045724096 5.444169237535779 0 0 0
2035 2990 3 1.6 58.91811501186255 47.446896023938116 8.401647288337529 0 0 0
2032 2991 3 1.6 56.45385885976143 45.930089914596394 9.512068132790512 0 0 0
2037 3885 1 -0.8 60.39271916936085 46.80135582186886 8.376553052656066 0 0 0
2034 9742 1 -0.8 58.501756051606144 47.85016122806147 6.900670711896851 0 0 0
2036 9743 1 -0.8 58.87656350348582 48.76423000654316 9.340595638869948 0 0 0
2033 9744 1 -0.8 57.92111286018572 46.3124399263349 8.969598547711705 0 0 0
2045 3959 1 -0.8 4.7761308933983075 50.420682809096064 8.931153249845913 0 0 0
1138 4027 1 -0.8 3.1116537630415597 54.34622486189726 5.559626199067537 0 0 0
2039 336 3 1.6 0.8881197650063714 51.825686536031974 8.379854391846292 0 0 0
2041 366 3 1.6 0.8879663247543235 54.68741427848467 9.721480467239264 0 0 0
2038 3956 1 -0.8 0.5287956893070186 52.222213801974654 6.866528161803891 0 0 0
2042 3958 1 -0.8 2.2656111991483803 50.98208066813345 8.349652540880347 0 0 0
2040 3960 1 -0.8 1.10198967047992 53.13737791417301 9.303572380800123 0 0 0
2043 4033 1 -0.8 2.278900325396093 55.51335269589256 9.688034395550629 0 0 0
2046 4034 1 -0.8 4.72159803523562 55.28170732808165 8.747816910019903 0 0 0
2047 4486 1 -0.8 5.416734875570822 52.154785027439985 7.042791029635795 0 0 0
2913 3957 1 -0.8 2.990431264217692 50.807430583317554 10.83483416834528 0 0 0
2053 905 3 1.6 8.306203252831498 50.387208735893346 9.536595538557314 0 0 0
1142 583 3 1.6 5.714253165634972 51.693024041928865 5.530733291678675 0 0 0
1153 5256 1 -0.8 7.966374643313682 54.54424341688693 5.819642893247092 0 0 0
2048 584 3 1.6 5.7464110971958196 51.64194168583936 8.5287062490032 0 0 0
2050 602 3 1.6 5.688533962112326 54.43375507799794 9.718808149332366 0 0 0
2057 906 3 1.6 10.744820165272516 51.64572486785206 8.17972470292787 0 0 0
2059 936 3 1.6 10.721648570758058 54.39833424519797 9.487629232905197 0 0 0
2049 4487 1 -0.8 5.468328732243141 52.85090064542637 9.556479982593208 0 0 0
2051 4488 1 -0.8 7.282227433934089 51.152778394597256 8.55522248852344 0 0 0
2052 4525 1 -0.8 7.224859551681892 54.763240570990696 9.369380220077595 0 0 0
2056 5195 1 -0.8 10.341398820886502 51.19712615360882 6.690096365330044 0 0 0
2054 5197 1 -0.8 9.827027993363089 50.8079932832657 9.213106281078238 0 0 0
2058 5198 1 -0.8 10.487612465491804 53.22384953895595 8.405356711003893 0 0 0
2055 5260 1 -0.8 9.70873478816128 55.618800132910444 9.209980911327227 0 0 0
2062 1125 3 1.6 13.169589942502062 50.45761900747129 9.472017277729773 0 0 0
1172 1124 3 1.6 15.74567035523911 51.940770530535154 5.43496964584422 0 0 0
1168 5746 1 -0.8 12.75203940416939 54.660835026126065 5.79480176469888 0 0 0
2066 1126 3 1.6 15.746360780846047 51.65082610859511 8.451708695369696 0 0 0
2068 1156 3 1.6 15.664998422086272 54.47579102769644 9.72678341528898 0 0 0
2060 5199 1 -0.8 12.307567119097527 51.336226958027915 8.424921823964763 0 0 0
2061 5262 1 -0.8 12.235687995267963 54.949340952687606 9.406049048009972 0 0 0
2065 5685 1 -0.8 15.407108309275808 51.390165041562504 6.902278254985866 0 0 0
2063 5687 1 -0.8 14.760804231055845 50.67884414957283 9.292126566077279 0 0 0
2067 5688 1 -0.8 15.333694237485627 53.18045890696995 8.828582363628039 0 0 0
2064 5750 1 -0.8 14.730436260939012 55.6999493170832 9.241283167834718 0 0 0
1187 1381 3 1.6 20.89932967341074 51.78942796805598 5.55582837989331 0 0 0
1175 5684 1 -0.8 17.196529712486974 52.64261436630734 5.526469837386917 0 0 0
2071 1262 3 1.6 18.483863340461415 50.932449242644445 9.750865278007664 0 0 0
2075 1382 3 1.6 20.812692141946364 52.37502818282473 8.467784872679795 0 0 0
2077 1396 3 1.6 20.82070064464671 54.95648710938579 9.668816102015507 0 0 0
2069 5689 1 -0.8 17.32934810854263 51.528878561731 8.757653659454684 0 0 0
2070 5752 1 -0.8 17.20211174234511 54.92681865829616 9.546223496661806 0 0 0
2072 5980 1 -0.8 19.873021549531487 51.731068946441184 9.61294490487671 0 0 0
2074 6252 1 -0.8 20.46159580573119 51.67428780618141 7.086891309280239 0 0 0
2076 6256 1 -0.8 20.499436952492275 53.95322496027096 8.456158791106365 0 0 0
2173 6001 1 -0.8 18.2616232780654 55.61035201446478 7.242279706438134 0 0 0
1190 6251 1 -0.8 22.3684015437035 52.45090354542593 5.415828354640014 0 0 0
1204 6476 1 -0.8 27.360359108547815 53.09572710778367 5.384705331226896 0 0 0
1048 10128 1 -0.8 26.487633665880367 50.90660391450154 6.4971129081877175 0 0 0
1049 10128 2 0.4 26.049633877246734 52.3160459799439 6.868697691056635 0 0 0
1201 10128 3 1.6 26.091291209254187 52.305333253305655 5.918588174156886 0 0 0
2949 6253 1 -0.8 23.13526067234464 51.954002321815956 10.947353850981772 0 0 0
2080 10106 3 1.6 23.25997843772664 51.40274658362813 9.457864744454989 0 0 0
2007 10106 2 0.4 22.353379700795976 51.56313315533675 9.048493305223268 0 0 0
2084 1481 3 1.6 25.822081049527196 52.44916771643696 8.65285202220026 0 0 0
2086 1487 3 1.6 25.88603204477549 54.947669137889136 10.211976570325808 0 0 0
2078 6254 1 -0.8 22.40400725788759 52.42960134172826 8.625512143970422 0 0 0
2081 6255 1 -0.8 24.752725206878747 51.27870169026061 8.915615969390064 0 0 0
2079 6307 1 -0.8 22.255320942570584 55.680288216770684 9.57249206146404 0 0 0
2082 6308 1 -0.8 24.926605478010607 55.943562328646394 9.361953106558474 0 0 0
2083 6477 1 -0.8 25.521061902445116 53.0461327436084 7.1992399837970105 0 0 0
2085 6478 1 -0.8 25.442256778588778 53.48281083185974 9.809662671510264 0 0 0
2087 6479 1 -0.8 27.420353619122015 52.369620073444736 8.675484719637165 0 0 0
2088 6500 1 -0.8 27.424794286298905 55.15280389190079 9.776332628226886 0 0 0
1055 10143 1 -0.8 31.493620164345767 50.78158013374867 6.323263856248178 0 0 0
1054 10143 2 0.4 31.312128488664772 51.75694670168329 6.500506649929114 0 0 0
2958 6711 1 -0.8 28.85052711951936 52.423065246457945 10.60976671578181 0 0 0
2089 10140 3 1.6 28.5536708688794 51.50036417386227 9.354282249173133 0 0 0
2009 10140 2 0.4 28.090219752878692 52.379939440088776 9.376130041563055 0 0 0
2010 10157 2 0.4 32.576325250947995 50.846643838897386 9.035171668744297 0 0 0
2093 1581 3 1.6 31.08614570726138 52.43666892904073 8.241386918661455 0 0 0
2095 1591 3 1.6 30.891129212281022 54.971141567757165 10.0894602375207 0 0 0
2092 6710 1 -0.8 31.03185883542197 53.011715226597396 6.750664218066555 0 0 0
2090 6712 1 -0.8 29.820662201619466 51.46935018972545 8.399768918994246 0 0 0
2094 6713 1 -0.8 30.737006001339836 53.62325331825171 9.264553581855225 0 0 0
2096 6714 1 -0.8 32.619939925669726 52.0911616645233 8.498927525927783 0 0 0
2097 6757 1 -0.8 32.436214765249545 55.443112297166174 9.950285843067372 0 0 0
2189 6753 1 -0.8 28.310311324592764 55.427709367938334 7.244980469527379 0 0 0
2863 10283 2 0.4 29.96448007432227 51.59032527651768 10.781928072895193 0 0 0
1393 1589 3 1.6 28.806251143825744 55.860770831148535 5.772768965308574 0 0 0
1230 1782 3 1.6 36.324909310561715 51.47823915043973 5.882164801544845 0 0 0
1227 6953 1 -0.8 34.76832777246088 51.89126456498914 5.6939911951976825 0 0 0
1226 6954 1 -0.8 33.662174498735 54.26327577864269 5.8648893703479414 0 0 0
1241 7252 1 -0.8 38.8679088015381 54.557451675370636 5.514639241977583 0 0 0
1409 1683 3 1.6 33.600693685430215 55.85781026649148 5.963071218471671 0 0 0
2967 6934 1 -0.8 33.44844268517639 51.85265889549557 10.857903723670134 0 0 0
2098 10157 3 1.6 33.3654441948341 51.10249859385019 9.467349210542508 0 0 0
2102 1783 3 1.6 36.375601848092785 51.30989494539278 9.029952773032951 0 0 0
2104 1801 3 1.6 36.21501356134931 54.41523105367618 9.506637830066818 0 0 0
2099 6935 1 -0.8 34.89275454876013 50.71815612168936 9.132774416363715 0 0 0
2100 6958 1 -0.8 34.8043759473536 54.77216248998554 8.818896349151311 0 0 0
2101 7198 1 -0.8 36.734764169240506 51.30721720929539 7.440573793632648 0 0 0
2105 7201 1 -0.8 37.528828438825784 50.56928772431769 9.889406272808692 0 0 0
2103 7202 1 -0.8 36.38848668722717 52.829271047983454 9.593777761148957 0 0 0
2106 7258 1 -0.8 37.4848818826173 55.0723651241518 8.727435390895497 0 0 0
1248 7627 1 -0.8 42.327964816098905 53.38339685672529 4.931804316083542 0 0 0
2107 10177 3 1.6 39.00507593695185 51.01513884267896 10.339911350380177 0 0 0
2116 1953 3 1.6 43.460275529412115 50.30370244114389 9.512617074492269 0 0 0
2111 1954 3 1.6 41.15127523668416 52.012637651671554 8.477693991759908 0 0 0
2113 1976 3 1.6 41.277412406615284 54.803707565892935 9.680997378538084 0 0 0
2108 7200 1 -0.8 39.70547169848798 51.66730368268008 9.059960681900295 0 0 0
2109 7257 1 -0.8 40.16807475284749 55.35963638276789 8.653658159590108 0 0 0
2110 7628 1 -0.8 41.027394090153535 52.49395214850134 6.954228320920062 0 0 0
2114 7630 1 -0.8 42.222803221429494 50.82226746822993 8.621669797542527 0 0 0
2112 7632 1 -0.8 41.6773586412795 53.28657515432512 9.337977811661078 0 0 0
2115 7687 1 -0.8 42.65510044874382 55.6680361266764 9.636157429808536 0 0 0
1259 7963 1 -0.8 46.690395703190084 50.43036960977786 5.5431720584111455 0 0 0
1260 2098 3 1.6 46.301561013329845 51.94682976815849 5.925333797461792 0 0 0
1271 8751 1 -0.8 49.107345239425044 54.618178371773915 5.641259627044068 0 0 0
2125 2390 3 1.6 49.01917819653487 50.24165994204569 9.473429159412229 0 0 0
2120 2099 3 1.6 46.347994033263234 51.53349634638812 8.94137639114462 0 0 0
2122 2117 3 1.6 46.54453354580996 54.33711675138965 9.970823488650332 0 0 0
2117 7631 1 -0.8 44.84207484351645 50.962675628802195 8.946693706451631 0 0 0
2118 7688 1 -0.8 45.157760801841796 54.7429648532454 9.235004178780283 0 0 0
2119 7966 1 -0.8 46.63159899430637 52.17941926138305 7.482619470265053 0 0 0
2121 7967 1 -0.8 46.56871207442022 52.72068776337325 10.021065563564 0 0 0
2123 7968 1 -0.8 47.43389236383668 50.374560061387264 9.213220806130067 0 0 0
2124 8005 1 -0.8 47.84464343365026 54.88469486617502 9.178252203499742 0 0 0
2994 8691 1 -0.8 49.3563622318974 50.753262797998616 10.965655418279763 0 0 0
2129 2391 3 1.6 51.318516592832 51.803868538851994 8.344460160660095 0 0 0
2131 2421 3 1.6 51.56226558687844 54.699914741568286 9.445922225227278 0 0 0
2128 8690 1 -0.8 51.571660187312254 52.13131482011513 6.784492484316627 0 0 0
2126 8692 1 -0.8 49.838406045206845 51.178069062429074 8.452086163014107 0 0 0
2130 8693 1 -0.8 51.35842224946765 53.10217669903623 9.311999717922689 0 0 0
2132 8694 1 -0.8 52.45277371735589 50.732924460684664 8.803324592920923 0 0 0
2127 8755 1 -0.8 50.379872765181766 55.469711942777046 8.666317519841625 0 0 0
2133 8757 1 -0.8 53.01968663190644 55.02206333465544 8.846373437137201 0 0 0
2135 9200 1 -0.8 55.132714754528195 50.51712446188896 8.759935357798591 0 0 0
3000 8756 1 -0.8 51.51035173071556 55.23732141132244 10.965685683142956 0 0 0
1301 9830 1 -0.8 58.722182612759106 54.2003889971694 5.456356743798001 0 0 0
1489 3049 3 1.6 59.03232543880542 55.77924318802577 5.589933716144002 0 0 0
2143 3020 3 1.6 58.960750458966714 50.38161605389427 9.444971909256578 0 0 0
2136 9223 1 -0.8 55.593160782931974 55.400438251374375 8.51094744121632 0 0 0
2138 3021 3 1.6 56.26051263757996 51.63143341845713 8.420215114711544 0 0 0
2140 3051 3 1.6 56.51820975071613 54.49021408862012 9.470051836858241 0 0 0
2144 3961 1 -0.8 60.4186578391903 50.879838285818586 8.945654788237288 0 0 0
2145 4035 1 -0.8 60.5699557326208 55.367337187414144 8.700926159105451 0 0 0
2137 9787 1 -0.8 56.0765600287679 52.073319556855246 6.880013384993953 0 0 0
2141 9789 1 -0.8 57.76018061869271 51.02662708723609 8.573328698781895 0 0 0
2139 9790 1 -0.8 56.09252054288683 52.93316646828725 9.365396053323881 0 0 0
2142 9834 1 -0.8 58.0574077149044 54.642145140826926 9.02538571259394 0 0 0
1313 364 3 1.6 3.2947422795706904 55.93787836862976 5.755497334130856 0 0 0
1309 394 3 1.6 0.6804499887685962 60.13518312668305 5.85637555394118 0 0 0
1317 4030 1 -0.8 4.81863000952223 56.36391256437765 5.454120838383534 0 0 0
1308 4102 1 -0.8 0.6553302902651073 58.521450186680084 5.8228764482843545 0 0 0
2150 365 3 1.6 3.409420506285306 56.226176572137476 8.776870597808916 0 0 0
2152 395 3 1.6 3.3943342916381845 59.20130256627949 9.829369633083767 0 0 0
2147 396 3 1.6 0.7063482711502125 60.28635114386708 8.855244135204398 0 0 0
2149 4031 1 -0.8 2.886177912672581 56.35157977490652 7.26074045656157 0 0 0
2151 4032 1 -0.8 3.770037769430555 57.70158077554274 9.341428089342413 0 0 0
2146 4104 1 -0.8 0.33477931028324 60.66348643491261 7.336631393634349 0 0 0
2148 4106 1 -0.8 2.265412692527565 59.86361452547742 8.889939494087404 0 0 0
2153 4107 1 -0.8 4.7213454780055795 60.11538165600639 9.859632259056738 0 0 0
2154 4546 1 -0.8 5.42777184235301 60.907387307409664 7.48124447962222 0 0 0
1325 613 3 1.6 5.723164202652072 60.47764726131376 5.961365244674694 0 0 0
1329 934 3 1.6 8.244287475106933 56.12387305507776 6.012970845288252 0 0 0
1341 964 3 1.6 10.624733466380862 60.169054475654 5.5746259847450395 0 0 0
1324 4544 1 -0.8 5.555452503182342 58.87489378321236 5.832511566308162 0 0 0
1333 5257 1 -0.8 9.782912563919345 56.44301188883878 5.659166012750916 0 0 0
2155 614 3 1.6 5.951152044327793 60.667440029147144 8.978493513795431 0 0 0
2158 935 3 1.6 8.1611349709956 56.02636768065074 9.04999741135211 0 0 0
2160 965 3 1.6 8.10455177569566 58.810544104479874 9.995944802913277 0 0 0
2163 966 3 1.6 10.538948935704212 60.03457759052546 8.705701044566844 0 0 0
2156 4547 1 -0.8 7.132871585114307 59.577605281185015 8.969029814775825 0 0 0
2157 5258 1 -0.8 7.9187866567080745 56.51801934175378 7.535656104343614 0 0 0
2159 5259 1 -0.8 7.771320793636477 57.23884256026977 10.030875712499277 0 0 0
2162 5312 1 -0.8 10.251964411957102 59.89173310199918 7.123179541729272 0 0 0
2161 5315 1 -0.8 9.632190760884013 58.97439466398814 9.508983924907657 0 0 0
2166 1155 3 1.6 13.208084758710697 56.185097070445224 9.040482830629259 0 0 0
1345 1154 3 1.6 13.178953026167749 56.205868997314745 5.971398283567783 0 0 0
1357 1184 3 1.6 15.64236509410582 60.12218305903633 5.664996605321656 0 0 0
1349 5747 1 -0.8 14.726667546833237 56.38503574237337 5.539824527838749 0 0 0
2168 1185 3 1.6 13.097603352585752 59.057639231143874 10.067926306937741 0 0 0
2171 1186 3 1.6 15.58072371385685 60.280849468292324 8.69941400126347 0 0 0
2164 5316 1 -0.8 12.09506437110179 59.772551826978784 9.026811916252536 0 0 0
2165 5748 1 -0.8 12.974917133439018 56.63993325549854 7.508369617155141 0 0 0
2167 5749 1 -0.8 12.91945204932664 57.45439167260859 9.98841972708755 0 0 0
2170 5802 1 -0.8 15.349337690681937 59.74902507894507 7.203033571676003 0 0 0
2169 5805 1 -0.8 14.613704146348395 59.472741535879145 9.706443708337954 0 0 0
2073 6003 1 -0.8 19.594104175483682 55.9989035415748 9.582099843571328 0 0 0
1361 1273 3 1.6 18.430532452302593 56.10634658098865 5.7127441011303395 0 0 0
1373 1424 3 1.6 20.974275243901904 60.54224247920165 5.937593887952564 0 0 0
1360 5803 1 -0.8 17.20375685712741 60.50229745953608 5.488542497037568 0 0 0
1365 6000 1 -0.8 19.89602410104538 56.77951905369535 5.560286012644172 0 0 0
1372 6365 1 -0.8 21.30981602370194 58.98214113225207 5.708487940713353 0 0 0
2174 1274 3 1.6 18.167448913158665 55.98884000894129 8.812738019682442 0 0 0
2176 1292 3 1.6 18.046337756682824 58.84186059397665 9.662421273314438 0 0 0
2179 1426 3 1.6 20.62398758079718 60.372093537620685 9.037440781413695 0 0 0
2172 5806 1 -0.8 17.11348164477961 60.04578980512563 9.14299555633384 0 0 0
2175 6002 1 -0.8 17.600102373341944 57.490936398341915 8.910905498011894 0 0 0
2177 6039 1 -0.8 19.59536743898345 59.17920716431691 9.359551497408734 0 0 0
2178 6366 1 -0.8 20.518723084050244 60.74686895826178 7.469981343231457 0 0 0
1377 1394 3 1.6 23.697463587135772 55.931845797124765 5.687697451243263 0 0 0
1389 1498 3 1.6 26.16081082419647 60.309739953669364 5.7033077138436825 0 0 0
1381 6304 1 -0.8 25.04253819360967 56.83829261438683 5.701401903348844 0 0 0
2182 1395 3 1.6 23.484491355577322 56.23344907224939 8.686698574767044 0 0 0
2184 1425 3 1.6 23.39612222214211 59.00376117533365 9.71458062847197 0 0 0
2187 1499 3 1.6 25.942002874756234 60.529236305313354 8.775126678261215 0 0 0
2181 6305 1 -0.8 23.337010227491632 55.60767956310184 7.216820574390637 0 0 0
2183 6306 1 -0.8 23.36307190654913 57.847292850958496 8.595988654126158 0 0 0
2180 6368 1 -0.8 22.131169144661513 59.9764828141883 9.468699911264311 0 0 0
2185 6369 1 -0.8 24.765517248341446 59.86142699365121 9.656118144052222 0 0 0
2186 6521 1 -0.8 25.772912489452295 60.08098746432066 7.246011715319182 0 0 0
2188 6522 1 -0.8 27.378507215889723 60.04865181783926 9.327603707320868 0 0 0
1404 6805 1 -0.8 31.770087984101337 58.92374991745081 5.778886980862123 0 0 0
2091 6755 1 -0.8 29.897558253048135 55.975609284674405 9.262139125167765 0 0 0
2190 1590 3 1.6 28.36847098559742 55.9607056608899 8.759021755477693 0 0 0
1405 1619 3 1.6 31.295272026502193 60.43411061922735 6.099606820205687 0 0 0
1397 6752 1 -0.8 29.9714899458981 56.97662748475635 5.8971397361775795 0 0 0
1538 6564 1 -0.8 31.06723032901995 61.13318708682173 10.26597083185367 0 -1 0
2192 1620 3 1.6 28.277567821718055 58.75498397839908 9.667570164430964 0 0 0
2195 1621 3 1.6 31.13439568338906 59.95092073442562 9.17832910595631 0 0 0
2191 6754 1 -0.8 27.826056316820665 57.49185063279241 8.784879328095142 0 0 0
2194 6807 1 -0.8 31.126769863544546 60.6033799373477 7.695437972105613 0 0 0
2193 6810 1 -0.8 29.819088817417676 59.04991706752397 9.325767569247267 0 0 0
2196 6811 1 -0.8 32.455210158545434 59.05944987572613 9.422316329924797 0 0 0
2197 6956 1 -0.8 33.19996657158859 56.26277374009209 7.480553856367597 0 0 0
2198 1684 3 1.6 33.651712871900116 55.884635678218984 8.985954737802205 0 0 0
1413 6955 1 -0.8 35.06323354409676 56.41977383615246 5.510245081459895 0 0 0
1420 7315 1 -0.8 36.185777022757826 58.74526205433405 5.701934955840568 0 0 0
2200 1702 3 1.6 34.012145497435114 58.790630253870816 9.762422068229126 0 0 0
2203 1831 3 1.6 36.28614644216317 60.43675646817155 8.422817140648531 0 0 0
2199 6957 1 -0.8 34.31832201938012 57.22327600674834 9.60762792730237 0 0 0
2201 6994 1 -0.8 34.932245154844836 59.623267941747926 8.739124370444479 0 0 0
2205 7255 1 -0.8 38.6710243734798 56.696503767410036 7.047575757888705 0 0 0
2202 7316 1 -0.8 36.12496230486455 61.03340676533106 6.943543615424628 0 0 0
2204 7319 1 -0.8 37.5936143578645 59.493195517219405 8.53660414829378 0 0 0
2207 7256 1 -0.8 38.64363111779817 57.32792216196069 9.581534973814529 0 0 0
1425 1799 3 1.6 38.87141615556076 56.15578486550323 5.5443121878307755 0 0 0
1441 1974 3 1.6 44.167407837296594 56.11820890729009 5.737088128928383 0 0 0
1437 2004 3 1.6 41.375117197275785 60.37235989478468 6.189611917852529 0 0 0
1431 7013 1 -0.8 39.85447225132658 60.88023191587205 5.985465990995836 0 0 0
1436 7745 1 -0.8 41.43126128421861 58.782227537634526 5.929963381998432 0 0 0
2206 1800 3 1.6 38.72942509024443 56.09203621307007 8.539324376935392 0 0 0
2208 1830 3 1.6 38.701858345434495 58.94750964763299 9.576298220200105 0 0 0
2214 1975 3 1.6 44.06091874207488 55.86690758382615 8.854538861082702 0 0 0
2216 2005 3 1.6 44.26729264486923 58.646328860880324 10.065146359759124 0 0 0
2211 2006 3 1.6 41.666609101474485 60.107505385405034 9.166108935549865 0 0 0
2209 7318 1 -0.8 40.20017915432033 59.41802260484976 9.178904311865024 0 0 0
2213 7685 1 -0.8 43.741366532181296 55.79217987925301 7.265235566922141 0 0 0
2210 7746 1 -0.8 41.870687312371906 60.70487892225738 7.6830171129381 0 0 0
2212 7748 1 -0.8 42.818335364082124 59.028898336607085 9.466342131710261 0 0 0
2215 7686 1 -0.8 44.701647850253494 57.28506514618627 9.30905022062623 0 0 0
1453 2128 3 1.6 46.361721618239756 60.6675937831937 5.878303889538342 0 0 0
1457 2419 3 1.6 49.01808437162541 56.224129917683406 5.806510889802857 0 0 0
1445 7684 1 -0.8 45.498753132657804 57.02370808331264 5.801752830990002 0 0 0
2219 2129 3 1.6 46.51940740880513 60.52499263090782 8.921755453044044 0 0 0
2222 2420 3 1.6 48.871909088633245 56.06061085313843 8.762051506541887 0 0 0
2224 2450 3 1.6 48.92980293063703 58.937751863840916 9.875463365696758 0 0 0
2217 7749 1 -0.8 45.36721814517589 59.80288909742585 9.801660014541548 0 0 0
2218 8026 1 -0.8 45.94935903901376 60.73537009533605 7.430931216673036 0 0 0
2220 8027 1 -0.8 47.867035467128396 59.62781371688715 8.872577797729486 0 0 0
2221 8753 1 -0.8 48.49516493518714 56.569109639352 7.287353180677974 0 0 0
2223 8754 1 -0.8 48.82117983267118 57.32232497520496 9.76926671676454 0 0 0
1469 2449 3 1.6 51.41174893244975 60.196368848602226 5.642351939392929 0 0 0
1461 8752 1 -0.8 50.49789926239486 56.83508588524532 5.6075594812331335 0 0 0
1472 8808 1 -0.8 52.61599507731963 61.271943092561635 5.698975045448633 0 0 0
2227 2451 3 1.6 51.48133362787223 60.146236833408686 8.602915718506512 0 0 0
2230 2659 3 1.6 54.13953936129377 56.09900539356393 8.42938250249406 0 0 0
2232 2677 3 1.6 54.01522140804977 58.93085834293633 9.83747018610608 0 0 0
2226 8807 1 -0.8 51.05118692271338 59.72118548322731 7.12465624023404 0 0 0
2225 8810 1 -0.8 50.4512475658634 59.41377999377427 9.602457235579442 0 0 0
2228 8811 1 -0.8 53.01196768395103 59.696374627610396 8.840268023636696 0 0 0
2229 9221 1 -0.8 53.86267000831631 56.501594965670904 6.896562775367302 0 0 0
2231 9222 1 -0.8 54.06097739597659 57.36413151174544 9.434002534766117 0 0 0
1485 3079 3 1.6 56.3461162657574 60.13199242510715 5.860482430262758 0 0 0
1488 9277 1 -0.8 57.743050717991764 60.923506297774985 5.624530261318444 0 0 0
1484 9874 1 -0.8 56.55409944773059 58.55259170528691 5.579385229846661 0 0 0
2233 9259 1 -0.8 55.510131130922844 59.54525079628191 9.789109526613888 0 0 0
2238 3050 3 1.6 59.03982247250323 55.84819440969154 8.612935399525469 0 0 0
2240 3080 3 1.6 58.99103572071096 58.69226240612022 9.699101290093989 0 0 0
2235 3081 3 1.6 56.58163420919322 60.30569587804168 8.856075771722665 0 0 0
2241 4108 1 -0.8 60.51012521567283 59.038239107569254 9.295925891738861 0 0 0
2237 9832 1 -0.8 58.73167986418842 56.27235190947768 7.092940688753091 0 0 0
2239 9833 1 -0.8 58.78301203473481 57.09875460316316 9.598846047016417 0 0 0
2234 9875 1 -0.8 55.92980893757698 60.404227829764515 7.391156167569636 0 0 0
2236 9877 1 -0.8 57.942238439243276 59.4451238102546 8.73770638263868 0 0 0
2242 3123 1 -0.8 0.6219764834220048 2.315531135173241 11.361008413761946 0 0 0
2253 4159 1 -0.8 5.332284165428067 1.9491610186657948 11.575662143006799 0 0 0
2249 7 3 1.6 3.231951816290883 0.22999156798811754 13.982960509453184 0 0 0
2243 8 3 1.6 0.910211788161952 1.7972665746308907 12.852367445619509 0 0 0
2245 38 3 1.6 0.7106383757338348 4.61945498853009 14.171784527897712 0 0 0
2247 3125 1 -0.8 2.3820520719298526 1.152566882256583 12.967327149417443 0 0 0
2250 3126 1 -0.8 2.850191522179905 0.6724778114258069 15.488422864084788 0 0 0
2251 3127 1 -0.8 4.796860376442836 0.4766028811081512 13.694976254359693 0 0 0
2244 3130 1 -0.8 0.7286886178908909 3.024664978910639 13.888300725242127 0 0 0
2248 3212 1 -0.8 2.204269728435283 5.221377883831899 14.000445314017158 0 0 0
2252 3214 1 -0.8 4.7003330402259955 5.0622349557916735 13.129256114192362 0 0 0
2246 3216 1 -0.8 0.24652210586480663 4.906723229786358 15.688331860227718 0 0 0
2257 4190 1 -0.8 5.219170241357997 4.73782561813825 15.636975068357243 0 0 0
2264 4588 1 -0.8 10.151732191780678 1.7128695816167807 11.379392200637753 0 0 0
2254 423 3 1.6 5.8145049658339145 1.5439188475082177 13.052841511175522 0 0 0
2256 435 3 1.6 5.777303522323201 4.449031305859966 14.156097688103085 0 0 0
2260 637 3 1.6 8.445405489066822 0.5243107508124919 14.045400065594995 0 0 0
2265 638 3 1.6 10.723554047079382 2.0696823471582917 12.855309594330619 0 0 0
2267 668 3 1.6 10.748805425691469 4.918987505657398 14.060186434633422 0 0 0
2258 4162 1 -0.8 7.2982575396175875 0.9341038063142417 12.993828677140602 0 0 0
2255 4163 1 -0.8 5.882275629307431 2.856554536952277 13.98030101450339 0 0 0
2259 4189 1 -0.8 7.218480850274322 5.1492252891604915 13.9587970726248 0 0 0
2262 4591 1 -0.8 9.667278417526184 1.5595156062600288 13.961465450083324 0 0 0
2261 4592 1 -0.8 7.797719360120907 0.48621520344272184 15.516676370806902 0 0 0
2266 4594 1 -0.8 10.866055509324399 3.6625186186278005 13.052062049172234 0 0 0
2268 4662 1 -0.8 10.311676743470944 4.500914089528509 15.557245931498143 0 0 0
2275 5368 1 -0.8 15.295106766919714 1.1646063611251682 11.252727793402162 0 0 0
2271 997 3 1.6 13.08600985749507 0.5192509619168147 14.122290317682687 0 0 0
2276 998 3 1.6 15.568720255183509 1.6700076119568208 12.7516668481359 0 0 0
2278 1028 3 1.6 15.577610119071538 4.4932174332643555 13.80676649646032 0 0 0
2269 4595 1 -0.8 12.135427970905553 1.3093424309020416 13.073626411590165 0 0 0
2273 5371 1 -0.8 14.632435199052834 0.836162193090776 13.76751177311396 0 0 0
2272 5372 1 -0.8 12.758921208242842 1.0466643343590962 15.607497853426047 0 0 0
2277 5374 1 -0.8 15.222139557425216 3.244108727557608 12.852339707478441 0 0 0
2274 5440 1 -0.8 14.721940487714873 5.790733982215179 13.379862444065411 0 0 0
2279 5442 1 -0.8 15.192047206521307 4.0667547834029465 15.314157289175487 0 0 0
2286 6066 1 -0.8 20.578318602013514 2.2875104371026196 11.455848318993716 0 0 0
2282 1215 3 1.6 18.25320857323785 0.5351833589085062 13.763412772118711 0 0 0
2287 1308 3 1.6 20.9696420732236 1.865805099731061 12.958478300069078 0 0 0
2289 1338 3 1.6 20.836647628824494 4.689718482216803 14.117103882351227 0 0 0
2280 5375 1 -0.8 17.134712955962915 1.4854102811437053 13.099431875751002 0 0 0
2284 5855 1 -0.8 19.714430374509842 1.222224471781257 13.748458830956311 0 0 0
2283 5856 1 -0.8 17.80236897723342 0.2341726622395476 15.284462405601687 0 0 0
2288 6072 1 -0.8 21.35151680914322 3.2184550271848225 13.716547678503911 0 0 0
2290 6146 1 -0.8 20.13306239258231 4.59201002972109 15.559616997051416 0 0 0
2281 5443 1 -0.8 17.15514068439091 4.846159034404705 13.706739140338039 0 0 0
2291 6068 1 -0.8 22.231526156704646 0.8527661711249505 12.925342370799063 0 0 0
2297 6404 1 -0.8 25.643347156066337 1.5199397892343443 11.242574641354002 0 0 0
2293 1307 3 1.6 23.445291057465457 0.08424239869061262 13.67487482227655 0 0 0
2298 1453 3 1.6 25.825258410359627 1.9056926076688494 12.791480254992544 0 0 0
2300 1465 3 1.6 26.016756176216106 4.63990865777188 14.028541165679606 0 0 0
2294 6069 1 -0.8 23.028827001767354 61.157914583706116 15.198916189763976 0 -1 0
2295 6070 1 -0.8 24.793546780290253 0.9931316163390985 13.653052640371843 0 0 0
2302 6407 1 -0.8 27.369110014059927 1.6389834119080458 13.1942893516056 0 0 0
2299 6408 1 -0.8 25.543168324924952 3.475408672909787 13.008361624216484 0 0 0
2303 6434 1 -0.8 27.45907904118587 5.222628036055954 13.567070833167712 0 0 0
2301 6435 1 -0.8 26.11414719657669 3.9187116928907764 15.47737920111828 0 0 0
2305 6567 1 -0.8 27.972159493565645 0.10491557115930446 15.195802957386901 0 0 0
2308 6563 1 -0.8 31.588060350190883 1.8309514643029055 11.761947616236197 0 0 0
2304 1522 3 1.6 28.329666375254092 0.43614827047328353 13.654613970841673 0 0 0
2309 1523 3 1.6 31.094761868821763 1.8258171919389172 13.299972479957974 0 0 0
2311 1553 3 1.6 30.909728004399344 4.773403440774557 13.92560951371757 0 0 0
2306 6566 1 -0.8 29.90897647495243 0.7507104577810257 13.52205175192132 0 0 0
2310 6569 1 -0.8 30.451751929733263 3.2593774588275144 13.620864314755309 0 0 0
2313 6570 1 -0.8 32.359111499495036 1.4939459455972997 14.257096529144233 0 0 0
2312 6637 1 -0.8 30.611202123474477 5.046153357469906 15.479569195958387 0 0 0
2314 6638 1 -0.8 32.49927246008394 4.827075036660448 13.638448015129256 0 0 0
2319 7021 1 -0.8 36.33343920484729 1.1437202579059387 11.891209147194123 0 0 0
2431 6899 1 -0.8 33.9571518836532 5.346725865546689 11.55027089207582 0 0 0
2315 1650 3 1.6 33.59248084810318 0.4487510485956914 14.363086783902897 0 0 0
2320 1718 3 1.6 36.31042564805108 1.7477771984420838 13.376254389750555 0 0 0
2322 1748 3 1.6 36.25528063935662 4.625074847563654 14.271290517229858 0 0 0
2317 6860 1 -0.8 35.04702040112516 1.1562336809475164 14.205273622920817 0 0 0
2324 7024 1 -0.8 37.73846457852344 1.4017054945502547 14.054038810930233 0 0 0
2321 7027 1 -0.8 36.19451682741798 3.350159671577751 13.287722650375088 0 0 0
2325 7099 1 -0.8 37.72227488335241 5.313355816927908 14.190940743978453 0 0 0
2323 7101 1 -0.8 35.984016038446626 4.090282132868188 15.773799801535558 0 0 0
2318 6901 1 -0.8 35.07495023546463 5.633330353309294 13.879266470625153 0 0 0
2330 7366 1 -0.8 41.863378483155316 2.0651469336486583 11.788087342275336 0 0 0
2326 1717 3 1.6 38.97294178945713 0.37339231950863766 14.216317882522972 0 0 0
2327 7025 1 -0.8 39.28525588415604 0.3000142350938755 15.791314198257279 0 0 0
2331 1863 3 1.6 41.51446966492107 1.9214634889681783 13.350963287520504 0 0 0
2333 1893 3 1.6 41.51404300172833 4.837685250942723 14.209900871729928 0 0 0
2328 7023 1 -0.8 40.31788642304791 0.84433333207728 13.46236815878194 0 0 0
2335 7368 1 -0.8 42.852550285418474 1.4500192304182073 14.128612358681329 0 0 0
2332 7372 1 -0.8 41.0048420030399 3.3278255192287056 13.9497873364939 0 0 0
2336 7443 1 -0.8 42.84329070692137 5.07641545505108 13.331181012366761 0 0 0
2334 7446 1 -0.8 41.93652933240125 5.010948772905353 15.746715260280137 0 0 0
2440 7094 1 -0.8 38.81893914650837 5.378436483487175 11.792063082930397 0 0 0
2337 1862 3 1.6 44.20402623943479 0.5655467660510823 14.245539549167942 0 0 0
2341 7784 1 -0.8 46.09653867453822 2.1402456096293023 11.530385978122352 0 0 0
2342 2033 3 1.6 46.69460041868574 2.043249612779292 13.019351518047724 0 0 0
2344 2045 3 1.6 46.67817370964172 5.0113663462258184 13.959515655744063 0 0 0
2348 2152 3 1.6 49.043681475337316 0.3634785504080682 14.032123686307932 0 0 0
2339 7370 1 -0.8 45.53328399220323 1.4515755661467575 13.979327065985151 0 0 0
2340 7445 1 -0.8 45.45792773530141 5.55965531188704 13.044048490474655 0 0 0
2346 7787 1 -0.8 48.01508747606472 1.1078188247828247 13.030633449499605 0 0 0
2343 7788 1 -0.8 47.10678284760582 3.521774763266695 13.509068920211728 0 0 0
2345 7815 1 -0.8 46.19884146367873 4.95848497029672 15.492092811590734 0 0 0
2349 8072 1 -0.8 48.62949708728458 0.7627135982357356 15.537010341302523 0 0 0
2352 8068 1 -0.8 51.23541635748866 0.976892265009021 11.24281158037421 0 0 0
2353 2153 3 1.6 51.57979354985044 1.5351513165870327 12.705190069929955 0 0 0
2355 2183 3 1.6 51.47779013088138 4.4786269721196295 13.660921910080534 0 0 0
2359 2480 3 1.6 54.23442861941975 0.5728200342999371 13.903083759722543 0 0 0
2350 8071 1 -0.8 50.57997808927753 0.8090653982336462 13.751740460443013 0 0 0
2354 8074 1 -0.8 51.37508542377086 3.1388311559516064 12.767645666021672 0 0 0
2357 8075 1 -0.8 53.148461190171744 1.2505715101566315 12.93427301732568 0 0 0
2356 8142 1 -0.8 50.980084843891596 4.147280786981768 15.147856190457233 0 0 0
2358 8143 1 -0.8 52.979746937243455 5.082622008181284 13.748926015398247 0 0 0
2360 8861 1 -0.8 53.55342256372186 0.5834046091816584 15.347970658116525 0 0 0
2363 9282 1 -0.8 55.92616493312902 1.8555436781457424 11.437070277172632 0 0 0
2361 8860 1 -0.8 55.622731377456276 1.3836828918617627 13.952693754914614 0 0 0
2362 8901 1 -0.8 55.4763123692784 5.517294654720311 12.979584325842529 0 0 0
2370 2692 3 1.6 59.09351460711644 0.29636123766658473 13.680905778223691 0 0 0
2364 2693 3 1.6 56.66516973067497 1.937138519902187 12.864230021499592 0 0 0
2366 2723 3 1.6 56.60095833744689 4.839332935155553 13.913792061965568 0 0 0
2372 3129 1 -0.8 60.575576403324696 0.6176184914517584 13.156667653268075 0 0 0
2368 9284 1 -0.8 57.985409182445665 1.017790807377927 12.767447382279904 0 0 0
2371 9285 1 -0.8 58.96429402354939 0.9035894308925192 15.16420045656905 0 0 0
2365 9287 1 -0.8 57.06975315848575 3.445046719157855 13.247270338910507 0 0 0
2367 9343 1 -0.8 55.98381499748582 4.6229996363762 15.376349612902027 0 0 0
2373 3215 1 -0.8 60.384049632200906 5.354873470781894 13.191455577508048 0 0 0
2377 3207 1 -0.8 2.895879672601315 6.3677078996377166 11.763971139295062 0 0 0
2374 3280 1 -0.8 0.3622249542526311 10.402517006050996 11.926985737634322 0 0 0
2383 4224 1 -0.8 5.38028719508007 10.010661998120069 11.913680577353935 0 0 0
2378 37 3 1.6 3.3953989898342516 6.007768993015047 13.24327587374174 0 0 0
2380 65 3 1.6 3.372528466953342 8.845914966510144 14.440461419443855 0 0 0
2375 66 3 1.6 0.97759455199231 10.409372016875546 13.414479854392647 0 0 0
2379 3213 1 -0.8 3.8070810487489677 7.352309808988848 14.030960428116702 0 0 0
2376 3282 1 -0.8 2.19121878645424 9.35119336583067 13.466090893716519 0 0 0
2381 3283 1 -0.8 2.787330335835252 8.86973725725002 15.934462268836581 0 0 0
2382 3284 1 -0.8 4.638126970677629 9.844780911481772 14.388970692848288 0 0 0
2386 4656 1 -0.8 7.797855530913636 6.20401625811951 11.61849820829086 0 0 0
2392 4718 1 -0.8 10.411664847088899 10.161681885398375 11.643506827865536 0 0 0
2263 4660 1 -0.8 9.66984247965654 5.976016490479398 13.477407856628496 0 0 0
2384 453 3 1.6 5.638403764369974 10.62663582636986 13.393225173480019 0 0 0
2387 667 3 1.6 8.10342070207722 6.267857053648825 13.1951908210764 0 0 0
2389 695 3 1.6 8.108237808285182 9.146342159421286 14.38191881637875 0 0 0
2393 696 3 1.6 10.583352470436264 10.507849214991195 13.215241359787857 0 0 0
2385 4227 1 -0.8 7.170855215088755 10.325220347712754 13.798282039593973 0 0 0
2388 4661 1 -0.8 7.709004979501269 7.751821017277418 13.678109784339393 0 0 0
2391 4720 1 -0.8 9.656724787936827 9.50633665901823 14.093121837282405 0 0 0
2390 4721 1 -0.8 7.807028256434084 8.975253583677597 15.952561777575468 0 0 0
2270 4663 1 -0.8 12.211447482810314 5.5843299916096365 14.185548948583026 0 0 0
2395 5436 1 -0.8 12.736822674430275 6.4857023029467085 11.803760881799478 0 0 0
2401 5498 1 -0.8 15.322820878778113 10.34748008706081 11.769798595100996 0 0 0
2396 1027 3 1.6 13.253181305034495 6.45062189380969 13.322996173443943 0 0 0
2398 1055 3 1.6 13.203717363888963 9.451689090275554 14.452082905380959 0 0 0
2402 1056 3 1.6 15.814307970048066 10.616607842106404 13.30842990041054 0 0 0
2394 4723 1 -0.8 12.142356920133256 10.33511710925345 13.612930224464005 0 0 0
2397 5441 1 -0.8 13.268494993330807 7.9519173742900255 13.879511721651022 0 0 0
2400 5500 1 -0.8 14.705362258921305 10.024162222857395 14.334751036280604 0 0 0
2399 5501 1 -0.8 12.713770410453943 9.386138962461857 15.984504772664447 0 0 0
2404 5894 1 -0.8 17.867403707568556 5.349235551063372 11.24296539259095 0 0 0
2410 6193 1 -0.8 21.221794568081588 9.969116466018946 11.87639612169108 0 0 0
2285 5896 1 -0.8 19.736950932836223 5.317285509534332 13.102803176663425 0 0 0
2405 1233 3 1.6 18.184544075820096 5.69579350192069 12.788710126004283 0 0 0
2407 1243 3 1.6 18.202183573178576 8.576590969564652 13.957630297206338 0 0 0
2411 1366 3 1.6 20.84629864353689 10.074887483494303 13.424180873296462 0 0 0
2403 5503 1 -0.8 17.23338154112798 9.831122472406346 13.541831876138277 0 0 0
2406 5897 1 -0.8 17.8979694137218 7.276035300344547 13.031421968922558 0 0 0
2409 5915 1 -0.8 19.774105365760057 8.905718631170865 13.793204510556077 0 0 0
2408 5916 1 -0.8 17.953493691374153 8.167623094976069 15.50701043492194 0 0 0
1721 10121 2 0.4 25.575139126017223 9.847225133409095 11.221307259245489 0 0 0
2413 6139 1 -0.8 23.576972276438003 5.579981180032783 11.928670240363207 0 0 0
2292 6143 1 -0.8 22.20209164030397 5.538331333500717 14.209209787369284 0 0 0
2419 6468 1 -0.8 25.26844987548875 8.875901379857172 11.988239209119595 0 0 0
2296 6145 1 -0.8 24.882255262880573 5.788312504253833 14.114111205528655 0 0 0
2414 1337 3 1.6 23.46777591765185 6.166133622831102 13.417967593021553 0 0 0
2416 1365 3 1.6 23.324873834440883 8.85833000579852 14.547595346143098 0 0 0
2415 6144 1 -0.8 23.161031889232948 7.727961401358726 13.420095298371045 0 0 0
2412 6195 1 -0.8 22.163217870443475 9.932339860818383 14.32771008040122 0 0 0
2417 6196 1 -0.8 23.105710264103504 8.179155664558301 15.987842582240532 0 0 0
2418 6197 1 -0.8 24.867826522671386 9.250840757062324 14.487449053144031 0 0 0
2421 6469 1 -0.8 27.17827438925231 9.919617080194323 13.496737416036089 0 0 0
2420 9980 3 1.6 25.599532093035968 9.846056050212605 13.210771722687582 0 0 0
2519 9980 2 0.4 24.721729956440814 10.174759680434297 13.573164024564077 0 0 0
2520 9980 1 -0.8 24.642193074611406 11.074704047885135 13.133973693226485 0 0 0
2422 6631 1 -0.8 28.27016217867435 5.686928428271423 11.067613444537587 0 0 0
2428 6690 1 -0.8 31.417784041211107 8.606257726461484 11.811041972409148 0 0 0
2307 6635 1 -0.8 30.013118877147804 5.770427233075733 13.034457903484489 0 0 0
2423 1552 3 1.6 28.478640350025707 6.0780049103791285 12.616438215251593 0 0 0
2425 1577 3 1.6 28.287971388689943 8.807072771545963 13.873150099202139 0 0 0
2424 6636 1 -0.8 28.145458626937117 7.628057625173068 12.795279724841954 0 0 0
2427 6691 1 -0.8 29.85164903244432 9.208148164008945 13.911877560068994 0 0 0
2426 6692 1 -0.8 27.939689742496466 8.19794400961586 15.323994008811498 0 0 0
2430 6693 1 -0.8 32.51140369425572 9.687183533424282 13.755625687899563 0 0 0
2429 10134 3 1.6 31.11283683351018 9.594151197774735 13.005824003140013 0 0 0
2522 10134 1 -0.8 30.759669130992098 10.849649841131884 12.161196814855902 0 0 0
2521 10134 2 0.4 31.094098296996055 9.91818266680697 12.233249127907595 0 0 0
3472 10135 2 0.4 28.664675131508226 8.119999385609022 15.959899041306418 0 0 0
1723 10286 1 -0.8 33.35421732215715 10.168429645904173 11.051382549230865 0 0 0
1722 10286 2 0.4 33.38436592041539 9.19242383264195 11.118690260969236 0 0 0
1725 10286 1 -0.8 33.704736912709365 7.822595533706893 10.783633414744155 0 0 0
2432 1668 3 1.6 33.680489115201276 5.792254246341821 13.070324111960726 0 0 0
2434 1677 3 1.6 33.766709507443686 8.6947272582734 13.732631459744372 0 0 0
2433 6902 1 -0.8 33.15337242450554 7.253050559692715 13.408654011945375 0 0 0
2436 6919 1 -0.8 35.06494311105033 8.901121039703794 12.847333665956175 0 0 0
2435 6920 1 -0.8 34.301238345749574 8.663998627244402 15.235866135439123 0 0 0
2442 7100 1 -0.8 38.48710061767607 7.620525518884018 13.156097079270872 0 0 0
2439 7150 1 -0.8 37.34464241916916 9.9400768267109 13.495779360316861 0 0 0
2438 10162 3 1.6 36.003845008475224 10.139755559677784 12.610831833349339 0 0 0
2523 10162 2 0.4 35.22524141091071 9.84309000068657 12.943360547770803 0 0 0
3474 10150 2 0.4 33.58422239512276 8.601549899354145 15.880610228881723 0 0 0
2441 1747 3 1.6 38.8248046090254 6.052690455280437 13.259057089253723 0 0 0
2443 1773 3 1.6 38.72069117558646 9.139780943198907 13.671616314193576 0 0 0
2449 7439 1 -0.8 43.63516937682776 6.708450870917777 11.501170675891629 0 0 0
2446 7493 1 -0.8 42.020620631879694 10.597931558831089 11.351867821231583 0 0 0
2329 7098 1 -0.8 40.329478835605244 5.871078231765462 13.845673820421105 0 0 0
2444 7151 1 -0.8 39.116493905710364 9.091725688453636 15.247243700511131 0 0 0
2450 1892 3 1.6 43.96162920938822 6.184912590312073 12.988815670064609 0 0 0
2452 1920 3 1.6 43.823503953694335 9.01937641048564 14.218462128444505 0 0 0
2447 1921 3 1.6 41.40775258301509 10.468281889499469 12.828818203655498 0 0 0
2445 7149 1 -0.8 39.93831424080751 9.78550018007982 12.813249063589023 0 0 0
2451 7444 1 -0.8 43.84588229505423 7.404760699494955 14.031476692525194 0 0 0
2448 7495 1 -0.8 42.38593856872726 9.571886863181511 13.763222020015823 0 0 0
2453 7496 1 -0.8 44.16150701325581 9.318377162825529 15.763358589330245 0 0 0
2347 7814 1 -0.8 47.98442833866735 5.9457064003474205 13.825756307190959 0 0 0
2455 7849 1 -0.8 46.82008675047468 10.797764445297274 11.91459556287043 0 0 0
2458 8136 1 -0.8 48.610699892694335 5.875197080272773 11.30904925288987 0 0 0
2456 2063 3 1.6 46.43995583932914 10.355135575001837 13.407718402647813 0 0 0
2459 2182 3 1.6 49.12706058850283 6.339953170874322 12.76069679676077 0 0 0
2461 2210 3 1.6 49.15735829053631 9.009407636506733 14.052941766654266 0 0 0
2454 7497 1 -0.8 45.005212858088086 9.637676021231009 13.326272231827659 0 0 0
2457 7852 1 -0.8 47.58692024916952 9.375969364297463 13.995181480379568 0 0 0
2460 8141 1 -0.8 49.389830782023786 7.926859695537364 12.88327256991666 0 0 0
2462 8201 1 -0.8 49.49379680056285 8.364211383932057 15.49732497658778 0 0 0
2464 8198 1 -0.8 51.9227616090683 10.256900124975171 11.990306920053342 0 0 0
2467 8899 1 -0.8 53.429929709690526 5.950737017220887 11.371719145416735 0 0 0
2351 8140 1 -0.8 50.52949739392229 5.6119696045497065 13.038611543425132 0 0 0
2465 2211 3 1.6 51.708012174049344 10.590425347326757 13.555717096718096 0 0 0
2468 2498 3 1.6 53.95351610426273 6.044932100567045 12.890634655601668 0 0 0
2470 2508 3 1.6 54.11057170056524 8.814987290624988 14.3933693918599 0 0 0
2463 8200 1 -0.8 50.15534564635315 10.270473037633638 13.890029963543393 0 0 0
2466 8203 1 -0.8 52.72539313084205 9.665851096477503 14.417122491149625 0 0 0
2469 8902 1 -0.8 53.92728530001758 7.595045279370788 13.353410077421712 0 0 0
2471 8921 1 -0.8 54.399818236903975 8.223677926332359 15.857259478329434 0 0 0
2476 9338 1 -0.8 58.46001479242613 6.2194095595980246 11.64041779371738 0 0 0
2473 9381 1 -0.8 55.970513985431005 10.064432461119393 11.585425585322607 0 0 0
2369 9341 1 -0.8 57.899819113460666 5.77009123109677 14.094694285372498 0 0 0
2472 8920 1 -0.8 55.38106172507905 9.76711108251752 14.06737303132874 0 0 0
2477 2722 3 1.6 59.06926934513281 6.294029295144883 13.13125575876294 0 0 0
2479 2750 3 1.6 59.0671563210774 9.24182801223629 14.19910012387627 0 0 0
2474 2751 3 1.6 56.43768381582635 10.464146708959566 13.068674505663788 0 0 0
2481 3286 1 -0.8 60.4561501705141 10.040238599027479 14.363713197954437 0 0 0
2478 9342 1 -0.8 59.43702992957735 7.8026300866244975 13.55850528168982 0 0 0
2475 9383 1 -0.8 57.966344613594984 9.970911211400969 13.273111280073627 0 0 0
2480 9384 1 -0.8 58.42810401822094 9.143298644352285 15.66299808281861 0 0 0
2486 3332 1 -0.8 3.069703756801784 14.402377791619568 12.102336974419071 0 0 0
2487 87 3 1.6 3.198478223674669 15.033100804470054 13.574267124322601 0 0 0
2483 88 3 1.6 0.9918742212494438 13.242956592185823 14.451670682640781 0 0 0
2482 3285 1 -0.8 1.5417030384673762 11.837653749938426 13.895206175054689 0 0 0
2488 3337 1 -0.8 2.8333134399953366 16.596304844001136 13.495523513257004 0 0 0
2485 3338 1 -0.8 2.1904777982845594 14.296886413608718 14.58546998370876 0 0 0
2489 3339 1 -0.8 4.688164637286435 14.74950166565101 14.08354170909977 0 0 0
2484 3341 1 -0.8 0.25595114484297243 13.087683093387774 15.875332207190729 0 0 0
2492 4246 1 -0.8 5.123288262269848 13.100563369061554 16.042723807750477 0 0 0
2490 4226 1 -0.8 5.367194450644959 12.21747630636986 13.532806448047785 0 0 0
2494 4760 1 -0.8 7.2983734411426076 14.992987559368435 12.213352573671141 0 0 0
2491 463 3 1.6 5.560042174559337 13.472415177995423 14.542627268506806 0 0 0
2495 717 3 1.6 7.904163368162984 15.042411340474295 13.703732589222447 0 0 0
2499 718 3 1.6 10.307995180884598 13.376475367542538 14.393234521772394 0 0 0
2493 4245 1 -0.8 7.085239825104494 13.956977769527526 14.565702442402898 0 0 0
2498 4722 1 -0.8 10.09723795649485 12.022489058126087 13.52307354743341 0 0 0
2496 4763 1 -0.8 7.651790967903915 16.539365830429148 14.217652090555486 0 0 0
2497 4764 1 -0.8 9.440659294938843 14.586978133889387 13.762461474834785 0 0 0
2500 4765 1 -0.8 9.859954943410372 13.14971529686524 15.928403460461753 0 0 0
2502 5540 1 -0.8 12.194961817607718 14.502871942596563 11.839604839968041 0 0 0
2503 1077 3 1.6 12.71163497431598 14.738275148607869 13.346555875869191 0 0 0
2507 1078 3 1.6 15.394381398288072 13.63070001541954 14.310622648498327 0 0 0
2501 4766 1 -0.8 11.857589085908339 13.78459137846827 14.327393779913097 0 0 0
2506 5502 1 -0.8 15.820237802246847 12.200444782547292 13.634840926992027 0 0 0
2504 5543 1 -0.8 12.405651977329773 16.258365687810432 13.727361153051223 0 0 0
2505 5544 1 -0.8 14.269214599360053 14.35416468777607 13.42385004887931 0 0 0
2508 5545 1 -0.8 14.792573075523158 13.43500159374067 15.79770972839728 0 0 0
2510 5935 1 -0.8 17.999974992698604 13.512333987304974 12.380647471255402 0 0 0
2509 5546 1 -0.8 16.750208726153208 14.475109278842321 14.395529466533011 0 0 0
2513 5938 1 -0.8 19.18018048708809 13.58174305217043 14.7732150002802 0 0 0
2514 6198 1 -0.8 20.064002767242627 11.426107231695621 13.706010321999404 0 0 0
2516 6230 1 -0.8 20.22788956263027 11.577915193596594 16.220256092531603 0 0 0
2511 10075 3 1.6 18.19454786787838 14.288179660782108 13.740833601043521 0 0 0
2512 10075 1 -0.8 18.707193526121777 15.600297160482734 13.08190348906029 0 0 0
2515 10091 3 1.6 20.289447036589937 12.446128713265267 14.888731664976127 0 0 0
2517 10091 1 -0.8 21.73977720551319 12.864719259603751 14.542433370044046 0 0 0
2518 10091 2 0.4 20.99753858275893 12.224116217774911 14.399855827062689 0 0 0
2588 10075 2 0.4 18.311867601109544 14.69047514403653 12.927385221059442 0 0 0
2524 10162 1 -0.8 35.138266700282905 11.289707511217062 13.225603781199574 0 0 0
2528 7498 1 -0.8 41.35836639614367 11.921798970907414 13.471744398624965 0 0 0
2531 7537 1 -0.8 43.702677126643074 12.58373168201604 13.473360048429065 0 0 0
2530 7539 1 -0.8 42.47683915050164 11.892054900403568 15.755035990541792 0 0 0
2529 10166 3 1.6 42.395352359829786 12.696284748605322 14.369514361002324 0 0 0
2527 10166 1 -0.8 42.06915869828014 14.212682762209026 14.616313233503469 0 0 0
2526 10166 2 0.4 42.82183204668548 12.239224004582566 13.674423946725087 0 0 0
2532 10189 1 -0.8 43.94742119688146 15.060254553501338 12.466818275809441 0 0 0
2534 10189 3 1.6 44.64857511828691 13.722123311212236 12.866734166351534 0 0 0
2589 10189 2 0.4 44.73091486826191 13.932456097202433 12.017989368532147 0 0 0
2533 7533 1 -0.8 45.25083800236849 13.347388288860387 11.454538201935616 0 0 0
2540 8240 1 -0.8 49.75608084366061 14.410164185031585 11.769598659297536 0 0 0
2537 2073 3 1.6 46.942418913464195 13.129594110018006 14.566685059762706 0 0 0
2541 2232 3 1.6 49.39900279641102 14.51156927130395 13.338213495795147 0 0 0
2535 7538 1 -0.8 45.82237289866661 14.033107904027561 13.891346601045582 0 0 0
2536 7851 1 -0.8 46.43110794670293 11.61813317212146 14.380094091051458 0 0 0
2539 7870 1 -0.8 48.34291255599836 13.373626550785671 13.796801899654705 0 0 0
2538 7871 1 -0.8 47.04738578921596 13.380343016093091 16.15109712844252 0 0 0
2542 8243 1 -0.8 48.83524090211638 15.977623973565587 13.667649499704625 0 0 0
2548 8941 1 -0.8 54.10049043784018 14.629729819170258 11.701660909373869 0 0 0
2545 2233 3 1.6 52.071665499980845 13.551907963528164 14.646537368200322 0 0 0
2549 2520 3 1.6 54.408448743727966 15.108373262982013 13.204966740219271 0 0 0
2544 8202 1 -0.8 52.07483339257183 12.134244705630108 13.860907244288907 0 0 0
2543 8244 1 -0.8 50.7312886006687 14.33235240929714 14.236291401810286 0 0 0
2546 8245 1 -0.8 52.08745459126297 13.342845644567676 16.252374092803095 0 0 0
2547 8246 1 -0.8 53.368372452040454 14.413217920870279 14.22297086147407 0 0 0
2556 9413 1 -0.8 58.61198223809446 14.194993259140185 11.811668224372104 0 0 0
2551 8946 1 -0.8 55.90299914628804 14.64023115737837 13.54580844810005 0 0 0
2557 2772 3 1.6 59.2031650199532 14.491325224038748 13.277161700761544 0 0 0
2553 2773 3 1.6 56.633022329033366 13.37278542184172 14.196430237134145 0 0 0
2559 3340 1 -0.8 60.65406767058926 13.817059698388874 13.385244462670155 0 0 0
2552 9385 1 -0.8 56.41428116437646 12.06967261106965 13.266122776724105 0 0 0
2558 9416 1 -0.8 59.35381312135027 16.08857948379256 13.489295388863516 0 0 0
2555 9417 1 -0.8 58.18949233474716 13.784675145122018 14.318935015976631 0 0 0
2554 9418 1 -0.8 55.959037798534865 13.108958854530453 15.629092384513713 0 0 0
2560 3411 1 -0.8 0.24692111149606114 19.16696382468313 11.806650421676457 0 0 0
2569 4269 1 -0.8 4.98731050797314 19.06211497765474 11.878484037735696 0 0 0
2566 117 3 1.6 2.9236508027025914 17.945745931590288 14.367033791489787 0 0 0
2561 118 3 1.6 0.5138314657248488 19.465358995071362 13.373137721960598 0 0 0
2563 148 3 1.6 0.7495349678103558 22.47143612959173 14.124029265012721 0 0 0
2565 3412 1 -0.8 2.048717738802357 19.132459139374955 13.715108864386215 0 0 0
2567 3413 1 -0.8 2.3912392997619736 17.622552629634047 15.849277291674598 0 0 0
2568 3414 1 -0.8 4.446787668379294 18.435255814217705 14.382854515168248 0 0 0
2570 475 3 1.6 5.329446380501717 19.378263238936867 13.425172164194215 0 0 0
2571 4270 1 -0.8 4.953734724953256 20.912170683569013 13.742700360450874 0 0 0
2564 3491 1 -0.8 1.2290926562287108 22.43574792926124 15.665203763806769 0 0 0
2578 4819 1 -0.8 10.198184866712566 18.290891677308572 12.264681050670005 0 0 0
2572 493 3 1.6 5.5195437404722405 22.289082606430732 14.36406375783514 0 0 0
2575 747 3 1.6 7.727810653923232 18.078220464809327 14.685622583773984 0 0 0
2579 748 3 1.6 10.398704579839803 19.046131364677432 13.694628919366234 0 0 0
2574 4271 1 -0.8 6.879768111364671 19.047206296194798 13.714716126831965 0 0 0
2573 4306 1 -0.8 5.968964470028408 22.017190838100568 15.887946256440532 0 0 0
2577 4820 1 -0.8 9.266051089541351 18.523169874575533 14.715405555815222 0 0 0
2576 4821 1 -0.8 7.089862675168079 18.12621599622059 16.152796957950322 0 0 0
2580 4822 1 -0.8 10.09761569540629 20.602741788517474 13.446589473517372 0 0 0
2582 4884 1 -0.8 9.141142412367216 21.691355879811702 15.646156790928238 0 0 0
2581 10004 3 1.6 9.924967861600397 21.93912011101295 14.291024489605814 0 0 0
2637 10004 2 0.4 10.346099280641061 21.975450537862276 15.277019252553465 0 0 0
2583 4823 1 -0.8 11.842328277500116 18.718669189963233 14.316301146484989 0 0 0
2585 5591 1 -0.8 11.805616490122699 16.90723941692915 16.186122567213822 0 0 0
2584 10048 3 1.6 12.517767410676433 17.369654642604033 14.865460025834127 0 0 0
2586 10048 1 -0.8 13.951414556851024 17.350744693309824 15.469241456279676 0 0 0
2587 10048 2 0.4 13.00383808916577 17.168133295920885 15.760110988057294 0 0 0
2594 7893 1 -0.8 47.50763099919377 18.6774084859025 11.61371466451076 0 0 0
2590 10292 2 0.4 49.3944184093988 19.847554338541574 11.946673989753915 0 0 0
2597 2262 3 1.6 49.42281639276294 17.262879418794753 14.446708119200236 0 0 0
2596 7894 1 -0.8 48.689542436558064 18.587543349127348 13.930487333612021 0 0 0
2598 8301 1 -0.8 49.286175834598254 16.98892607904592 16.02800942180437 0 0 0
2595 10292 3 1.6 48.79061496424783 19.147580380229275 12.4338142024253 0 0 0
2592 10292 1 -0.8 48.96691108803895 20.672613925208474 12.222298824468442 0 0 0
2600 8299 1 -0.8 52.33366362141372 18.603484907589586 11.926137594846134 0 0 0
2550 8945 1 -0.8 54.37400198037528 16.698478406571823 13.415436109303366 0 0 0
2593 10292 1 -0.8 50.03886480344889 18.449594255943577 11.767782995940584 0 0 0
2591 10292 2 0.4 51.01265685105228 18.573083374202216 11.849264406452674 0 0 0
2601 2263 3 1.6 51.81203292028281 18.69395090924742 13.427065815834757 0 0 0
2603 2289 3 1.6 51.83824339720755 21.477257141542268 14.258190146919402 0 0 0
2606 2538 3 1.6 54.417325378801856 17.829688817932563 14.571981904786973 0 0 0
2599 8300 1 -0.8 50.96872434161952 17.463438628770763 14.026038732137126 0 0 0
2602 8302 1 -0.8 51.18529488172016 20.125333991769104 13.719378502857571 0 0 0
2605 8303 1 -0.8 53.13399994990553 18.734867441639327 14.370103452768525 0 0 0
2604 8365 1 -0.8 52.47300261144324 21.34255669546012 15.747458543581901 0 0 0
2607 8981 1 -0.8 54.35135320457336 17.155101824734537 16.041442395708987 0 0 0
2650 8366 1 -0.8 53.00395652426039 21.938097896839803 13.270355072773949 0 0 0
2609 9460 1 -0.8 56.09973704388798 19.268699702187448 11.75891635914732 0 0 0
2562 3415 1 -0.8 0.18843963475954348 21.01659411774436 13.691835282599683 0 0 0
2608 8980 1 -0.8 55.718419597847614 18.752884831545686 14.376443002986951 0 0 0
2615 2802 3 1.6 59.02525587579052 17.526991495350465 14.147887016203933 0 0 0
2610 2803 3 1.6 56.70522678120373 19.349170816619356 13.255020256705464 0 0 0
2617 3416 1 -0.8 60.34565800519616 18.449486555212818 14.267687806817161 0 0 0
2614 9461 1 -0.8 58.002655157582886 18.38336997730076 13.247510724917893 0 0 0
2616 9462 1 -0.8 58.40117804055374 17.270242358330986 15.610302517661456 0 0 0
2611 9463 1 -0.8 57.06568685609866 20.88582097878991 13.613915723692484 0 0 0
2620 3484 1 -0.8 3.777360657736317 24.15307390309731 11.76189747649138 0 0 0
2668 3611 1 -0.8 0.6088624767106817 27.699270470314577 11.722289515564302 0 0 0
2621 147 3 1.6 3.214177068770893 23.985385673168604 13.265826301961429 0 0 0
2623 175 3 1.6 2.6490104220487205 26.920819190849336 14.32130547519564 0 0 0
2622 3487 1 -0.8 2.602718560121948 25.39256916525705 13.787147069687327 0 0 0
2618 3488 1 -0.8 2.01435860935449 22.90091198005791 13.22649988885605 0 0 0
2625 3489 1 -0.8 4.386992698163924 23.44701986790036 14.247279812904964 0 0 0
2619 3556 1 -0.8 1.1986394832496226 27.617994170616978 14.299159695168886 0 0 0
2624 3557 1 -0.8 3.2512512385723333 26.89903128457759 15.817890594166537 0 0 0
2626 3558 1 -0.8 3.4769145780609363 27.84849149382228 13.2850638027634 0 0 0
2629 4880 1 -0.8 7.754727959264597 24.06431284482323 11.47100952139351 0 0 0
2630 776 3 1.6 7.902846457809615 23.799935486426733 13.052180267360075 0 0 0
2632 798 3 1.6 6.961777095185367 26.561961878380934 14.280438397732809 0 0 0
2627 4305 1 -0.8 6.783287345259493 22.71887861895405 13.474531754379841 0 0 0
2628 4351 1 -0.8 5.844127096890487 27.01011906136498 13.225724285307129 0 0 0
2631 4882 1 -0.8 7.655598815131973 25.17462906117437 13.849492078912775 0 0 0
2634 4883 1 -0.8 9.319085430733788 23.13819713481747 13.428121647220458 0 0 0
2635 4927 1 -0.8 8.000607767679181 27.767005467664625 14.289965399696236 0 0 0
2633 4928 1 -0.8 6.386685266585808 26.455644634012046 15.776841474056619 0 0 0
2686 4960 1 -0.8 8.6683754485458 27.966611408875263 11.79984844379906 0 0 0
2636 10004 1 -0.8 11.272012667507923 22.266941499339826 15.003614542042762 0 0 0
1830 10231 1 -0.8 49.25420123928907 24.823477355674033 11.356096588287365 0 0 0
1829 10231 2 0.4 49.925914013029136 24.14743123196642 11.664621988899885 0 0 0
2642 10225 1 -0.8 48.43925338879416 23.515471418995833 13.750194582461251 0 0 0
2641 10236 1 -0.8 48.63451843866504 26.271891413674503 15.011213643588784 0 0 0
2638 10236 2 0.4 49.54107425671431 26.036378714359966 14.723518595317065 0 0 0
2646 10236 3 1.6 50.09630396151617 26.502597001727416 14.560190616968088 0 0 0
2643 8361 1 -0.8 50.65579486405207 23.257179930451745 12.256966607779471 0 0 0
2652 9002 1 -0.8 53.66168610333733 23.049080043640682 11.001778992748141 0 0 0
2697 8448 1 -0.8 51.801352951771236 27.163537958581408 11.11692460762548 0 0 0
2645 8363 1 -0.8 50.58496246649101 25.054422091551555 14.1849890816058 0 0 0
2647 8414 1 -0.8 50.88425881964704 27.062888460644913 15.824427572724236 0 0 0
2640 9990 2 0.4 50.81292701052905 26.452964294441486 16.568170829281932 0 0 0
2644 10225 3 1.6 49.99839103963549 23.676364870614805 13.636044161848563 0 0 0
2639 10225 2 0.4 50.7823817990896 22.87530401665345 13.553843187134602 0 0 0
2653 2550 3 1.6 53.84085658486664 23.117416036379414 12.590809410305672 0 0 0
2655 2568 3 1.6 53.817231696049866 26.01979444748538 13.779515984147107 0 0 0
2648 8364 1 -0.8 50.72285884600752 22.562385221101714 14.47634352862506 0 0 0
2649 8413 1 -0.8 50.20430926577998 27.44742236322188 13.28220668016396 0 0 0
2651 8451 1 -0.8 52.60762354414779 27.03973874580977 13.627022832290697 0 0 0
2654 9005 1 -0.8 53.45708550243403 24.57575262888511 13.156257239905681 0 0 0
2658 9040 1 -0.8 54.99587777470969 26.78888613608289 12.966350472095156 0 0 0
2656 9041 1 -0.8 54.23895337956674 25.853893565374367 15.325534745422509 0 0 0
2698 2312 3 1.6 51.60816726281497 27.77638050151668 12.595956429660879 0 0 0
2613 9508 1 -0.8 55.76249355022839 22.215266670175335 15.476242374117 0 0 0
2661 9504 1 -0.8 58.77308622400466 23.44347702661078 11.860099952911177 0 0 0
2612 2833 3 1.6 56.47666876780081 22.33742050577129 14.04312438185378 0 0 0
2657 9006 1 -0.8 55.42184173676045 22.857923550561082 12.936673136432777 0 0 0
2662 2832 3 1.6 58.88701346331363 24.04056621099412 13.354002422145063 0 0 0
2664 2860 3 1.6 58.61462659238903 27.019802749827473 14.153814515762635 0 0 0
2666 3490 1 -0.8 60.30596642272801 23.59098775077562 13.980929621734859 0 0 0
2663 9506 1 -0.8 58.755725985964624 25.65449394387612 13.290965734475416 0 0 0
2659 9507 1 -0.8 57.67761012955362 23.407698534379104 14.202130462814832 0 0 0
2660 9547 1 -0.8 57.11854009072628 27.594783652300404 14.105425457430064 0 0 0
2665 9548 1 -0.8 59.03370859104396 26.670555767733404 15.667009229551233 0 0 0
2677 4348 1 -0.8 5.119945560693673 28.68990298663446 11.33100383997654 0 0 0
2669 197 3 1.6 0.35658965584743474 28.38531463228839 13.158983233864433 0 0 0
2671 198 3 1.6 0.42044916479785094 31.40921617038375 13.651179348580182 0 0 0
2675 227 3 1.6 2.865013033624428 32.85230592297959 12.450579449716964 0 0 0
2670 3612 1 -0.8 0.7258579506576192 29.952837205641874 13.017625444666736 0 0 0
2673 3615 1 -0.8 1.3654668080988166 32.56749915841187 13.013389934288918 0 0 0
2672 3616 1 -0.8 0.7063581284369809 31.25214430405445 15.23338692994797 0 0 0
2676 3688 1 -0.8 3.7832373649073427 31.668121687220548 13.065326336667054 0 0 0
2678 515 3 1.6 4.966393259788344 28.316429427242014 12.88949942915722 0 0 0
2680 516 3 1.6 4.892990952232142 31.142004835013164 14.12211544993844 0 0 0
2679 4350 1 -0.8 5.313604175184332 29.617500517411372 13.782991980095181 0 0 0
2681 4353 1 -0.8 4.253910573390741 31.202961549873763 15.601590231411025 0 0 0
2683 5003 1 -0.8 6.176901474439358 33.02123569209314 11.511767456171238 0 0 0
2684 820 3 1.6 6.862865364555998 33.12103162403626 12.961058164667461 0 0 0
2682 4352 1 -0.8 6.137317013259231 32.15336081926575 14.026071117322546 0 0 0
2688 4961 1 -0.8 8.240536960835232 30.116085952825383 13.127172130697945 0 0 0
2685 4962 1 -0.8 8.360702622856376 32.65197339533836 12.745167197730353 0 0 0
2690 4963 1 -0.8 9.626680186579629 31.67108826187925 14.713163344607274 0 0 0
2687 10018 3 1.6 8.77844579903899 28.647012335478355 13.234395077783004 0 0 0
2689 10019 3 1.6 9.181220215640094 31.380282315439548 13.20641713182005 0 0 0
2693 10018 2 0.4 9.270285566237256 29.262887701967298 13.598010638688907 0 0 0
2694 10019 2 0.4 9.33907608199829 30.836995712908845 12.522877794153855 0 0 0
2691 10018 1 -0.8 10.165567568863436 28.946496729833832 13.857776509836466 0 0 0
2692 10019 1 -0.8 10.2062073975014 31.023547676100485 12.102608661179906 0 0 0
3704 4964 1 -0.8 7.888273173908001 30.45425712733167 16.20387993251822 0 0 0
3706 10020 3 1.6 9.183783734826331 31.35114097472824 16.20319728285085 0 0 0
2703 9083 1 -0.8 53.94831687327597 32.23540027039228 11.131609049468258 0 0 0
2696 9911 1 -0.8 50.07436478409711 30.564429542395885 13.85714083080366 0 0 0
2695 9911 2 0.4 51.02896438726111 30.519805950876872 14.082662512264696 0 0 0
2704 2590 3 1.6 53.49193912783357 32.67283674573752 12.634967324168146 0 0 0
2699 8450 1 -0.8 51.95801343286057 29.34607811467483 12.633390597774605 0 0 0
2701 8452 1 -0.8 52.22104002610672 30.527333081098522 14.994392207477956 0 0 0
2702 8453 1 -0.8 52.08539371290498 31.95579995493373 12.877672872974994 0 0 0
2705 9086 1 -0.8 54.60511548854976 32.06371300461476 13.645351602578934 0 0 0
2700 9911 3 1.6 51.591842164314684 30.60464560456901 13.555373367847547 0 0 0
3712 10258 3 1.6 51.90588510967525 31.178453022025828 16.41378650413226 0 0 0
2706 9580 1 -0.8 56.61081069362772 28.168595311650854 11.529991917733646 0 0 0
2667 3613 1 -0.8 59.53815300228201 28.188071207437037 13.549272042197089 0 0 0
2707 2882 3 1.6 56.00883747057777 28.051735461463267 13.02834642821526 0 0 0
2709 2883 3 1.6 55.907941259653526 31.11441181633188 13.750416070790704 0 0 0
2713 2912 3 1.6 58.410366737563 32.51288385920388 12.538451306496453 0 0 0
2714 3614 1 -0.8 59.589312348899696 31.789733818813765 13.387342467805492 0 0 0
2708 9581 1 -0.8 55.50961333916278 29.553637615899405 13.437959975174914 0 0 0
2711 9582 1 -0.8 57.0319189577634 31.67306055638324 12.71033998976539 0 0 0
2710 9583 1 -0.8 56.562853413742246 31.270431680269716 15.224087248087297 0 0 0
2715 3761 1 -0.8 1.3263662960319902 37.23875047028404 11.28651190858391 0 0 0
2720 228 3 1.6 3.4156447660584366 35.70813887324306 13.707331313813645 0 0 0
2716 257 3 1.6 0.7595232496039102 36.96796170472273 12.767990531450975 0 0 0
2719 3687 1 -0.8 3.3980219793572175 34.34396016546799 12.829083480824057 0 0 0
2718 3689 1 -0.8 1.927217411374502 36.35523062900738 13.694534000747876 0 0 0
2722 3690 1 -0.8 4.433175097794451 36.877956327296864 13.214148457401587 0 0 0
2721 3691 1 -0.8 3.750438875349103 35.250326071910955 15.212784150688531 0 0 0
2717 3763 1 -0.8 0.23623927061599137 38.391898686922836 13.32882685247652 0 0 0
2723 4408 1 -0.8 6.198426979026618 36.95328317594079 11.302777619290985 0 0 0
2724 545 3 1.6 5.862603771106861 37.536598284296595 12.761608899062251 0 0 0
2728 821 3 1.6 7.946793516211435 35.81103760350881 13.823226021607232 0 0 0
2726 4410 1 -0.8 6.988119954210283 37.11137538611526 13.813851331497316 0 0 0
2727 5006 1 -0.8 6.9009772702755265 34.61760983832374 13.504529097803958 0 0 0
2730 5007 1 -0.8 9.102947070612101 35.947802126354944 12.738029270072884 0 0 0
2729 5008 1 -0.8 8.561924582523238 35.59874033037892 15.2778064779404 0 0 0
2733 5052 1 -0.8 9.172252553414369 38.49048781751069 12.519688895362298 0 0 0
2732 10037 3 1.6 9.69783244981191 37.162693051576305 11.870581744497315 0 0 0
2735 10037 2 0.4 10.299120606429947 37.81421235070205 12.174529873435796 0 0 0
3850 10038 1 -0.8 10.938025073948436 38.77895957633806 14.932869409053614 0 0 0
2734 10037 1 -0.8 11.2080808507439 37.41053848377353 12.094751730663662 0 0 0
2741 8490 1 -0.8 49.59411017312474 35.693760710590794 15.792630788378883 0 0 0
2738 9989 1 -0.8 51.52954056238789 34.22507524101654 14.801586261598722 0 0 0
2743 8533 1 -0.8 51.61384355296865 37.73939718238612 11.258799958398797 0 0 0
2740 9989 3 1.6 50.85184191295053 35.62295522378366 14.834119224235664 0 0 0
2737 9989 2 0.4 51.6787007519874 35.15720009337253 15.036544447053819 0 0 0
2739 9989 1 -0.8 51.96151686820906 36.46256262431033 15.549306186580345 0 0 0
2736 9989 2 0.4 52.446541831641326 36.00229910533472 16.265057380028026 0 0 0
2744 2325 3 1.6 51.666645400111506 37.41724291500603 12.842930891968217 0 0 0
2748 2591 3 1.6 54.04686730602858 35.59558397849199 13.451115311486797 0 0 0
2742 8489 1 -0.8 50.70485837248826 36.242216120713415 13.368295948431198 0 0 0
2745 8535 1 -0.8 51.25768196142499 38.768505853091604 13.614805909881067 0 0 0
2746 8536 1 -0.8 53.17043053877043 36.90891053973056 13.136667746718715 0 0 0
2747 9085 1 -0.8 53.476302426814414 34.28296654529783 12.71412415294937 0 0 0
2749 9088 1 -0.8 54.28475503057705 35.37553757910611 15.01544730423983 0 0 0
2750 9087 1 -0.8 55.51321949829341 35.92470850090872 12.819687450489887 0 0 0
2751 9670 1 -0.8 56.99351837661033 37.342292423553914 11.212580679619295 0 0 0
2756 2913 3 1.6 58.99725671267022 35.419560389679944 13.591396850221454 0 0 0
2752 2942 3 1.6 56.60782708252072 37.10110930820908 12.76186336862332 0 0 0
2758 3762 1 -0.8 60.25962626400923 35.90049799541781 12.702196407877336 0 0 0
2755 9626 1 -0.8 58.31012563033092 34.05486800740789 13.042874051555518 0 0 0
2754 9627 1 -0.8 57.90861377647862 36.61110536152645 13.577839401217334 0 0 0
2757 9628 1 -0.8 59.50458119830949 35.19493874021646 15.106443343056846 0 0 0
2753 9671 1 -0.8 56.03508649899963 38.479735872420136 13.377273018981219 0 0 0
2759 258 3 1.6 0.40704916422127957 40.002029112373926 13.345149303924291 0 0 0
2763 285 3 1.6 2.7753145363340113 41.68970658377609 12.309341416234185 0 0 0
2765 307 3 1.6 3.159856349836059 44.4966386683108 13.32081173145499 0 0 0
2761 3765 1 -0.8 1.8675123629287782 40.45620745957863 12.825996008804383 0 0 0
2760 3766 1 -0.8 0.19131770901029227 40.479501395655724 14.870788392473782 0 0 0
2764 3832 1 -0.8 2.6523280486686844 42.96799334822703 13.283852111828944 0 0 0
2767 3833 1 -0.8 4.310609045737041 41.23119180160709 12.239522191972183 0 0 0
2769 4413 1 -0.8 4.941522467130707 40.48552417552434 14.669225539774587 0 0 0
3820 3767 1 -0.8 2.0825347266621663 39.222841990419475 16.15355464115077 0 0 0
2768 546 3 1.6 5.49064953362508 40.62058660986207 13.149326059467015 0 0 0
2827 3889 1 -0.8 4.699727740804466 44.58654778192497 12.87285284234349 0 0 0
3814 260 3 1.6 0.6776750698875638 39.99289833929726 16.322087659617914 0 0 0
3824 309 3 1.6 3.0030455838563657 44.578059201277924 16.3218058828915 0 0 0
3827 3893 1 -0.8 4.254330214102394 43.56190969766616 16.35638913038661 0 0 0
3828 547 3 1.6 5.365368291326024 39.99418284798632 16.14570432348992 0 0 0
2725 4411 1 -0.8 5.817262270091674 39.13919278428884 12.628256620809116 0 0 0
1955 10278 2 0.4 9.844737143867968 40.14335517148448 11.136987561262961 0 0 0
2777 839 3 1.6 9.791402937673716 39.91173311932973 12.819242033756069 0 0 0
2772 855 3 1.6 7.967341755698608 42.091402294062426 12.056724008739929 0 0 0
2770 4412 1 -0.8 6.7640826001879875 41.60179703474393 13.030910338285521 0 0 0
2776 5053 1 -0.8 9.01886561129134 40.93960824197464 11.881249922024473 0 0 0
2778 5055 1 -0.8 9.299364839424435 40.2853377573439 14.333914460611636 0 0 0
2773 5100 1 -0.8 8.69040313164847 43.375121381151516 12.694767186890132 0 0 0
3772 10038 2 0.4 10.233765363816902 39.454886557532646 14.671229843442632 0 0 0
3838 879 3 1.6 8.04141399003383 44.26666995756945 16.214495830756206 0 0 0
3843 5058 1 -0.8 10.946633345301345 41.27584239119066 16.12125017681658 0 0 0
3841 5101 1 -0.8 9.373994770584597 43.36767154630261 16.14465512246629 0 0 0
3842 10038 3 1.6 10.173664552623677 39.9590393793545 15.605372723859293 0 0 0
3834 4415 1 -0.8 6.88675815374649 39.51649541177695 16.10198359481505 0 0 0
2780 5618 1 -0.8 11.398805409093137 41.98220738144238 10.955474760635875 0 0 0
2783 1109 3 1.6 12.741051976159518 44.39079325560167 13.274620489600228 0 0 0
2779 5054 1 -0.8 11.31121107388639 40.396132742518034 12.87109714156737 0 0 0
2782 5619 1 -0.8 12.156438619727199 42.89962328511845 13.314541541994155 0 0 0
2781 10061 3 1.6 12.09347512089261 41.65205665275278 12.338251749585618 0 0 0
2785 10061 1 -0.8 13.552005180501759 41.257254976640155 11.99674826160245 0 0 0
2786 10061 2 0.4 12.605891616777857 41.48679861059991 12.051982382108774 0 0 0
2845 5637 1 -0.8 14.256595901751604 44.6927334465453 12.814153347254221 0 0 0
3851 10066 3 1.6 12.97142277298927 44.53074919212833 16.117045995237007 0 0 0
3852 10066 1 -0.8 14.05940387504278 43.540866599466135 15.568802651081812 0 0 0
3854 10066 2 0.4 13.017823323006954 44.38899096898508 15.0986840208145 0 0 0
2789 10296 1 -0.8 44.717562482427795 43.84883821649043 13.87091641600742 0 0 0
2788 10296 2 0.4 45.451595911399174 44.416756199526475 14.16924378527677 0 0 0
2791 10296 1 -0.8 47.172728784687706 43.9834199110613 14.535246230194561 0 0 0
2790 10296 2 0.4 48.129300004854855 44.153285297756 14.721934065895242 0 0 0
2799 2362 3 1.6 49.275718008123896 44.43539056174576 13.54592734247453 0 0 0
2798 8595 1 -0.8 48.79484379451027 43.27490149453118 12.552941567437223 0 0 0
2800 8639 1 -0.8 49.392668166850825 43.99216182015503 15.073786721766467 0 0 0
2797 9929 3 1.6 49.08805430113109 41.72634792627991 12.347878547321699 0 0 0
2795 9929 1 -0.8 47.82139532240544 40.841356410294765 12.174763283346445 0 0 0
2794 9929 2 0.4 48.60463963348654 41.22529844431432 11.674604596979725 0 0 0
3871 2364 3 1.6 48.65716119493045 44.29986419964283 16.46247348395206 0 0 0
2802 2326 3 1.6 51.45008214629321 40.356695215847765 13.691569419234442 0 0 0
2806 2618 3 1.6 53.75705432776775 41.72586443229457 12.332523208408682 0 0 0
2808 2630 3 1.6 54.11454203657435 44.551121628150085 13.44695190669912 0 0 0
2801 8537 1 -0.8 50.081097766470755 41.17054027941508 13.475019096392614 0 0 0
2804 8538 1 -0.8 52.47039762051284 40.7942250117731 12.521455751464476 0 0 0
2803 8539 1 -0.8 52.14009770249985 40.729511888216166 15.099868553769477 0 0 0
2810 9141 1 -0.8 55.079528296591455 40.87206697516808 12.719988238018924 0 0 0
2807 9142 1 -0.8 53.66894627628365 43.01649732818023 13.289421561714285 0 0 0
2890 8638 1 -0.8 50.82346856805541 44.68768622877898 13.077857973995183 0 0 0
2814 9710 1 -0.8 58.16843115686351 41.993343379407065 11.083193089010306 0 0 0
2811 2943 3 1.6 56.10979525513574 40.06689764892762 13.679786527128591 0 0 0
2815 2970 3 1.6 58.66030207115431 41.584841654444155 12.566243095202852 0 0 0
2819 3764 1 -0.8 60.02914004178984 40.73811646780906 12.42612847521802 0 0 0
2813 9672 1 -0.8 57.58951343935808 40.638872292380974 13.329169146287743 0 0 0
2812 9673 1 -0.8 55.82773037867586 40.28101007032523 15.262251060149408 0 0 0
2816 9713 1 -0.8 58.91985865897901 42.94187011986841 13.414804837048521 0 0 0
2817 2992 3 1.6 59.225308458019185 44.52903252697201 13.500314674062942 0 0 0
3895 9674 1 -0.8 57.91906960897034 39.30064470611449 16.503627272458235 0 0 0
2766 3888 1 -0.8 2.905854639979123 45.08732816886819 14.798796003623643 0 0 0
2821 308 3 1.6 0.8843566225574235 46.082435013240605 12.328503929506603 0 0 0
2823 338 3 1.6 0.3602495075803501 48.91964358285144 13.45491910055294 0 0 0
2825 3887 1 -0.8 2.353866058584175 45.44180279264907 12.299003667767089 0 0 0
2822 3891 1 -0.8 0.8284801877581002 47.381343138730614 13.288925830650397 0 0 0
2826 3962 1 -0.8 1.4137098400783408 49.92609337185757 12.749457906801599 0 0 0
2828 3964 1 -0.8 3.9371433874137227 49.164378280811896 12.590549126089178 0 0 0
2824 3966 1 -0.8 0.23848207654306464 49.31613185331957 15.016056009456467 0 0 0
2832 585 3 1.6 5.253585954290858 48.648224513450856 13.362312591296778 0 0 0
2833 4490 1 -0.8 5.119149338543388 49.088992509827264 14.898042016257195 0 0 0
2831 4467 1 -0.8 5.362587236327557 47.04778533044178 13.323685941121855 0 0 0
2774 877 3 1.6 8.297007240383447 44.837222169266624 13.212990039651686 0 0 0
2775 5144 1 -0.8 7.70712515779792 44.760110950811544 14.715410121815951 0 0 0
2830 573 3 1.6 5.586268281443515 45.81142989241817 12.322665507944915 0 0 0
2839 878 3 1.6 10.730923834715815 46.26386601063466 12.089831187881524 0 0 0
2841 908 3 1.6 10.659330749500016 48.98788974764751 13.356271986518975 0 0 0
2834 4466 1 -0.8 7.1303272826425905 45.40472956844243 12.265314869719225 0 0 0
2835 4489 1 -0.8 6.58653374475255 49.27034439221121 12.689223193624038 0 0 0
2836 5143 1 -0.8 9.550418202753303 45.83000717755282 13.108345109705857 0 0 0
2837 5200 1 -0.8 9.252919300770097 49.35889999408027 12.650880115432523 0 0 0
2842 5202 1 -0.8 10.331282176143036 48.68519464035591 14.907756036019196 0 0 0
2923 907 3 1.6 7.890131373506374 50.21039282759996 12.517079574459478 0 0 0
3913 586 3 1.6 5.6501661366848035 48.765662129583305 16.376148295433886 0 0 0
3915 4492 1 -0.8 6.819184200023858 47.655240414963636 16.344037185593844 0 0 0
2847 5635 1 -0.8 14.56899829848577 46.62906946555423 10.955917659064024 0 0 0
2784 5638 1 -0.8 12.433008266123998 45.050909180988775 14.711701952055895 0 0 0
2787 10070 2 0.4 15.671904149954651 46.260490881502136 11.688911760805233 0 0 0
2840 5145 1 -0.8 11.255960371418329 47.699162950726674 12.597141457493533 0 0 0
2850 1128 3 1.6 15.198971249647789 48.71733288538642 13.37034063778876 0 0 0
2843 5146 1 -0.8 11.880634705749044 45.171953544377644 12.163659409887721 0 0 0
2844 5203 1 -0.8 11.729394611484189 50.18401320100166 13.225773656505005 0 0 0
2849 5639 1 -0.8 14.95236218152381 47.14003212958346 13.438348334932554 0 0 0
2846 5690 1 -0.8 14.116278464067507 49.351665364651396 12.363491333891014 0 0 0
2851 5692 1 -0.8 14.815536543651598 49.311810727744884 14.822093976961439 0 0 0
2848 10070 3 1.6 15.043181017558142 45.99680010621522 12.332140737178321 0 0 0
2852 10070 1 -0.8 16.54525276803943 45.86613905584608 11.944186952498809 0 0 0
2941 1263 3 1.6 17.847028609382377 50.257314889221036 12.649355176078323 0 0 0
2853 5693 1 -0.8 16.679107145189807 49.16659774884318 12.898039813054213 0 0 0
2854 5981 1 -0.8 19.31776939931049 49.6487644557379 12.769256966468543 0 0 0
2855 10107 3 1.6 20.65749556848212 50.14699926147353 13.449132368915272 0 0 0
2857 10107 1 -0.8 21.769799544229986 49.11824722127396 13.890935032649203 0 0 0
3946 10108 1 -0.8 19.61568139727368 48.98658591618371 15.464967780508688 0 0 0
3947 10108 2 0.4 19.767451302237316 49.934489294037675 15.226069434866101 0 0 0
2861 9913 1 -0.8 23.642619843106193 49.66199198088045 11.803463169219556 0 0 0
2867 10144 1 -0.8 33.13443543816442 49.886452940717554 12.124699347656902 0 0 0
2873 7204 1 -0.8 37.84301704908919 50.27835127265986 12.846277721971983 0 0 0
2871 10178 3 1.6 36.31587976887377 50.17239620761446 13.182707140727631 0 0 0
2870 10178 1 -0.8 35.733275294700235 48.797838954600984 12.791028478226721 0 0 0
2869 10178 2 0.4 35.84090685443826 49.7743207615091 12.776989493780341 0 0 0
3954 10290 3 1.6 37.28200086556247 50.03631752083403 15.762061546873879 0 0 0
3953 10290 1 -0.8 37.258871545360336 48.530996678147176 15.402689405513108 0 0 0
3952 10290 2 0.4 37.13387620806179 49.48518157449061 15.222432542632205 0 0 0
2013 10177 1 -0.8 39.95741647420425 49.94897127023628 10.961179657453359 0 0 0
2880 7633 1 -0.8 42.27807433638084 49.346164901915 13.050010245134045 0 0 0
2879 7636 1 -0.8 41.52010276467901 49.62167124234843 15.496474167309358 0 0 0
2878 10216 3 1.6 41.01814000071814 49.65072153698186 13.9910074370825 0 0 0
2877 10216 1 -0.8 39.8301368855156 48.69924063337103 13.74867267079371 0 0 0
2875 10216 2 0.4 40.087021929126 49.64864093274166 13.75972747757375 0 0 0
2986 1955 3 1.6 43.48095375950508 50.265744159789925 12.569300125206347 0 0 0
2792 10296 3 1.6 45.86884970198041 44.793970899021424 14.27154056023072 0 0 0
2883 7944 1 -0.8 47.50372003691977 47.20875401675605 11.304208898703074 0 0 0
2793 7585 1 -0.8 45.53833101561584 45.58017968798822 15.601847025177438 0 0 0
2884 2088 3 1.6 47.34550519892408 46.76296709947173 12.83932105560384 0 0 0
2886 2100 3 1.6 46.330920208803725 49.5579326250006 13.45546785188363 0 0 0
2881 7586 1 -0.8 46.102367454659436 45.795690145039465 13.064944210690694 0 0 0
2882 7635 1 -0.8 44.903388165840326 49.504007102091705 12.723018483431686 0 0 0
2888 7946 1 -0.8 48.61490152858621 45.914246318795115 13.35877939085867 0 0 0
2885 7947 1 -0.8 46.9990447792446 48.10283462513902 13.645397704982226 0 0 0
2887 7970 1 -0.8 46.22673556679631 50.131259604008946 14.952367557786385 0 0 0
2891 8695 1 -0.8 49.58885492446205 49.31322486224523 13.139865783899536 0 0 0
3968 7591 1 -0.8 44.49027330433372 48.800133973513944 16.325199738210177 0 0 0
3969 2101 3 1.6 45.97001779639393 49.38741012961081 16.360207826619842 0 0 0
2809 9165 1 -0.8 54.04292712035226 44.94684860580555 15.006955755279282 0 0 0
2893 2363 3 1.6 51.62180339329541 45.90736435872766 12.422861628623346 0 0 0
2895 2393 3 1.6 51.0535187028626 48.811344425031486 13.553671710608844 0 0 0
3004 2648 3 1.6 53.56839451760681 50.20088946461045 12.547926423228363 0 0 0
2894 8640 1 -0.8 51.338436674118824 47.25314144209811 13.27330214450208 0 0 0
2897 8641 1 -0.8 53.19058249419206 45.524440886060056 12.541892667607915 0 0 0
2896 8697 1 -0.8 51.28586999019206 49.118649530162195 15.12046980686582 0 0 0
2898 8698 1 -0.8 52.05985534934095 49.68571061968151 12.653695764212733 0 0 0
2900 9201 1 -0.8 54.548350333690635 48.996140670129705 12.965065689728874 0 0 0
2899 9164 1 -0.8 55.638911181700045 44.71088100809647 12.956172048650393 0 0 0
2901 9745 1 -0.8 56.31866408300053 46.38678071737286 11.0463509526432 0 0 0
2818 9747 1 -0.8 59.20340004580677 44.98064596805592 15.05011366855966 0 0 0
2902 2993 3 1.6 56.63026391844542 45.9062838562437 12.55052293654473 0 0 0
3013 3022 3 1.6 58.50303285232752 50.19262375077298 12.433354418705532 0 0 0
2904 3023 3 1.6 56.054982495759035 48.74851619885748 13.453031297168685 0 0 0
2908 3890 1 -0.8 60.659819038233486 44.89389504887263 12.880745361600313 0 0 0
2909 3965 1 -0.8 59.63431136158294 49.0933914518942 12.761861898709853 0 0 0
2906 9746 1 -0.8 58.14131127058286 45.3739612601728 12.659092448317757 0 0 0
2903 9748 1 -0.8 56.39607636441785 47.17410802965439 13.51616427549119 0 0 0
2907 9791 1 -0.8 57.05911778702224 49.48795462315942 12.43817511964998 0 0 0
2905 9793 1 -0.8 56.23630702879566 49.37158241875968 14.925004092084853 0 0 0
3989 3024 3 1.6 56.1582314066781 48.7809389853642 16.419265031628562 0 0 0
2910 4036 1 -0.8 0.24928426563967304 54.75513293806431 11.204827270986947 0 0 0
2919 4524 1 -0.8 5.359998844578046 54.892051109433275 11.224717863825783 0 0 0
2914 337 3 1.6 2.91719979501326 50.40019864799141 12.391553926276694 0 0 0
2916 367 3 1.6 3.2493240007676327 53.22139040319717 13.724356127736494 0 0 0
2911 368 3 1.6 0.5956665110126383 54.41411840818279 12.743093828172512 0 0 0
2915 3963 1 -0.8 3.3524225322417207 51.6479411035057 13.33438562635557 0 0 0
2912 4037 1 -0.8 2.1326843029158504 53.9122823132335 12.78916606924491 0 0 0
2917 4038 1 -0.8 2.7869257152759723 53.42434591412724 15.260212611181448 0 0 0
2918 4039 1 -0.8 4.693738211975868 53.93576346704339 13.56564627844716 0 0 0
3018 4041 1 -0.8 0.4125191233102237 55.742395319696705 13.640867629015103 0 0 0
2922 5196 1 -0.8 7.901518169211496 50.83258507380003 11.032423847903633 0 0 0
2928 5261 1 -0.8 10.441983034941776 53.838111527468634 10.976539586571919 0 0 0
2920 603 3 1.6 5.851869609847715 54.705031236018705 12.740642082313611 0 0 0
2925 937 3 1.6 8.145489586302904 52.981178213941455 13.758201984867133 0 0 0
2929 938 3 1.6 10.726587807759802 54.14459793577479 12.535920570556938 0 0 0
2921 4526 1 -0.8 7.198316545165544 53.808202611043576 12.747463894458415 0 0 0
2924 5201 1 -0.8 7.863804732125757 51.39972284378925 13.600947535775397 0 0 0
2927 5263 1 -0.8 9.700314967465891 53.28994596601866 13.4424662017058 0 0 0
2926 5264 1 -0.8 7.790026945177686 53.44145663055355 15.260935706384384 0 0 0
3034 5265 1 -0.8 10.536645746527578 55.71788164188077 12.840752246412658 0 0 0
2931 5686 1 -0.8 12.742138033818701 50.979511407782134 10.935399174912357 0 0 0
2937 5751 1 -0.8 15.406566542001089 54.16675665330234 11.292437086260868 0 0 0
2932 1127 3 1.6 13.090598750741362 50.57751400736978 12.446750698294933 0 0 0
2934 1157 3 1.6 13.40514164813077 53.21456415166662 13.84364783710328 0 0 0
2938 1158 3 1.6 15.811571599125541 54.66753717201206 12.778649044928736 0 0 0
2930 5266 1 -0.8 12.258981171082569 53.80800004991266 12.87971098919199 0 0 0
2933 5691 1 -0.8 13.805842694246106 51.786926570024356 13.230158527203255 0 0 0
2936 5753 1 -0.8 14.681375342130428 54.18991510540663 13.822888372461403 0 0 0
2935 5754 1 -0.8 12.828629706411002 53.07330814151403 15.340532652772634 0 0 0
2856 6259 1 -0.8 20.266215991060008 51.071041969649855 14.67282829060463 0 0 0
2858 10107 2 0.4 20.857243337369553 51.04204457876453 13.240418727969056 0 0 0
2940 5979 1 -0.8 17.80138585021143 50.99772676548076 11.212403867803747 0 0 0
2946 6309 1 -0.8 20.82722070940373 54.08923031687938 11.024743323774002 0 0 0
2859 6257 1 -0.8 21.399627854397725 51.10711035347541 12.442020645534827 0 0 0
2943 1275 3 1.6 18.248925639691457 52.97251188810893 13.922251024895596 0 0 0
2947 1398 3 1.6 20.83935603388137 54.213195184557044 12.620987350304425 0 0 0
2939 5756 1 -0.8 17.227535924665432 54.03369094610306 13.2142093660648 0 0 0
2942 5982 1 -0.8 17.697488713728347 51.47690265094845 13.699056599032339 0 0 0
2945 6004 1 -0.8 19.687171552729342 53.28921526335703 13.256087120125938 0 0 0
2944 6005 1 -0.8 18.26170375731672 53.2475851223886 15.509359117615936 0 0 0
3050 6313 1 -0.8 20.548905999050834 55.802719831429116 12.91381856367192 0 0 0
3945 10108 3 1.6 19.80897791645017 50.427776823611566 16.0319161291876 0 0 0
2955 6499 1 -0.8 25.685244478611356 55.12984006534711 11.797290406402874 0 0 0
2950 9913 3 1.6 22.960611979396276 51.0248296374735 12.19933391444826 0 0 0
2860 9913 2 0.4 22.577689402676793 51.6413965633919 11.672155440251672 0 0 0
2952 1397 3 1.6 23.411428759438813 53.141558299749 14.116863320472829 0 0 0
2956 1488 3 1.6 26.085862111176688 54.59077534361525 13.265510698627383 0 0 0
2951 6258 1 -0.8 23.622183362601497 51.71064039691168 13.46622489133417 0 0 0
2948 6310 1 -0.8 22.285281709127315 53.90229896167864 13.248784719279117 0 0 0
2953 6311 1 -0.8 22.942421363634477 53.0170223607243 15.653338388518428 0 0 0
2954 6312 1 -0.8 24.80586480747306 53.961030045986746 14.031060697078798 0 0 0
2957 6501 1 -0.8 27.317903741315362 53.56518668065767 13.172079847757312 0 0 0
2862 10283 1 -0.8 30.482104899244302 50.767594762721444 10.918752663845192 0 0 0
2964 6756 1 -0.8 30.380012557699736 55.14857641009036 11.598259442874932 0 0 0
2959 10283 3 1.6 29.984366827550097 52.03537422618694 11.643485726736547 0 0 0
2864 10283 1 -0.8 31.157347828916002 53.05474839631287 11.791348891911662 0 0 0
2865 10283 2 0.4 30.809359343092574 53.98158494892644 11.713458473881113 0 0 0
2961 1592 3 1.6 28.61879313767701 52.988445475921665 13.949269050828171 0 0 0
2965 1593 3 1.6 30.84420112640768 54.99279076620036 13.130712693950931 0 0 0
2960 6715 1 -0.8 29.273172706946536 51.83024116903309 13.061654572475755 0 0 0
2963 6758 1 -0.8 29.775439179273892 54.126471863671235 13.982072102651731 0 0 0
2962 6759 1 -0.8 28.146960356555148 52.549155886920076 15.439645807370434 0 0 0
2966 6761 1 -0.8 32.399260168374724 54.65353135877843 13.470285898614893 0 0 0
2973 7259 1 -0.8 36.13200427777209 55.0824022324643 10.967577402247601 0 0 0
2866 10144 2 0.4 33.345439659197886 50.76929890260735 11.72261971952833 0 0 0
2868 6936 1 -0.8 35.40530316029066 51.15137606194403 12.354337465630346 0 0 0
2872 7206 1 -0.8 36.20944489390678 50.564344322476906 14.714821577630035 0 0 0
2968 10144 3 1.6 33.81417141850447 51.26637915451498 12.258368788433096 0 0 0
2970 1685 3 1.6 33.56848229879637 53.61128022574772 13.874924834745531 0 0 0
2979 1802 3 1.6 38.521233515453126 54.101533878633305 14.085073082325852 0 0 0
2974 1803 3 1.6 35.98938500705533 55.04989619363952 12.561388748066795 0 0 0
2969 6937 1 -0.8 33.249197255906225 52.10092416454289 13.485635249041385 0 0 0
2972 6959 1 -0.8 34.938772647209184 53.96008788378458 13.07309708746828 0 0 0
2971 6960 1 -0.8 33.85407700961721 53.69500666713802 15.465854710775277 0 0 0
2978 7205 1 -0.8 38.27009409451245 52.545426707706554 13.952421131733248 0 0 0
2975 7261 1 -0.8 37.48625311442523 54.86299982582314 13.134199818466943 0 0 0
2980 7262 1 -0.8 38.29722709743939 54.5381215947059 15.602438917634572 0 0 0
3956 10290 1 -0.8 38.65150160874262 50.73444492129611 15.464126457066802 0 0 0
3955 10290 2 0.4 38.501607008299715 51.43868583974131 14.804582656381976 0 0 0
2977 1784 3 1.6 38.9411466867246 51.385620991103416 13.095167402330688 0 0 0
2976 7199 1 -0.8 39.06651432091662 51.99818878230473 11.583299232175678 0 0 0
2012 10177 2 0.4 39.54952134191054 50.822228463936185 11.21611928313307 0 0 0
2985 7629 1 -0.8 43.29857833305491 50.77212363060555 11.048750807569352 0 0 0
2982 7689 1 -0.8 40.60362554423763 54.93542164705897 11.134799629502405 0 0 0
2876 7203 1 -0.8 40.40235514198805 51.04011962963383 13.578721019926958 0 0 0
2988 1977 3 1.6 43.539510422723446 53.17157649599594 13.495580035049183 0 0 0
2983 1978 3 1.6 41.164689214945696 54.85397245511014 12.631636688780175 0 0 0
2981 7260 1 -0.8 40.04902262928574 54.412631507141654 13.687873493812148 0 0 0
2987 7634 1 -0.8 43.51531525247628 51.5706669202241 13.53037366960795 0 0 0
2984 7690 1 -0.8 42.36644471507476 53.788743438236274 12.598027689210014 0 0 0
2989 7691 1 -0.8 43.38093310932105 53.78563027873551 14.973702532978942 0 0 0
2889 7969 1 -0.8 47.325405485481184 50.48775881774689 12.60130600983384 0 0 0
2991 8004 1 -0.8 46.60174999243169 54.97908981217573 11.446327538670772 0 0 0
2995 2392 3 1.6 48.91814702625731 50.63596376901144 12.50784292966747 0 0 0
2992 2118 3 1.6 46.25518295471439 54.59530623572949 12.971736290983433 0 0 0
2997 2422 3 1.6 49.04934976613094 53.45150481468099 13.82119667493911 0 0 0
2990 7692 1 -0.8 44.96216132334387 53.64357470096577 12.90620236548287 0 0 0
2993 8006 1 -0.8 47.48393187188485 53.77884705824406 13.62343104119437 0 0 0
2996 8696 1 -0.8 49.37217149782631 51.93496853102715 13.359002651773974 0 0 0
2998 8759 1 -0.8 49.415932713309914 53.63999425092271 15.382818721066291 0 0 0
3003 9199 1 -0.8 53.86267344070235 50.640943397448154 11.028369851169609 0 0 0
3001 2423 3 1.6 51.43932922011841 54.863306650108164 12.527126324590487 0 0 0
3006 2660 3 1.6 53.79658796938317 53.08119674188335 13.45359558764292 0 0 0
2999 8758 1 -0.8 49.93077484991976 54.45205839200594 12.917982188111832 0 0 0
3002 8761 1 -0.8 52.447268335273606 53.62094499209189 12.754286662420816 0 0 0
3005 9202 1 -0.8 53.77465669205396 51.468938660452615 13.518373691773917 0 0 0
3007 9225 1 -0.8 53.85564467588035 53.701067392010806 14.933373474779364 0 0 0
4135 2661 3 1.6 53.908896485554955 53.10075367776005 16.42274230906412 0 0 0
3012 9788 1 -0.8 58.77652549070294 50.82944210573122 10.981616660106267 0 0 0
3009 9835 1 -0.8 56.35261791303763 55.04694418093156 10.973959436187052 0 0 0
3008 9224 1 -0.8 55.12116630443184 53.51354113411863 12.6490377084443 0 0 0
3015 3052 3 1.6 58.788752575127084 52.942610970048335 13.700376762093331 0 0 0
3010 3053 3 1.6 56.382223733331145 54.50358060059446 12.490309894425868 0 0 0
3017 4040 1 -0.8 60.32006609586774 53.27489834579608 13.301402207067856 0 0 0
3014 9792 1 -0.8 58.5493043171193 51.35658787430244 13.547383020223272 0 0 0
3011 9836 1 -0.8 57.77785722190312 53.72136915088808 12.710895637283002 0 0 0
3016 9837 1 -0.8 58.48282392572373 53.40504109131671 15.214209045921145 0 0 0
3106 9838 1 -0.8 56.255359929255064 55.71288863936358 13.548695812356549 0 0 0
3022 4105 1 -0.8 2.8015579795548415 59.154885346949534 11.32085854921389 0 0 0
3023 397 3 1.6 3.212138173678663 58.77322879542255 12.82518316474962 0 0 0
3019 398 3 1.6 0.7648317213747096 57.31209101652888 13.716312667628424 0 0 0
3024 3128 1 -0.8 2.9239564794646307 60.04763514856946 13.777589014521748 0 0 0
3021 4109 1 -0.8 2.293748851080293 57.53046491454893 13.267329161664016 0 0 0
3025 4110 1 -0.8 4.770418545134647 58.3557650356929 12.878742401697728 0 0 0
3020 4112 1 -0.8 0.6198151866746783 57.85348625518621 15.220856381553185 0 0 0
3028 4549 1 -0.8 5.312880877534702 57.68422291649338 15.346503584314686 0 0 0
3030 5314 1 -0.8 7.911429082285146 59.44664771171727 11.456322785829014 0 0 0
3027 615 3 1.6 5.8738447485251735 57.674151976397454 13.835283185206656 0 0 0
3031 967 3 1.6 8.455917877677336 59.14167128878523 12.937118795480584 0 0 0
3035 968 3 1.6 10.712007304136732 57.15636593341223 13.548811401040313 0 0 0
3026 4527 1 -0.8 6.166632576935291 56.15036912000423 13.38618364921766 0 0 0
3029 4548 1 -0.8 7.26205555076216 58.500732172629476 13.808493978097548 0 0 0
3032 4593 1 -0.8 8.99415003021543 60.46704090364952 13.649370239523352 0 0 0
3033 5317 1 -0.8 9.69930828718458 58.140196296553704 12.787433208480863 0 0 0
3036 5318 1 -0.8 10.308268012608073 57.08951035296283 15.111114417090466 0 0 0
3038 5804 1 -0.8 12.769202007456474 59.50856526683325 11.577677524487372 0 0 0
3039 1187 3 1.6 13.121740100964562 59.04469347365347 13.084102812074711 0 0 0
3043 1188 3 1.6 15.813785001536782 57.60048390075192 13.707335253435664 0 0 0
3037 5319 1 -0.8 12.215724756284589 57.7539429325382 13.45995426532256 0 0 0
3040 5373 1 -0.8 12.837170766322865 60.31063948812813 14.047545993993117 0 0 0
3042 5755 1 -0.8 15.886119018274577 56.283672717185 12.7759746369163 0 0 0
3041 5807 1 -0.8 14.68769760457936 58.62854970295089 13.159683563976806 0 0 0
3044 5808 1 -0.8 15.438395052469495 57.16840649578022 15.212718794141749 0 0 0
3046 6038 1 -0.8 17.852638192685017 58.62269816647126 11.244339025313142 0 0 0
3047 1293 3 1.6 18.348690077249447 58.95572638613865 12.741968722597871 0 0 0
3051 1428 3 1.6 20.80213290323397 57.22854294534812 13.63520351889795 0 0 0
3045 5809 1 -0.8 17.265519840831573 58.31273311279277 13.747703260637607 0 0 0
3048 5857 1 -0.8 18.36547139099772 60.55781817383981 12.917670262252189 0 0 0
3049 6040 1 -0.8 19.83036282893929 58.353400174760694 12.986275319617896 0 0 0
3052 6372 1 -0.8 20.416639047499835 57.03233828135932 15.190201678724845 0 0 0
3054 6367 1 -0.8 23.32440349478958 58.26125370499163 11.155598638272089 0 0 0
3055 1427 3 1.6 23.591521194958293 58.444927618935246 12.740561069676872 0 0 0
3059 1500 3 1.6 26.24909218968428 57.4394040952822 14.223615781180404 0 0 0
3056 6071 1 -0.8 23.695542971553763 60.047469745370215 12.963015986475252 0 0 0
3053 6370 1 -0.8 22.349463079705735 57.745388945481686 13.53228437073616 0 0 0
3057 6371 1 -0.8 25.008356347462904 57.81018682969172 13.232201145205797 0 0 0
3058 6502 1 -0.8 26.556181179018353 55.8677761290404 14.130547173223189 0 0 0
3061 6523 1 -0.8 27.59073242273759 58.23423673235704 13.816109707917164 0 0 0
3060 6524 1 -0.8 25.863150183930316 57.783937371573636 15.749002211382873 0 0 0
3062 6809 1 -0.8 28.149573416828687 58.394797088985435 11.237564311973612 0 0 0
3063 1622 3 1.6 28.4548316093225 59.003630543602256 12.695340812840975 0 0 0
3067 1623 3 1.6 31.189570798509603 58.04237154549619 13.735803091578418 0 0 0
3064 6568 1 -0.8 28.005320087479745 60.54994059494219 12.72851867627529 0 0 0
3066 6760 1 -0.8 30.685532908676095 56.523414934632974 13.68145627006556 0 0 0
3065 6812 1 -0.8 30.033877608825417 58.935996706587645 13.043672721165258 0 0 0
3068 6813 1 -0.8 31.367500688246473 58.360544289900865 15.30781026757902 0 0 0
3069 6814 1 -0.8 32.608802698185634 58.274660486919906 12.993839772554372 0 0 0
3070 6993 1 -0.8 34.34437512528049 59.26611788641961 11.262353365092949 0 0 0
3072 6862 1 -0.8 33.38696119560067 60.777448454086816 13.173472051624298 0 0 0
3078 7317 1 -0.8 38.37830384816827 59.539194980152196 11.042383620567827 0 0 0
2316 6861 1 -0.8 33.535578924291535 61.042186284539035 15.773976058503862 0 -1 0
3071 1703 3 1.6 33.85400378078318 59.29006726848183 12.795792365707639 0 0 0
3079 1832 3 1.6 38.653159592648244 59.10614076728967 12.567391447437991 0 0 0
3075 1833 3 1.6 36.182437924165086 57.714236712229926 13.820731222031197 0 0 0
3073 6995 1 -0.8 35.11309700638635 58.9156018153442 13.743724527734571 0 0 0
3080 7026 1 -0.8 38.54402738552776 60.32787944859241 13.618044578412857 0 0 0
3074 7263 1 -0.8 35.466294571172824 56.466164729357914 13.114536981022844 0 0 0
3077 7321 1 -0.8 37.52846555684864 58.039207786056906 12.993407769753288 0 0 0
3076 7322 1 -0.8 36.57992260645525 57.33368051587203 15.333374468043163 0 0 0
3087 2007 3 1.6 43.9923151697113 59.0968677223729 13.155277285163852 0 0 0
3083 2008 3 1.6 41.222832013619694 57.77994930506888 13.58502741931243 0 0 0
3081 7320 1 -0.8 40.13985948051026 58.46270919495749 12.6043948703152 0 0 0
3088 7371 1 -0.8 44.15175587503648 60.7141060063983 13.19703462572861 0 0 0
3082 7693 1 -0.8 41.693780485138596 56.33394995098903 13.044613391236531 0 0 0
3085 7750 1 -0.8 42.52296600601839 58.73570881141803 13.730998697460755 0 0 0
3084 7752 1 -0.8 40.49977016170843 57.601948077896 15.016547954080549 0 0 0
2338 7369 1 -0.8 44.27658019231301 0.00888143580220879 15.761097367959346 0 0 0
3086 7747 1 -0.8 44.12796290797996 58.468301094861125 11.667176567583333 0 0 0
3094 8809 1 -0.8 48.54399643820403 59.409359399845314 11.364056446836978 0 0 0
3091 2130 3 1.6 46.43823665121335 57.441568790891836 14.194745605420659 0 0 0
3095 2452 3 1.6 48.847668524639225 58.89439954397415 12.854112063873238 0 0 0
3089 7751 1 -0.8 45.183981912850484 58.452909602918226 14.040556972539036 0 0 0
3090 8007 1 -0.8 45.97159147641636 55.93215039416836 13.837713099574804 0 0 0
3093 8028 1 -0.8 47.67242870452193 57.85406531490874 13.239691636789773 0 0 0
3092 8029 1 -0.8 46.964952561817036 57.53512489773245 15.712026529733656 0 0 0
3096 8073 1 -0.8 48.87595931455527 60.15284510426264 13.862524684110914 0 0 0
3102 9258 1 -0.8 53.46075280710968 59.16688053705646 11.329504818580803 0 0 0
3099 2453 3 1.6 51.47587843200727 57.653127674922864 13.833299890639145 0 0 0
3103 2678 3 1.6 54.024639166540105 59.05205059654403 12.830368930297123 0 0 0
3098 8760 1 -0.8 51.860542540945914 56.13232727947652 13.433543665988427 0 0 0
3097 8812 1 -0.8 50.303888556741185 58.18362018267259 12.85774662908941 0 0 0
3100 8813 1 -0.8 50.90961419455056 57.74861944494504 15.333858467395595 0 0 0
3101 8814 1 -0.8 52.81590009453681 58.546308367781954 13.760236096728756 0 0 0
3104 8862 1 -0.8 54.55524875645578 60.46905650051173 13.383292438556152 0 0 0
3110 9876 1 -0.8 58.71479487439113 59.22482295363919 11.192758905818776 0 0 0
3105 9260 1 -0.8 55.256469354644054 58.00809545992514 12.780044766079849 0 0 0
3111 3082 3 1.6 58.993353232127575 58.79684976980762 12.716272675300717 0 0 0
3107 3083 3 1.6 56.42100233221093 57.31502116798518 13.647938609390549 0 0 0
3113 4111 1 -0.8 60.475671164631265 58.15621808644317 12.786209867612085 0 0 0
3112 9286 1 -0.8 58.86795327435317 60.08811287056946 13.673449806283656 0 0 0
3109 9878 1 -0.8 57.90167356173866 57.68519160689342 13.127280104551993 0 0 0
3108 9879 1 -0.8 56.26843436411754 57.85281672898228 15.155866679834263 0 0 0
3118 9 3 1.6 3.34215901293902 0.40106162775545245 16.996799291313913 0 0 0
3120 10 3 1.6 3.280596303046637 3.3046124473137914 18.125816977055955 0 0 0
3122 11 3 1.6 2.7521806412603698 3.180275313077017 21.163055815396486 0 0 0
3115 39 3 1.6 0.8006132936452331 4.672240483621181 17.17737087048235 0 0 0
3119 3131 1 -0.8 3.6816977416324415 1.7835889544478116 17.765249956519533 0 0 0
3117 3134 1 -0.8 2.17372696023467 3.827441115421199 17.07974807879876 0 0 0
3125 3135 1 -0.8 4.586288667766649 4.254668256875252 18.111380101111166 0 0 0
3121 3136 1 -0.8 2.577616788888235 3.3894744616222336 19.577938226368026 0 0 0
3123 3137 1 -0.8 3.3173399324844977 4.530499310751508 21.84616167139653 0 0 0
3116 3138 1 -0.8 1.3285088237616407 2.849566413491878 21.84334479090533 0 0 0
3124 3139 1 -0.8 3.785149576526868 1.952199320553605 21.3538509624176 0 0 0
3114 3141 1 -0.8 0.7536244749931733 0.3028603187772576 21.63211394464409 0 0 0
3127 436 3 1.6 5.515892657861733 5.167262290611058 17.151944999924673 0 0 0
3130 639 3 1.6 8.074247750597731 0.8650210019643869 17.058114397081294 0 0 0
3132 640 3 1.6 8.040685379991862 3.793356355097698 18.12720746937752 0 0 0
3134 641 3 1.6 7.70422227063945 3.0952572147648203 21.188901752922643 0 0 0
4353 642 3 1.6 10.140362072130987 1.358098714570488 21.826017096856763 0 0 0
3139 669 3 1.6 10.613885174338407 4.992983230450635 17.067225826189272 0 0 0
3128 4164 1 -0.8 6.2682474820141065 2.6949908704291277 21.811422021759 0 0 0
3126 4165 1 -0.8 5.725559443001451 0.1230129598327309 21.50802137799384 0 0 0
3129 4191 1 -0.8 7.073286613631267 4.920841686884941 17.49544138404395 0 0 0
3131 4596 1 -0.8 7.89915806213012 2.452425538774695 17.24378487866404 0 0 0
3137 4598 1 -0.8 9.576458789113463 4.282059188388064 18.081808177896807 0 0 0
3133 4599 1 -0.8 7.54857192497525 3.4977962126072155 19.634734443868965 0 0 0
3135 4600 1 -0.8 8.320381956871987 4.3480979755088685 22.003705506884117 0 0 0
3136 4601 1 -0.8 8.695435918915031 1.8335470963153366 21.301394115378123 0 0 0
4182 4597 1 -0.8 9.572920416153144 0.3905534139895402 17.416155306697664 0 1 0
3138 4602 1 -0.8 10.48019709071539 61.29452209494809 21.236964074242426 0 -1 0
4175 4552 1 -0.8 7.021947524721154 0.08500267472934389 17.99617686781348 0 1 0
3142 999 3 1.6 12.997930459379992 0.7481041921914823 17.174646970899072 0 0 0
3144 1000 3 1.6 13.059462518566185 3.5860019161974233 18.3056116651203 0 0 0
3146 1001 3 1.6 12.722197598554652 3.085263862746483 21.27480522851053 0 0 0
3151 1029 3 1.6 15.68072724437312 4.304595658244015 16.83014031713146 0 0 0
3140 4603 1 -0.8 11.269748920914896 2.3886860898891853 21.311091387313798 0 0 0
3141 4665 1 -0.8 12.133341580017518 4.609329991528619 17.46752953588595 0 0 0
3143 5376 1 -0.8 12.606860548082933 2.065127644488848 18.01633018787255 0 0 0
3149 5378 1 -0.8 14.607867924931023 3.7160452923165432 17.87446131558494 0 0 0
3145 5379 1 -0.8 12.898402819576932 3.8742009133899815 19.876907999516032 0 0 0
3148 5381 1 -0.8 13.928300051342221 2.0099077784649872 21.357658933612612 0 0 0
3150 5382 1 -0.8 15.84639948999037 0.1735105909459932 21.310871071016717 0 0 0
4197 5377 1 -0.8 14.545613324044433 0.3408595490385855 17.405457419109677 0 1 0
3154 1216 3 1.6 18.29550131413024 0.12129824486318241 16.81699345345019 0 0 0
3156 1217 3 1.6 18.268988146083785 2.9824956874396187 17.97287049429266 0 0 0
3158 1218 3 1.6 17.818130169969532 3.2053127651114295 20.991724177026544 0 0 0
4373 1312 3 1.6 20.30238749397557 1.4470152435952663 21.836716343972956 0 0 0
3163 1339 3 1.6 20.676023313220085 4.579066629151071 17.073332870848134 0 0 0
3152 5383 1 -0.8 16.508940999228884 2.6757605653422134 21.793689030374022 0 0 0
3153 5445 1 -0.8 17.11773174450024 3.598523635813563 17.027038098332 0 0 0
3155 5858 1 -0.8 18.754209944640458 1.5691020727300606 17.36441853385985 0 0 0
3161 5860 1 -0.8 19.534309376348112 3.9836926707764415 18.041351296966422 0 0 0
3157 5861 1 -0.8 17.665332266640828 2.7627534024084572 19.4488756382939 0 0 0
3159 5862 1 -0.8 17.93548328525256 4.811943405494809 21.092033689291785 0 0 0
3160 5863 1 -0.8 19.206673696495447 2.5995558834476107 21.566059821858186 0 0 0
3162 6082 1 -0.8 20.01917622854305 0.16858896713439933 20.902095934024604 0 0 0
3165 6076 1 -0.8 22.001119641605168 3.6467988479994555 17.109656301077386 0 0 0
3164 6080 1 -0.8 21.820615865285916 1.9393461909243273 21.553046721146995 0 0 0
3166 1309 3 1.6 23.390707891552015 0.07288350126554428 16.739561216825273 0 0 0
3168 1310 3 1.6 23.326686964864066 2.9377794832357207 17.69920536190467 0 0 0
3170 1311 3 1.6 22.992489708828714 2.718160282395026 20.753836383807506 0 0 0
3175 1466 3 1.6 26.014716054653643 4.340891505437818 17.02705963594998 0 0 0
3167 6073 1 -0.8 23.73721489040716 1.641398512010716 16.837140595696752 0 0 0
3173 6077 1 -0.8 24.57204239604331 3.96801682447845 17.675660104118254 0 0 0
3169 6078 1 -0.8 22.99010517629802 2.3897070106758114 19.18128891511421 0 0 0
3171 6079 1 -0.8 22.69278679423797 4.293091894248162 20.89061971236351 0 0 0
3172 6081 1 -0.8 24.460191658696427 2.326191703660613 21.340511307176904 0 0 0
3176 6409 1 -0.8 27.04779497854529 2.985544197948417 21.589928599264525 0 0 0
3174 6410 1 -0.8 26.335433725930663 0.5095850391677076 21.867377719389154 0 0 0
3177 6436 1 -0.8 27.1821394029508 3.590927409630762 17.852428435113573 0 0 0
3178 1524 3 1.6 28.42397977602425 0.26335060607099625 16.732966597580003 0 0 0
3180 1525 3 1.6 28.67527544333935 3.0022118685589474 18.06344234478562 0 0 0
3182 1526 3 1.6 28.571254546741848 3.1540668767423146 21.056202593908505 0 0 0
3187 1554 3 1.6 31.050918108400754 4.734525274587991 16.992129518578114 0 0 0
3179 6571 1 -0.8 28.9254971111817 1.7734726826350755 17.040411742533298 0 0 0
3185 6573 1 -0.8 29.774430843455878 4.159955301810617 17.80413855472342 0 0 0
3181 6574 1 -0.8 28.76477881530969 2.4915874950158448 19.596050380194125 0 0 0
3183 6575 1 -0.8 28.84366912489084 4.737913314746401 20.916605930621508 0 0 0
3186 6577 1 -0.8 31.186385926230052 0.4880988708049106 21.322258729093623 0 0 0
3188 6578 1 -0.8 32.28189542941245 2.683805116379021 22.065063254312353 0 0 0
3189 6640 1 -0.8 32.27411113291876 3.696283409456645 17.060015452014895 0 0 0
3190 1651 3 1.6 33.505723951331184 0.11638140028562734 17.317534188408082 0 0 0
3192 1652 3 1.6 33.41028074494532 3.047123988789013 17.99302320029418 0 0 0
3194 1653 3 1.6 33.45508572911474 2.8887504431746267 20.98178825790481 0 0 0
3206 1721 3 1.6 38.58594173166801 3.335701655540396 21.02511856815213 0 0 0
3199 1749 3 1.6 35.914930354157825 4.63282819697153 17.287794817885924 0 0 0
3191 6863 1 -0.8 33.80824087803815 1.681773967770285 17.27934882578744 0 0 0
3197 6865 1 -0.8 34.78939474550541 3.8667889524539967 18.138571201402037 0 0 0
3193 6866 1 -0.8 32.850578486634554 2.8019726741192246 19.486655517502808 0 0 0
3195 6867 1 -0.8 34.02758961919043 4.368363193583335 21.200341900851758 0 0 0
3196 6868 1 -0.8 34.65556534848226 1.8133911655443398 21.14462715173445 0 0 0
3203 7028 1 -0.8 38.33505230699759 1.9871471521895274 17.630401714118186 0 0 0
3201 7032 1 -0.8 37.413463156056714 4.456440334234035 17.893207608619303 0 0 0
3207 7034 1 -0.8 38.20827932625078 4.7191507483430835 21.72872573984413 0 0 0
3200 7036 1 -0.8 37.213251424749224 2.5071825315316447 20.851162144384023 0 0 0
3198 7037 1 -0.8 36.713591993835 0.13339983413078255 21.667439823586864 0 0 0
3204 1720 3 1.6 38.725465945616946 3.508355970315462 18.029066113887392 0 0 0
3202 1719 3 1.6 38.62320542492151 0.4403786815961122 17.255676999994648 0 0 0
3205 7033 1 -0.8 39.21117993004786 3.5585992825422696 19.5634438160364 0 0 0
3216 1865 3 1.6 43.9691163091738 2.8033044149725512 18.136934050651796 0 0 0
3218 1866 3 1.6 43.48128524789396 3.293652579521775 21.078936502553304 0 0 0
4413 1867 3 1.6 41.038050255751564 1.6862701768504875 21.897237843627973 0 0 0
3211 1894 3 1.6 41.51201543440348 4.5153858554908215 17.21479641007906 0 0 0
3209 7031 1 -0.8 39.98069116927905 3.987447358128356 17.137259940945786 0 0 0
3208 7035 1 -0.8 39.67895050871209 2.5593290797750954 21.920472001391392 0 0 0
3213 7376 1 -0.8 42.52112028829465 3.3151433042012104 17.615577003361626 0 0 0
3219 7379 1 -0.8 43.03042631094563 4.723004278921541 21.656353924403092 0 0 0
3212 7380 1 -0.8 42.18077563134561 2.341521463179246 20.96781144518248 0 0 0
3210 7382 1 -0.8 40.664342392465734 0.2153101626241949 21.370514500445204 0 0 0
3215 7373 1 -0.8 44.00548784022892 1.1877150916372583 18.16658079837593 0 0 0
3217 7378 1 -0.8 44.14583928523499 3.4100471182339245 19.616324150346685 0 0 0
3223 2046 3 1.6 46.43234346579511 4.259126731893802 16.926401849139616 0 0 0
3226 2154 3 1.6 48.659076038796115 0.15163387892596875 17.030489737969834 0 0 0
3228 2155 3 1.6 49.009886719665005 2.9961393023021143 18.007932585941862 0 0 0
3230 2156 3 1.6 48.46297037251618 3.274407246873894 20.97686448090143 0 0 0
3221 7377 1 -0.8 45.196010246641755 3.259657156450853 17.192475953066584 0 0 0
3224 7789 1 -0.8 47.01929526662599 2.5422455039962273 20.97666994142453 0 0 0
3222 7790 1 -0.8 45.70833473697345 0.3536483435844486 21.87146226168285 0 0 0
3225 7816 1 -0.8 47.881102873502066 3.54062128349836 16.981129946307572 0 0 0
3227 8076 1 -0.8 48.84929465755363 1.3826878484570462 18.06606528068311 0 0 0
3229 8079 1 -0.8 48.77388957115705 3.668417911387118 19.452526279338375 0 0 0
3231 8080 1 -0.8 48.503972853748536 4.593872361794732 21.924498665366265 0 0 0
3232 8081 1 -0.8 49.59657378347196 2.2423387814629283 21.49477630219153 0 0 0
3371 7817 1 -0.8 46.44676284237184 5.408384341568219 18.046692506835978 0 0 0
4433 2157 3 1.6 51.13132454043402 1.9153904677929172 21.87135251638194 0 0 0
3235 2184 3 1.6 51.5369312844759 4.230902277502778 16.651030783088853 0 0 0
3238 2481 3 1.6 53.778683172980784 0.0038223898395959984 16.82300417723309 0 0 0
3240 2482 3 1.6 53.992172896236056 2.8033423744494046 17.74997103467365 0 0 0
3242 2483 3 1.6 53.68345554238884 3.1970289424583864 20.714508770767594 0 0 0
3233 8078 1 -0.8 50.51381923927577 3.3999697508621476 17.580433747150092 0 0 0
3234 8082 1 -0.8 51.373376084558195 0.3258382886144145 21.687850537134928 0 0 0
3236 8083 1 -0.8 52.144339209611495 2.7934465040196534 20.9797526314035 0 0 0
3237 8145 1 -0.8 52.98833625130352 3.524989453809008 16.71424026372386 0 0 0
3239 8863 1 -0.8 53.66159575764967 1.233308641711458 17.85259808523306 0 0 0
3241 8866 1 -0.8 53.80990167670324 3.5314803663005687 19.159333051493135 0 0 0
3243 8867 1 -0.8 54.18585969481971 4.478341218461003 21.55060802905665 0 0 0
3244 8868 1 -0.8 54.67147908631973 1.9815505685367627 21.111111802006192 0 0 0
3245 8865 1 -0.8 55.52583729577417 2.985631237160938 17.311219303793308 0 0 0
3250 2694 3 1.6 59.10744997117583 0.3388360571274962 16.6580939171054 0 0 0
3252 2695 3 1.6 58.94420332643993 3.149065608193979 18.01663816751288 0 0 0
3254 2696 3 1.6 58.49373770775626 3.2676456334724415 21.049528877041617 0 0 0
3247 2724 3 1.6 56.41768323831507 4.25087476456089 16.874709515070577 0 0 0
3256 3140 1 -0.8 59.57451950559192 2.0964749290991276 21.304704865191034 0 0 0
3257 3217 1 -0.8 60.41127155201728 3.8280344404229645 18.001057545946043 0 0 0
3251 9288 1 -0.8 59.03414220609917 1.5610828457074581 17.71348692156937 0 0 0
3249 9290 1 -0.8 57.97607428724216 3.8515203436514773 16.93610714000697 0 0 0
3253 9291 1 -0.8 58.26734231720022 3.400811288763212 19.462077736180287 0 0 0
3255 9292 1 -0.8 59.07943807107337 4.651844631713568 21.651766205495637 0 0 0
3248 9293 1 -0.8 57.09469450879751 2.8760225649811844 21.751635591450622 0 0 0
3246 9294 1 -0.8 56.60839577282926 0.2836028318559885 21.588292106267 0 0 0
3397 9344 1 -0.8 56.122832635277845 5.495794429509362 17.870309555701997 0 0 0
3259 40 3 1.6 0.6822062755613092 7.592915993683715 18.259284798823323 0 0 0
3261 42 3 1.6 0.4796174719396182 7.635047094311655 21.27104472116976 0 0 0
3266 67 3 1.6 2.9802559160371516 9.439282886839642 17.42437663940473 0 0 0
3258 3218 1 -0.8 1.1336610713551822 6.087311135897135 17.887994610967766 0 0 0
3264 3220 1 -0.8 1.9380978400688795 8.606886085368707 18.328688031636617 0 0 0
3260 3221 1 -0.8 0.029974463795046796 7.621376724296884 19.72655856577182 0 0 0
3263 3222 1 -0.8 1.7487215300535277 6.6364451083729685 21.459515084224897 0 0 0
3262 3225 1 -0.8 0.8988892687024288 9.109862917168781 21.784408413430857 0 0 0
3267 3287 1 -0.8 2.688279572818299 11.019804223645982 17.496428547165674 0 0 0
3269 3288 1 -0.8 4.489163067623711 9.175863081718894 17.926634691426248 0 0 0
3272 437 3 1.6 5.4247222638630985 7.941298036104603 18.361617995947984 0 0 0
3271 4192 1 -0.8 5.185916438964709 6.727078237916043 17.33633073405344 0 0 0
3273 4194 1 -0.8 4.998566692073195 7.443332189739394 19.82947950489725 0 0 0
3270 3351 1 -0.8 4.2946459800416275 10.89537095147135 21.61594036417055 0 0 0
3274 438 3 1.6 5.520480657452977 7.389948793753317 21.348347176933554 0 0 0
3285 670 3 1.6 10.52519690547469 7.80103078220775 18.245104608682524 0 0 0
3287 672 3 1.6 10.534942664217933 7.322570333622136 21.23713513391326 0 0 0
3279 697 3 1.6 7.9853219730236535 9.314036521134827 17.515370498890814 0 0 0
3277 4193 1 -0.8 6.98042123771802 8.37170460432497 18.361352669988765 0 0 0
3275 4195 1 -0.8 5.982543671776164 8.866331915483531 21.799685988170527 0 0 0
3276 4196 1 -0.8 6.797056489861057 6.403532128535296 21.432664454178845 0 0 0
3284 4664 1 -0.8 10.411417603039158 6.599036183865822 17.16764301310706 0 0 0
3282 4666 1 -0.8 9.527655546591165 9.024899671572397 17.896748034546007 0 0 0
3286 4668 1 -0.8 10.086733818123585 7.23752952469585 19.692464284034095 0 0 0
3288 4671 1 -0.8 10.863003961220949 8.868647359709126 21.600700533733857 0 0 0
3280 4724 1 -0.8 7.548148024412122 10.842170319758822 17.784035046855813 0 0 0
3283 4725 1 -0.8 9.210951182125683 10.959315214480378 21.637254324081212 0 0 0
3298 1030 3 1.6 15.692106091202186 7.201347390226867 18.008856982324325 0 0 0
3300 1032 3 1.6 15.308138001493676 7.1276690954391695 21.08813190403403 0 0 0
3292 1057 3 1.6 13.229258829565458 9.07183076254592 17.47943901490925 0 0 0
3290 4667 1 -0.8 12.064575525051344 8.294690675349448 18.28713286141901 0 0 0
3289 4672 1 -0.8 11.855535893138423 6.407746978168654 21.404492130388093 0 0 0
3297 5444 1 -0.8 15.80593441964376 5.889501172486011 17.07824754215883 0 0 0
3295 5446 1 -0.8 14.580643171750237 8.192067332534833 17.38179914241304 0 0 0
3299 5448 1 -0.8 15.240587148611976 6.804607890660966 19.50777861220642 0 0 0
3301 5451 1 -0.8 14.651966738044313 8.557253434416605 21.425584384866557 0 0 0
3293 5504 1 -0.8 13.540501120249807 10.471781136406046 18.194264117648626 0 0 0
3305 1244 3 1.6 18.173530402422625 8.678168983040276 17.027742404104178 0 0 0
3311 1340 3 1.6 20.80037332279785 7.476203870187909 18.25741265092035 0 0 0
3313 1342 3 1.6 20.676489143220675 7.3920247575091 21.262307217306276 0 0 0
4493 1368 3 1.6 20.29342167439855 10.46755679113319 22.002231868054846 0 0 0
3303 5447 1 -0.8 17.150946938485088 7.894523548270865 18.012381277054523 0 0 0
3302 5452 1 -0.8 16.856315280421946 7.1094976686539155 21.55466200306162 0 0 0
3308 5917 1 -0.8 19.698725554124206 8.40730746842618 17.510815822995433 0 0 0
3306 5918 1 -0.8 17.773547442223382 10.234556430380213 17.07175214025425 0 0 0
3310 6147 1 -0.8 21.03254394820757 6.096737375814673 17.453615960208797 0 0 0
3312 6149 1 -0.8 20.294346250035524 7.075343363557353 19.728140596336104 0 0 0
3314 6153 1 -0.8 20.66627978265787 8.993543569679522 21.421709502959477 0 0 0
3309 5943 1 -0.8 18.978314784111944 11.037554561327466 21.264298525976034 0 0 0
3318 1367 3 1.6 23.45988830024806 8.660383127316184 17.47027223997882 0 0 0
3324 1467 3 1.6 26.18067209983855 7.139216920062471 18.11972465589367 0 0 0
3326 1468 3 1.6 25.800988142062746 6.7130473107088235 21.12491031012972 0 0 0
3316 6148 1 -0.8 22.233531861231686 8.189297627624542 18.410230578994547 0 0 0
3315 6150 1 -0.8 22.127650398882796 6.746720957596317 21.634917498570786 0 0 0
3319 6199 1 -0.8 23.506190076555924 10.255998166813526 17.522267196386878 0 0 0
3321 6200 1 -0.8 24.867807179530608 8.046095128258456 17.939651465003394 0 0 0
3323 6437 1 -0.8 26.21837274752263 5.933105364882968 17.05698939609662 0 0 0
3325 6439 1 -0.8 26.092593275262587 6.432777702435032 19.569615739972782 0 0 0
3327 6440 1 -0.8 25.091858378458483 8.117643565950377 21.320818914098805 0 0 0
3467 6232 1 -0.8 23.363510543573064 10.573227262153818 20.089972235829375 0 0 0
3468 9978 3 1.6 23.14626435053757 11.032646385189999 21.591086636884103 0 0 0
3320 6151 1 -0.8 24.697797986238086 5.686344867934559 21.713505996091868 0 0 0
4612 10122 2 0.4 25.625868699536753 9.319366450687495 21.772511570355626 0 0 0
3329 6438 1 -0.8 27.523112818044957 7.991257325731773 17.9182047469503 0 0 0
3328 6441 1 -0.8 27.234618145434546 6.639387066959407 21.859190776548722 0 0 0
3335 1555 3 1.6 31.248386947444637 7.64337174576369 17.546337143858384 0 0 0
4507 1556 3 1.6 28.746639875534175 6.0551891510796665 21.852128269659236 0 0 0
3337 1557 3 1.6 31.238281446779435 7.445360857647609 20.58647840258159 0 0 0
3334 6639 1 -0.8 31.621844720915384 6.086664042253575 17.611014586737497 0 0 0
3333 6641 1 -0.8 29.847491940698543 7.763084038163875 16.7641268909348 0 0 0
3340 6642 1 -0.8 32.40432040367268 8.400780476562192 16.733270410276955 0 0 0
3336 6643 1 -0.8 31.056087385093356 8.055202488193872 19.097375567525457 0 0 0
3332 6644 1 -0.8 29.835007642013082 7.117586062523993 21.315312831070408 0 0 0
3338 6646 1 -0.8 32.122652659570726 8.453963264942052 21.4515973630179 0 0 0
3339 6647 1 -0.8 32.132833761106596 6.104554757689917 20.55894498231727 0 0 0
3330 10135 3 1.6 28.478598369782663 8.560244407935148 16.766079039325255 0 0 0
3331 10135 1 -0.8 28.716702185200173 10.114335991042255 16.870990757233 0 0 0
4617 10000 2 0.4 32.54061435402963 6.160212408779664 21.443542791138768 0 0 0
4517 1669 3 1.6 33.47226621444941 5.855987931068619 21.363330191564216 0 0 0
3346 1750 3 1.6 36.02685787720359 7.605035634164518 17.679093673994018 0 0 0
3348 1752 3 1.6 35.979512156134206 7.666597038203847 20.715211865239358 0 0 0
3343 6903 1 -0.8 34.60138346992872 6.840528519456218 20.82602626845427 0 0 0
3344 6921 1 -0.8 34.845863984828135 8.68143987137581 17.670704053424643 0 0 0
3345 7102 1 -0.8 35.43851508846745 6.163503752684375 17.27893912182843 0 0 0
3351 7103 1 -0.8 37.22886498087702 7.8446538951929785 16.62357157117688 0 0 0
3347 7104 1 -0.8 36.55822734442114 7.526143232959741 19.204279582762982 0 0 0
3350 7106 1 -0.8 37.13090123079543 7.062587392828134 21.68740628078436 0 0 0
3349 7108 1 -0.8 35.75218126633969 9.18082670489874 21.157776348571268 0 0 0
3342 10150 3 1.6 33.77039306800863 9.21132378406238 16.615195332216963 0 0 0
3341 10150 1 -0.8 33.54356812907827 10.764661295641304 16.673401603184445 0 0 0
3352 7154 1 -0.8 38.036087601627834 10.105300371324685 21.74483181855188 0 0 0
3358 7447 1 -0.8 41.6003717351392 5.803184160236415 18.189828922618798 0 0 0
3353 1774 3 1.6 38.7394240359682 8.387500574983717 16.64121458511553 0 0 0
3354 7153 1 -0.8 38.79176831706937 9.338759869397384 17.904927986138603 0 0 0
3359 1895 3 1.6 41.18723971327028 7.361113751274396 17.937467539785764 0 0 0
3361 1897 3 1.6 40.964699887957984 7.792620218721551 20.905506874257046 0 0 0
3366 1922 3 1.6 43.89666680103326 8.625256812658382 17.188179989302903 0 0 0
3355 7105 1 -0.8 39.77333453357312 6.717361808834378 21.12586381501334 0 0 0
3356 7152 1 -0.8 39.872033900369125 7.305620688260836 17.00670522614958 0 0 0
3364 7448 1 -0.8 42.37571295101668 8.114032056026234 17.169411659869834 0 0 0
3360 7449 1 -0.8 40.967018372610234 8.127889022979133 19.331182025679496 0 0 0
3363 7450 1 -0.8 42.44555668898464 7.2125489886367875 21.249995281663438 0 0 0
3362 7453 1 -0.8 40.74309613607412 8.998730465521295 21.935865534570176 0 0 0
3367 7499 1 -0.8 44.18065075086294 9.655866600635644 18.38118263737237 0 0 0
3480 10167 3 1.6 39.37382000714723 10.75593733161762 18.22106703818338 0 0 0
3476 10167 2 0.4 39.5986247143656 9.854955544902937 17.793073739062507 0 0 0
3483 7179 1 -0.8 40.7191482868397 10.706824539410063 17.375028314841902 0 0 0
3365 7501 1 -0.8 42.66340507564155 10.698181079805899 21.624402928866925 0 0 0
3481 7180 1 -0.8 39.683778435964456 10.813960905959997 19.7702999492049 0 0 0
4537 1896 3 1.6 43.54687366597813 6.229732655366569 21.886482773073947 0 0 0
3372 2047 3 1.6 46.37483751822533 7.009766120136851 18.007197442896175 0 0 0
3374 2048 3 1.6 46.20196508630212 7.473300823056125 21.027192759095534 0 0 0
3379 2212 3 1.6 48.933903678569884 8.39536611531422 17.010994831330304 0 0 0
3368 7451 1 -0.8 44.976001716531044 6.4343681771991905 21.16107753006987 0 0 0
3369 7500 1 -0.8 44.91983336725852 7.401551468356922 17.431789568296622 0 0 0
3377 7818 1 -0.8 47.53945927476049 7.5870133575964385 17.053827743456953 0 0 0
3373 7819 1 -0.8 46.63669735978201 7.5884766429058494 19.484091345312123 0 0 0
3375 7820 1 -0.8 45.74898741601737 8.928923004502273 21.53336821144178 0 0 0
3380 8204 1 -0.8 48.655134527963945 9.938664455353692 17.44116529660039 0 0 0
3378 7853 1 -0.8 47.47771023013629 10.941357046025773 21.58034553480035 0 0 0
3501 8248 1 -0.8 49.404495350821904 10.939410697439115 19.76307798977355 0 0 0
3385 2185 3 1.6 51.534713519528665 7.094059806572324 18.05045494607093 0 0 0
3387 2187 3 1.6 51.501817449233215 7.107280949386203 21.04818934209203 0 0 0
3392 2509 3 1.6 54.0995049723639 8.681942446653153 17.367113133075332 0 0 0
3384 8144 1 -0.8 51.64815619569517 5.792983868534769 17.089302615211686 0 0 0
3382 8146 1 -0.8 50.02513220990751 7.688784609230172 17.97682037339778 0 0 0
3390 8147 1 -0.8 52.5654806096783 8.268246030649422 17.644519307748936 0 0 0
3386 8148 1 -0.8 51.936207811497994 6.694183261061903 19.554690024646405 0 0 0
3381 8149 1 -0.8 49.95198268431829 6.687095309443251 21.15710038321615 0 0 0
3388 8151 1 -0.8 51.69413347535941 8.69166163466955 21.323264639489906 0 0 0
3394 8903 1 -0.8 54.93502379585302 7.057995106614646 21.507041677302098 0 0 0
3393 8923 1 -0.8 54.25325996587843 10.286228440508637 17.55441743276234 0 0 0
3514 8948 1 -0.8 54.352750847187586 11.136398712215023 20.064880319548315 0 0 0
3395 8922 1 -0.8 55.16087223536186 7.9235517222880025 18.315099957645117 0 0 0
3398 2725 3 1.6 56.47880849119067 6.982412141462949 18.395535678601135 0 0 0
3400 2727 3 1.6 56.50242641678539 7.421886220066028 21.393686156592693 0 0 0
3405 2752 3 1.6 58.797157402173426 8.690319451843779 17.154152866142027 0 0 0
3408 3219 1 -0.8 60.29262475747888 8.07663362763717 17.193047546132863 0 0 0
3403 9345 1 -0.8 57.70258926045977 7.566775218107963 17.52814140158022 0 0 0
3399 9346 1 -0.8 56.982341331986824 6.995295051535168 19.91994373805091 0 0 0
3401 9349 1 -0.8 56.78917174495618 8.982184081041437 21.717306307014642 0 0 0
3406 9386 1 -0.8 58.775868272637375 9.965508707491594 18.15224804093292 0 0 0
3417 89 3 1.6 2.8077604434629944 12.290567827256641 18.485385198058548 0 0 0
3410 90 3 1.6 0.24028772975347176 13.46735629841377 17.44236356730608 0 0 0
3419 92 3 1.6 3.0387235448576395 11.902694772464972 21.488641022387284 0 0 0
3414 121 3 1.6 0.4050380335854167 16.34586002678821 21.49149904532176 0 0 0
3415 3342 1 -0.8 1.7500984397343375 13.402858773886281 18.006566930938835 0 0 0
3418 3343 1 -0.8 2.464280411181306 11.832839366485732 19.98521119397669 0 0 0
3421 3344 1 -0.8 4.300878672502741 12.89404106797392 18.487309093935195 0 0 0
3420 3347 1 -0.8 3.4680912433243507 13.41281747704561 21.8569954495837 0 0 0
3416 3348 1 -0.8 1.631371438663264 15.305127117720518 21.69421124510792 0 0 0
3423 464 3 1.6 5.339718677733536 13.67374639347452 17.536374838174737 0 0 0
3425 476 3 1.6 5.026909090499266 16.58942406936821 18.54033573984307 0 0 0
3427 477 3 1.6 5.239960589920158 16.354783135265816 21.567959973064013 0 0 0
3424 4248 1 -0.8 5.043966246591243 15.262735386380726 17.610082588499296 0 0 0
3426 4273 1 -0.8 4.66078907866658 16.213916761106134 20.06270979434331 0 0 0
3430 719 3 1.6 7.774236823980346 12.213680612325739 18.604985027745887 0 0 0
3436 720 3 1.6 10.409129098972988 13.211923310914589 17.44898383433244 0 0 0
3432 722 3 1.6 7.901525526489895 11.910288034768236 21.669969849558715 0 0 0
3438 749 3 1.6 9.91315435347421 16.093028676733457 18.45115482867519 0 0 0
3440 751 3 1.6 9.977188286493321 16.3172718246823 21.38054850990814 0 0 0
3428 4247 1 -0.8 6.856633101228687 13.38681273107033 17.991308142011924 0 0 0
3429 4275 1 -0.8 6.496953243832631 15.35135165001722 21.768055849744922 0 0 0
3434 4767 1 -0.8 9.330090802365213 12.57421561121188 18.467672690080864 0 0 0
3431 4768 1 -0.8 7.364521069809774 12.028783281080752 20.152800543729263 0 0 0
3437 4769 1 -0.8 10.6047709596627 14.730283047295705 17.93527759786512 0 0 0
3433 4771 1 -0.8 8.214547978880782 13.367322750833663 22.288020906197914 0 0 0
3439 4825 1 -0.8 9.342980590084323 15.947088557631405 19.9467820997407 0 0 0
3557 4824 1 -0.8 8.71077857350085 16.529135899437843 17.481309640453038 0 0 0
3296 5505 1 -0.8 14.20501676953611 11.117487052472411 21.658407540246593 0 0 0
3443 1079 3 1.6 12.949685149482391 11.941493970265295 18.500838918562316 0 0 0
3449 1080 3 1.6 15.284673020664812 13.536994167138307 17.335112770089577 0 0 0
3445 1082 3 1.6 12.8381472752573 11.953423617306754 21.51855572806721 0 0 0
3441 4770 1 -0.8 11.759251444237568 12.3356623362245 17.49418259692399 0 0 0
3442 4829 1 -0.8 11.316756591939887 15.442110768026213 21.513594815049622 0 0 0
3447 5547 1 -0.8 14.141213186924771 12.99121169579256 18.337976354069855 0 0 0
3444 5548 1 -0.8 12.343453157650606 11.913995006198254 19.98942624278578 0 0 0
3450 5549 1 -0.8 15.593792081809429 15.030951749830837 17.799493758055906 0 0 0
3446 5551 1 -0.8 13.070140056128029 13.479096553921305 21.93259274294266 0 0 0
3452 5593 1 -0.8 14.789223752060769 15.42776532627797 20.217064069317132 0 0 0
3453 9962 3 1.6 15.092992191013542 15.848035288801164 21.71130406017074 0 0 0
3451 10049 3 1.6 14.721203389259713 16.01742815015154 18.73370093732306 0 0 0
3570 5592 1 -0.8 13.285641833224071 16.10102370356445 18.094885659907316 0 0 0
3577 9962 2 0.4 15.175648690121829 16.48665119680197 21.226611972869218 0 0 0
3456 1253 3 1.6 17.545500770012886 11.470535066228281 18.084151234583448 0 0 0
3458 1254 3 1.6 17.395279002691964 11.158085624891589 21.015946615248165 0 0 0
3454 5550 1 -0.8 16.557011797510224 12.551945647924622 17.442417314196355 0 0 0
3460 5939 1 -0.8 18.95005695502914 12.16167678756193 18.37879540543958 0 0 0
3457 5940 1 -0.8 17.02217642462012 10.863254019791778 19.47801932632352 0 0 0
3459 5941 1 -0.8 16.752043755791828 12.563895361643592 21.390719997489633 0 0 0
3461 10093 3 1.6 20.37811625147277 12.119532941146122 17.694165739985152 0 0 0
3462 10093 1 -0.8 20.8259624758316 13.5351855530898 17.24111231115776 0 0 0
3317 6201 1 -0.8 21.606445278436087 11.355688250950701 21.812078703871165 0 0 0
3464 6231 1 -0.8 21.372120228005304 11.246750884326465 18.553657984496454 0 0 0
3463 10093 2 0.4 20.517533604206797 12.63918852188946 16.892078837468734 0 0 0
3469 9978 1 -0.8 24.016679354871954 12.27399134794155 21.8829324428585 0 0 0
3465 9978 2 0.4 23.626217189208894 11.386270893659455 21.773008148585415 0 0 0
3466 10092 3 1.6 22.941662209716426 11.170935258475165 18.686208698216337 0 0 0
3470 10092 1 -0.8 23.356194884061985 12.654133601331669 18.59031739294515 0 0 0
3471 10092 2 0.4 22.77780411093653 11.862730601399027 18.63829429169833 0 0 0
3478 10167 1 -0.8 38.3389989859575 11.805796963120644 17.67650619431839 0 0 0
3479 10168 1 -0.8 38.1995629228467 12.48133527165268 20.74261008355166 0 0 0
2525 9901 2 0.4 41.5451063222466 11.142201481025472 17.658703916616762 0 0 0
3482 10168 3 1.6 38.99766370455005 11.22278469711578 21.141960210218716 0 0 0
3477 10168 2 0.4 38.74183781145711 11.670318430619451 20.650195094194682 0 0 0
3487 1938 3 1.6 44.17151817288896 11.246002234267978 18.590067681788092 0 0 0
3489 1939 3 1.6 43.908308714881734 11.701559178059522 21.55464360407312 0 0 0
3486 7540 1 -0.8 42.664778985226235 11.676476980341251 18.342828327533734 0 0 0
3490 7543 1 -0.8 43.437113567661996 13.168046564244753 21.946032315577963 0 0 0
3485 9901 3 1.6 41.68481036164614 11.932406800417185 17.1405983009253 0 0 0
3484 9901 1 -0.8 40.91239475772883 13.280695058501193 17.373631658583882 0 0 0
3488 7541 1 -0.8 44.57531964947298 11.662356065424644 20.08494185538922 0 0 0
3493 2074 3 1.6 46.429600089127426 12.966221027332073 17.588451688619536 0 0 0
3497 2082 3 1.6 46.698031143507514 15.547722493345844 21.70120974106809 0 0 0
3500 2234 3 1.6 48.94741593759236 11.305515405840008 18.263563916491194 0 0 0
3502 2237 3 1.6 49.021229495232326 11.30678041805231 21.290280705949616 0 0 0
3491 7542 1 -0.8 45.18553066095018 11.941365594957132 17.539406471353637 0 0 0
3492 7544 1 -0.8 45.17648074909066 15.091185603302538 21.9120329173337 0 0 0
3498 7872 1 -0.8 47.62443792691139 12.225101487186365 18.392535338478147 0 0 0
3494 7873 1 -0.8 45.938204722906335 14.303667045505428 18.321415378596907 0 0 0
3496 7896 1 -0.8 47.27641971865788 15.376097871094055 20.21472781451267 0 0 0
3503 8251 1 -0.8 49.32047148868997 12.871199207242208 21.55569139527918 0 0 0
3495 10197 3 1.6 46.49906007510477 15.690060487402262 18.88203369948394 0 0 0
3586 7895 1 -0.8 47.348388970005665 16.44104814560345 17.765220096420006 0 0 0
3581 10197 2 0.4 46.249357670372135 16.048190964388148 19.829994831160104 0 0 0
3582 10197 1 -0.8 45.43307742886486 16.5869675221959 19.572764950113818 0 0 0
3506 2235 3 1.6 51.45695531401587 13.02165807841676 17.706944475072813 0 0 0
3508 2264 3 1.6 51.23348406804478 15.995338133669721 18.773085158296798 0 0 0
3510 2266 3 1.6 51.41806905852545 16.028659142286205 21.852288347425237 0 0 0
3513 2521 3 1.6 54.06169036053355 11.559708985253813 18.5377601473102 0 0 0
3515 2523 3 1.6 53.99979246672855 11.538285235450699 21.590719050387097 0 0 0
3391 8206 1 -0.8 52.46887279682278 11.151117796610768 21.92242255135377 0 0 0
3504 8247 1 -0.8 50.10415897042831 12.155210546221715 17.519021249963608 0 0 0
3507 8249 1 -0.8 51.14074387032405 14.3809499371942 18.537781120972927 0 0 0
3511 8250 1 -0.8 52.54527812619527 12.11872189898227 18.4924025824333 0 0 0
3505 8252 1 -0.8 49.947206969599556 15.415714273321154 22.077331849841663 0 0 0
3509 8305 1 -0.8 51.70738535321433 16.317822586826452 20.28558648078667 0 0 0
3516 8949 1 -0.8 54.312830705409 13.108049570157863 21.8407557287012 0 0 0
3518 8950 1 -0.8 54.8874051815161 15.694305779571419 21.771336682514864 0 0 0
3608 8982 1 -0.8 54.802762096382665 16.263746988087327 18.429621317756645 0 0 0
3412 119 3 1.6 60.71331275432395 16.38281877436363 18.426350379734004 -1 0 0
3411 3346 1 -0.8 60.41931470136284 14.975553949468457 17.673202040947945 -1 0 0
3413 3419 1 -0.8 60.491892478573035 16.19810681435294 20.011293261108523 -1 0 0
3517 8947 1 -0.8 55.09132048436087 12.727537017634516 18.1044889747523 0 0 0
3526 2774 3 1.6 58.659482511593936 11.5629055861707 18.393320549442056 0 0 0
3519 2775 3 1.6 56.33750152595785 13.179902180869703 17.184971924149487 0 0 0
3528 2777 3 1.6 58.662825679055054 12.043025678042756 21.386012109885712 0 0 0
3521 2804 3 1.6 56.38675532374732 15.965129216948222 18.491143878297915 0 0 0
3523 2806 3 1.6 56.398732219351395 16.176921012376503 21.495134254926434 0 0 0
3409 3289 1 -0.8 60.04085212997807 11.21202107788989 21.57469400494262 0 0 0
3530 3345 1 -0.8 60.06654596112731 12.348180920447712 18.20906812716972 0 0 0
3524 9419 1 -0.8 57.58184886009194 12.171625595687646 17.371213040725006 0 0 0
3527 9420 1 -0.8 58.12720471169869 11.83890988548694 19.88440902234778 0 0 0
3520 9421 1 -0.8 56.76193727775743 14.686260831373552 17.582799397270364 0 0 0
3529 9422 1 -0.8 58.96048850379082 13.610353609176782 21.644220307465275 0 0 0
3522 9465 1 -0.8 56.82773261085663 15.696704681534946 20.015051926981506 0 0 0
3534 3418 1 -0.8 1.5062230497383562 16.89811264103615 18.19882905336382 0 0 0
3537 120 3 1.6 2.487618869307124 17.923596270652045 17.427050040035223 0 0 0
3539 149 3 1.6 2.7313714579175286 20.849073658246873 18.318357692992784 0 0 0
3541 152 3 1.6 3.4020625094510417 20.89892237765221 21.38678044047829 0 0 0
3538 3420 1 -0.8 2.1318789080664207 19.478342906255346 17.68735136474578 0 0 0
3543 3421 1 -0.8 3.9862550684281115 17.661851284268693 17.946729323105778 0 0 0
3532 3422 1 -0.8 0.9287482357547879 17.86574113320305 21.702783449756968 0 0 0
3536 3492 1 -0.8 1.5909522382340642 21.98649855996052 18.244061312688792 0 0 0
3540 3493 1 -0.8 3.1866549533995743 20.532124540827734 19.829014968280458 0 0 0
3545 3494 1 -0.8 3.9970128987289972 21.390782255681444 17.472835393333302 0 0 0
3544 3501 1 -0.8 4.883463590932983 20.452068699556882 21.831321086973226 0 0 0
3547 494 3 1.6 5.52080055235811 21.94905112159507 17.43991911243258 0 0 0
3551 750 3 1.6 7.666677382085024 17.740618271987557 17.592717749514996 0 0 0
3553 777 3 1.6 7.901706112070215 20.456285055281025 18.819610569196715 0 0 0
3561 778 3 1.6 9.886455491502408 21.828421322938983 17.06700761536758 0 0 0
3555 780 3 1.6 8.212050876733898 20.698952297458323 21.918425964084438 0 0 0
3548 4272 1 -0.8 6.480577039791774 17.266987620937048 18.564643525170624 0 0 0
3546 4274 1 -0.8 5.665353683607343 17.890034280132088 21.872415353654524 0 0 0
3550 4307 1 -0.8 6.418580217021263 20.909653778508485 18.305134018750074 0 0 0
3552 4827 1 -0.8 8.347499019715649 19.061394550449275 18.166268753330893 0 0 0
3560 4828 1 -0.8 10.121423766302458 17.897986332743056 21.59558809584179 0 0 0
3559 4885 1 -0.8 8.8849284281999 21.585862327794146 18.305801642898327 0 0 0
3554 4886 1 -0.8 7.934401026489012 20.227770010332407 20.404895988914962 0 0 0
3562 4826 1 -0.8 10.977100922417328 17.262395300984178 18.497114565609102 0 0 0
3564 4888 1 -0.8 10.871210936495276 20.559541555858218 17.170753042021765 0 0 0
3565 1102 3 1.6 12.342640483020713 17.30792491475574 17.677628759762285 0 0 0
3563 4831 1 -0.8 12.144086414849225 19.380040948275646 21.906971890341236 0 0 0
3566 5594 1 -0.8 12.78350282465105 18.825032223387897 17.508462555122826 0 0 0
3568 5612 1 -0.8 11.65817712260939 19.869519458262072 19.416742379322134 0 0 0
3567 10056 3 1.6 12.190630448205011 20.219920213880506 17.966829448213296 0 0 0
3572 10056 1 -0.8 13.115919765542493 21.4877929566141 17.867655412454393 0 0 0
3575 10056 2 0.4 11.292037304840116 20.1367161346278 17.92719610454695 0 0 0
3569 10276 3 1.6 12.625090811664018 19.091845996762235 20.41328942338826 0 0 0
3573 10276 1 -0.8 13.963917341154257 19.797606816599465 20.08588433273711 0 0 0
3576 10276 2 0.4 13.051297595749945 19.52558107704448 19.864498131722854 0 0 0
3571 10276 1 -0.8 12.662180100234737 17.561115371826947 20.10097130240997 0 0 0
3574 10276 2 0.4 11.974271786672627 17.43393039640514 19.411355227288794 0 0 0
3578 9962 1 -0.8 15.68675039968842 17.26413698299141 21.53638103711589 0 0 0
3579 10049 1 -0.8 15.112662315958017 17.499962916583147 18.554265854520047 0 0 0
3580 10049 2 0.4 14.341056997849655 16.88363221159268 18.45203246882745 0 0 0
4686 10202 2 0.4 48.30620084645095 18.74356025099721 21.21221245315462 0 0 0
3588 2265 3 1.6 48.707246955004855 17.255656238182677 17.520432934983184 0 0 0
3587 7899 1 -0.8 49.18129089508131 18.419193073481583 21.43691525760639 0 0 0
3589 8307 1 -0.8 48.52377751383837 18.828977194439638 17.711889045934257 0 0 0
3593 8372 1 -0.8 49.26770635650056 21.084226704774395 21.525858214495923 0 0 0
4692 10202 3 1.6 47.62487244150854 18.457232071293955 21.738673320960245 0 0 0
4689 10202 1 -0.8 47.108398870981404 19.082219758775736 20.409479261579225 0 0 0
3590 10226 3 1.6 49.40846463981759 20.048574854457232 18.21079191211012 0 0 0
3585 10226 1 -0.8 48.68773139658931 21.306332468197333 18.75629091248049 0 0 0
3584 10226 2 0.4 49.339745442075284 20.593554093549724 18.97912961360736 0 0 0
3592 2291 3 1.6 50.00311532364217 19.745480168026482 21.07288147812566 0 0 0
3591 8368 1 -0.8 50.22022805930636 19.655716623940332 19.499441296576485 0 0 0
3598 2290 3 1.6 51.6992491108224 21.50883583618786 17.146795718746663 0 0 0
3602 2539 3 1.6 53.79103601380269 17.1871901356405 17.565470186163203 0 0 0
3604 2551 3 1.6 54.043455919353356 20.242703233825758 18.564504831798228 0 0 0
3606 2553 3 1.6 54.48771870373066 20.35095440341059 21.700212836441217 0 0 0
3594 8304 1 -0.8 49.79646499070167 16.67758609086626 18.561414522958014 0 0 0
3599 8306 1 -0.8 52.30351826561366 16.57580873095883 17.70299291418434 0 0 0
3595 8310 1 -0.8 51.44491963723766 19.760125545343122 21.722536633923518 0 0 0
3600 8311 1 -0.8 53.73615516285109 19.028880755545508 22.23856848357563 0 0 0
3596 8367 1 -0.8 50.48875015336283 20.4571193982503 17.11174877502551 0 0 0
3601 8370 1 -0.8 52.71668418544279 21.122441619720412 18.34609843488936 0 0 0
3603 8983 1 -0.8 53.76910443241488 18.701509115065956 18.137683541752594 0 0 0
3610 9007 1 -0.8 55.209444334444186 20.865102072421095 17.639959813697025 0 0 0
3605 9008 1 -0.8 54.573084553636434 20.310906601585007 20.087556066554352 0 0 0
3616 2805 3 1.6 58.359121452861004 17.894963578676517 17.093545946784296 0 0 0
3618 2834 3 1.6 58.66793499972984 20.868440569024322 17.713857635197254 0 0 0
3612 2835 3 1.6 55.97509781375852 22.160561975065832 17.069141459412837 0 0 0
3620 2837 3 1.6 59.24718086107112 20.73095572298101 20.87512568417898 0 0 0
3622 3417 1 -0.8 59.732280395139355 17.526356294828354 17.85506056323018 0 0 0
3623 3424 1 -0.8 0.06406661306340045 20.341523733119033 21.191060480946664 1 0 0
3624 3495 1 -0.8 60.0478390807526 21.397181338825717 17.084694317516362 0 0 0
3613 9464 1 -0.8 57.13603088270549 17.281682682565382 17.936997536148606 0 0 0
3617 9466 1 -0.8 58.2254408487195 19.49630238406473 16.991323284864748 0 0 0
3611 9467 1 -0.8 56.54941553670012 17.78167246468903 21.5663372069622 0 0 0
3615 9509 1 -0.8 57.53812568344007 21.984310846848302 17.453472881336033 0 0 0
3619 9510 1 -0.8 58.87673551654734 20.59159516650987 19.301338064366217 0 0 0
3621 9513 1 -0.8 58.923995213965206 22.250507602504634 21.354723092248157 0 0 0
3542 3499 1 -0.8 3.1205941641148973 22.477123621227516 21.596633412035658 0 0 0
3533 150 3 1.6 0.5378003237996035 22.459252325426814 17.12236941822633 0 0 0
3626 176 3 1.6 0.2132496857335462 25.327315476170984 18.22805869136737 0 0 0
3632 177 3 1.6 2.937896235153011 26.67658148082819 17.394288839638502 0 0 0
3628 178 3 1.6 0.3107949832965506 25.183173574313965 21.309965531822066 0 0 0
3631 3560 1 -0.8 1.388599118752521 26.209358295842186 17.5483224501763 0 0 0
3627 3561 1 -0.8 0.6124999208778726 24.93353272872773 19.74330829489748 0 0 0
3634 3563 1 -0.8 3.847289558207959 25.502019971064357 18.06267828407854 0 0 0
3636 503 3 1.6 5.2441881307842255 24.91117024288117 18.682614007228953 0 0 0
3638 504 3 1.6 5.155093406059752 25.092966952070928 21.825623736554896 0 0 0
3635 4308 1 -0.8 5.59096971103976 23.467608934082456 18.011416180389148 0 0 0
3637 4326 1 -0.8 5.132593928378117 24.667653755745732 20.26732555915541 0 0 0
3556 4890 1 -0.8 7.820610518345735 22.25823022604502 21.995983777686636 0 0 0
3642 799 3 1.6 7.273190328154859 26.511952574148633 17.134718136165755 0 0 0
3641 4325 1 -0.8 6.36523711209427 26.00467965489019 18.356063523606277 0 0 0
3645 4887 1 -0.8 10.220642406984753 23.406660709179558 17.250779802426315 0 0 0
3643 4889 1 -0.8 7.8485008032438435 24.840673884203508 21.496466400645808 0 0 0
3644 4929 1 -0.8 8.460404475013247 25.453433098376777 16.85904504074139 0 0 0
3647 4930 1 -0.8 8.669562220438603 24.421578073857308 19.144259168688244 0 0 0
3649 4932 1 -0.8 8.558923783784834 26.738084797086188 20.418145762959426 0 0 0
3646 10009 3 1.6 9.482342133052413 24.69731683205291 17.823048202574693 0 0 0
3648 10010 3 1.6 8.988158348558102 25.21714000108378 20.475233666477102 0 0 0
3650 10009 1 -0.8 10.370788022397758 25.787879774253142 18.497199474911866 0 0 0
3652 10009 2 0.4 9.55930580465727 25.216684342657466 18.713070472295684 0 0 0
3651 10010 1 -0.8 10.308361716949197 24.671492114650665 21.150009405512847 0 0 0
3653 10010 2 0.4 8.110733218873996 25.6256332277493 20.978898731773704 0 0 0
4793 9921 2 0.4 9.656690100759068 27.243959972231302 21.042391069727636 0 0 0
4790 9921 1 -0.8 10.599818619823482 27.44660360160356 21.26661526266806 0 0 0
3655 9990 1 -0.8 49.38909128094766 28.024476661804677 17.763835429779036 0 0 0
3657 9990 3 1.6 50.51340891289849 27.0118888365847 17.354604668921134 0 0 0
3656 9990 1 -0.8 51.827388605861756 27.0658482077746 18.241939092944758 0 0 0
3654 9990 2 0.4 52.15874692483186 26.299862153482557 17.726245336342085 0 0 0
3661 2303 3 1.6 51.326077319026695 24.506406722094955 17.881797768909585 0 0 0
3663 2304 3 1.6 51.10202489651829 24.57666148723659 21.046438690943624 0 0 0
3667 2569 3 1.6 53.63180073877758 26.31821375893572 16.789986546877415 0 0 0
3660 8369 1 -0.8 51.14638059741088 22.998154627623318 17.37139380803757 0 0 0
3658 8371 1 -0.8 49.761951266433336 23.707539459749484 21.353891578243875 0 0 0
3659 8415 1 -0.8 50.121456246955994 25.4749803574672 17.506227853222455 0 0 0
3662 8416 1 -0.8 51.57271217240957 24.444671734556394 19.48635988744793 0 0 0
3666 8417 1 -0.8 52.516522399557175 25.182767942429912 17.030629518793933 0 0 0
3664 8418 1 -0.8 51.10127875489302 26.155144736706298 21.43791669908093 0 0 0
3665 8419 1 -0.8 52.191026471203415 23.863402873984892 22.00353193432113 0 0 0
3668 9009 1 -0.8 54.62227148641563 24.09763050808438 21.156970778687466 0 0 0
3669 9043 1 -0.8 54.73739400316853 26.028615897330173 17.939609169742884 0 0 0
4800 10259 3 1.6 52.052479525463774 27.37913722819004 21.87746521435937 0 0 0
3625 3496 1 -0.8 60.71238170688187 23.94595274540853 17.417479337158458 -1 0 0
3671 2861 3 1.6 55.98127252777579 25.042150066894884 18.115670661374985 0 0 0
3677 2862 3 1.6 58.4110940385009 26.631774024712534 17.152903235922857 0 0 0
3673 2863 3 1.6 56.00694017659828 24.918376706930374 21.152086678675442 0 0 0
3679 3559 1 -0.8 59.562090763106944 26.181441249674357 18.196876709432757 0 0 0
3678 3564 1 -0.8 59.49228219817048 24.830533920604356 21.639397243456294 0 0 0
3670 9511 1 -0.8 55.49504955549991 23.546868134276462 17.73042837915363 0 0 0
3676 9549 1 -0.8 57.197858851101024 25.565726962386556 17.18514318756696 0 0 0
3672 9550 1 -0.8 56.52131839076953 25.035945045202226 19.632955412486474 0 0 0
3674 9552 1 -0.8 55.88961944107568 26.40702173747709 21.76706672097474 0 0 0
3686 199 3 1.6 2.5007981080294885 29.573563607504713 18.41298494147363 0 0 0
3680 200 3 1.6 0.22794962186487258 30.85881167183027 16.721969883114813 0 0 0
3688 201 3 1.6 2.8258179399535925 29.458660261733666 21.410801788216897 0 0 0
4771 231 3 1.6 3.185223405783937 32.44918422557408 21.83919233935393 0 0 0
3685 3562 1 -0.8 3.133642840139489 28.106331994578692 18.127096194514106 0 0 0
3683 3617 1 -0.8 1.2512423860055908 29.82046957015515 17.424080779450524 0 0 0
3687 3618 1 -0.8 2.1021582015318763 29.60378547423876 19.97098315221105 0 0 0
3691 3619 1 -0.8 3.5434366152691004 30.77467527989615 18.120127041709804 0 0 0
3681 3620 1 -0.8 0.17011092104651046 32.25313552021439 17.544071913982844 0 0 0
3689 3622 1 -0.8 3.49119426722404 30.87465079755272 21.76956900446747 0 0 0
3690 3624 1 -0.8 3.9812246318355964 28.347851856748044 21.385419961567045 0 0 0
3684 3697 1 -0.8 1.6175106724127586 32.69453124288831 21.55702676764731 0 0 0
3693 517 3 1.6 4.772869692609572 31.03994574189584 17.11555764422991 0 0 0
4775 518 3 1.6 5.526920991350128 28.148473049449265 21.842680615775368 0 0 0
3692 3698 1 -0.8 4.097005930004496 33.25769556948907 20.788987392523413 0 0 0
3698 4931 1 -0.8 7.737768693781661 28.032319938388593 17.392342722729772 0 0 0
3694 4354 1 -0.8 5.611837846365263 32.36818837893873 17.491659930364186 0 0 0
3699 808 3 1.6 7.282892530887218 29.572486428378323 17.387608393456148 0 0 0
3701 809 3 1.6 7.504834231941854 30.02643349592849 20.389008910843174 0 0 0
3696 4355 1 -0.8 5.69382376438522 29.726854153034473 17.191530375673935 0 0 0
3695 4356 1 -0.8 6.392105864325777 28.87966498091406 20.70470137197497 0 0 0
3700 4965 1 -0.8 7.598633376566482 30.280004088659865 18.803873145526527 0 0 0
3707 4966 1 -0.8 8.708501842862516 32.65478130256867 17.00165491354784 0 0 0
3702 4967 1 -0.8 7.083939079728405 31.35987814492884 21.204514239814152 0 0 0
3703 4968 1 -0.8 8.845600555776608 29.35245116901317 20.91515567002775 0 0 0
4785 9921 3 1.6 9.110803036413207 27.856593806867092 21.371822634585527 0 0 0
3708 10020 1 -0.8 10.248505793069157 30.576890620252623 17.066595648910518 0 0 0
3709 10020 2 0.4 8.32299672063427 31.244994341548097 16.53293685898233 0 0 0
3765 5010 1 -0.8 9.16166357406376 33.23231822247628 19.54413629202214 0 0 0
3768 9957 1 -0.8 11.069887136178892 33.47391106505581 17.6976687112479 0 0 0
3717 9042 1 -0.8 53.60734587545144 27.928108975903992 16.643606140685705 0 0 0
3711 10258 1 -0.8 50.45600112469021 31.687475465268147 16.58291820427498 0 0 0
3710 10258 2 0.4 51.40485285697684 32.00943061300774 16.60454774741945 0 0 0
3718 2578 3 1.6 53.73020197698112 29.287897209772254 17.48924486990544 0 0 0
3720 2579 3 1.6 53.94151872765465 29.211127766395677 20.520896486212543 0 0 0
4806 2593 3 1.6 53.74552631401331 32.142940432084515 21.56882869239287 0 0 0
3713 8454 1 -0.8 52.599804915302826 32.574208524448586 16.69308039561587 0 0 0
3715 8455 1 -0.8 52.3565868018222 30.104003055665373 17.508598661818137 0 0 0
3714 8456 1 -0.8 52.98744645107226 27.94378934546895 20.72637745901612 0 0 0
3716 8496 1 -0.8 52.48384054353808 33.149213459249374 21.58529142443974 0 0 0
3723 9060 1 -0.8 54.7706274313416 30.276590083437494 16.717855982760128 0 0 0
3719 9061 1 -0.8 54.370035717066195 29.145597418544455 18.9661187668895 0 0 0
3721 9062 1 -0.8 53.40400246485809 30.705911682200917 20.888680592713353 0 0 0
3722 9063 1 -0.8 55.19897943292652 28.966030080392503 21.514749260360425 0 0 0
3724 9091 1 -0.8 54.9562008100213 32.895931321432556 20.770376266392148 0 0 0
3789 8492 1 -0.8 52.37834977601179 33.47810164788156 19.09955188419164 0 0 0
3731 2884 3 1.6 58.406744713372994 29.634023456218888 17.808109910875523 0 0 0
3725 2885 3 1.6 56.028025821980734 31.268774735140013 16.754124845674106 0 0 0
3733 2886 3 1.6 58.73720977748434 29.44128933598977 20.836449475918528 0 0 0
4810 2887 3 1.6 56.363854754716044 27.94349746901809 21.927984900644763 0 0 0
4816 2916 3 1.6 58.630349235709694 32.406606063900576 21.740090915565283 0 0 0
3736 3621 1 -0.8 59.501764939899196 30.14048299499146 16.728634296265533 0 0 0
3735 3625 1 -0.8 59.95656470762502 28.987586458139607 21.807035507819222 0 0 0
3737 3700 1 -0.8 59.83573733904229 32.939958267126215 20.79097771125679 0 0 0
3730 9551 1 -0.8 57.905933210830774 28.130972141500518 17.488371725334336 0 0 0
3728 9584 1 -0.8 57.164936639868266 30.66515668914307 17.74891686314824 0 0 0
3732 9585 1 -0.8 59.11169651990445 29.605055570973853 19.271707963883912 0 0 0
3726 9586 1 -0.8 55.67448690033494 32.77262702871116 17.233334559681566 0 0 0
3734 9587 1 -0.8 58.202254016242335 30.898750886679426 21.32550071823494 0 0 0
3727 9588 1 -0.8 57.61593636294489 28.287950484481563 20.962889813926907 0 0 0
3729 9632 1 -0.8 57.378437200109744 33.42875060276552 21.631035781335978 0 0 0
3738 229 3 1.6 0.6608830737671494 33.77713839678863 17.786067380678983 0 0 0
3744 230 3 1.6 3.1184156139899404 35.21514935960865 16.689392570379205 0 0 0
3740 232 3 1.6 0.5728501380416526 33.65521283744064 20.802270864047458 0 0 0
3746 259 3 1.6 3.015576186129992 38.34203256091501 17.129952396595584 0 0 0
3748 261 3 1.6 2.4611914059002347 38.567159240536334 20.213223083806767 0 0 0
4820 262 3 1.6 0.3666126428499522 36.70775402379607 21.50132241079331 0 0 0
3742 3693 1 -0.8 1.8234109670197238 34.24326512232041 16.76544765759241 0 0 0
3739 3694 1 -0.8 1.1460615189750396 33.885280825328195 19.314616924766153 0 0 0
3745 3695 1 -0.8 2.7315470195096734 36.74838973383162 17.062686545321363 0 0 0
3749 3696 1 -0.8 4.206846841109892 34.60359959492143 17.701311902252 0 0 0
3741 3701 1 -0.8 0.4553898583498909 35.090200847122674 21.54107064319918 0 0 0
3747 3768 1 -0.8 2.6884447972439705 38.82781305523935 18.63843406883525 0 0 0
3743 3773 1 -0.8 1.4583279703896876 37.328428330832644 20.479792570199198 0 0 0
3750 3774 1 -0.8 3.891342371379059 38.24932829374184 20.870733752528032 0 0 0
3753 534 3 1.6 5.364949688375434 34.269931485333714 20.74884530408755 0 0 0
4828 548 3 1.6 5.140639332242496 37.31934889019161 21.290103087387145 0 0 0
3754 4388 1 -0.8 4.809109047928172 35.76683281933277 20.996916872115158 0 0 0
3825 3769 1 -0.8 4.51530751786105 38.72904668090008 16.698626622813475 0 0 0
3770 9957 2 0.4 8.771846753448026 33.51545937264387 17.442524467243224 0 0 0
3751 533 3 1.6 5.68907323189836 33.94651070097333 17.81016480490372 0 0 0
3697 4387 1 -0.8 6.375114456577136 33.80405903609321 21.89422873345743 0 0 0
3757 822 3 1.6 7.9709302860957125 35.66726121879526 16.755258505916135 0 0 0
3759 840 3 1.6 7.876823337160753 38.81721967788184 17.152748811868545 0 0 0
3761 841 3 1.6 7.629367895170843 38.79379329798891 20.130009929770168 0 0 0
3755 4385 1 -0.8 6.631218649633455 34.76716543650413 16.812292711377655 0 0 0
3752 4386 1 -0.8 6.127008869788145 34.1692991709148 19.3365242585223 0 0 0
3756 4416 1 -0.8 6.416458554286065 37.768618243455236 20.431780866004523 0 0 0
3762 5009 1 -0.8 8.976687740236736 34.99469968638512 17.771916053008244 0 0 0
3758 5011 1 -0.8 7.675874738507717 37.2106206828207 17.135857547232767 0 0 0
3767 5014 1 -0.8 8.874426759987252 35.460538103111716 20.992046774022004 0 0 0
3763 5060 1 -0.8 8.971511429122748 37.9618689731118 20.323540425736947 0 0 0
3766 9953 3 1.6 9.468356276727764 33.99592582772089 20.918615406631805 0 0 0
3764 9957 3 1.6 9.531749763199471 33.53885070883956 18.03183593049403 0 0 0
4836 10039 3 1.6 9.344492322123887 36.908887397273965 21.45445724986438 0 0 0
3771 9953 2 0.4 10.023097436101637 34.56614380842099 20.987621485209814 0 0 0
3769 9953 1 -0.8 10.975094764053168 34.3164901262509 21.0339682023928 0 0 0
4840 10039 1 -0.8 10.793246411638615 37.13341664642337 21.96627561094566 0 0 0
3776 10240 1 -0.8 48.556654513794406 35.78211611618447 18.27943147751153 0 0 0
3773 10240 2 0.4 49.44837321702987 36.162755676597484 18.048827840282726 0 0 0
3777 10247 1 -0.8 48.76651568341375 38.41585461527247 16.77547548918549 0 0 0
3784 10248 3 1.6 49.11712408952518 38.65014081278105 20.25744420763077 0 0 0
3778 10248 1 -0.8 47.75362224844802 38.479122855905004 19.545183930904535 0 0 0
3775 10248 2 0.4 48.72907474787855 38.61146282380583 19.52937768125154 0 0 0
3794 2592 3 1.6 54.03522547088781 35.95086589382733 16.494105170544252 0 0 0
3780 10240 3 1.6 49.79995324320958 35.60765976066917 17.377606512691617 0 0 0
3781 8494 1 -0.8 50.585167425948654 36.873816593247675 17.88245574811005 0 0 0
3782 10247 3 1.6 50.07846806901953 38.333757432175744 17.633665944115172 0 0 0
3774 10247 2 0.4 50.9213057248639 38.20191719287424 17.280212108631698 0 0 0
3785 10270 1 -0.8 50.18530976433773 33.97131699364496 20.56788453593155 0 0 0
3779 10270 2 0.4 50.98092715202978 34.575377137430515 20.528852284110087 0 0 0
3788 2317 3 1.6 52.10374620545091 33.82555260600607 17.54906321617199 0 0 0
4850 2328 3 1.6 51.03388225122976 36.70918854923171 21.428008275675367 0 0 0
3796 2608 3 1.6 54.10570506771377 38.719820067453675 17.752665863425854 0 0 0
3798 2609 3 1.6 53.38103873525303 38.53330443983786 20.728010378272003 0 0 0
3786 8491 1 -0.8 50.581432041139465 34.26131194602896 17.577136111486645 0 0 0
3792 8493 1 -0.8 52.90526210783593 35.17876772982075 17.27781830651987 0 0 0
3791 8495 1 -0.8 51.85508245927334 35.5659680283428 20.65079159088319 0 0 0
3787 8545 1 -0.8 49.66421899242443 37.256678956343826 20.81501424811046 0 0 0
3793 8546 1 -0.8 52.032111027949604 37.98094053012466 21.381634700193313 0 0 0
3795 9089 1 -0.8 54.032920382910305 37.55801750240669 16.648820112498232 0 0 0
3797 9121 1 -0.8 53.580199847708364 38.15998173929805 19.169381562980323 0 0 0
3800 9123 1 -0.8 54.640570572693186 37.93117113234046 21.565507133864422 0 0 0
3790 10270 3 1.6 51.73431551908868 33.99961349446055 20.456444788561434 0 0 0
3872 8540 1 -0.8 51.224334243669155 38.9752347591784 16.787205805652565 0 0 0
3799 9090 1 -0.8 55.400334069370224 35.46812453734257 17.310706659193343 0 0 0
3801 2914 3 1.6 56.32128747673275 34.19476184660877 17.64463048794845 0 0 0
3807 2915 3 1.6 58.99503632316554 35.305512825198875 16.632833840887166 0 0 0
3803 2917 3 1.6 56.13729663548369 33.999494231906105 20.75419579603819 0 0 0
3809 2944 3 1.6 58.939558855968436 38.38695292048103 17.343996779012272 0 0 0
3811 2946 3 1.6 58.51407837654598 38.25035756496365 20.480565039395632 0 0 0
4858 2947 3 1.6 55.96595558345963 37.00319104133391 21.67960744486597 0 0 0
3812 3692 1 -0.8 60.14648681805826 34.79479453151205 17.625181219944572 0 0 0
3813 3775 1 -0.8 59.61969694864012 37.180783024353246 21.00301292586712 0 0 0
3805 9629 1 -0.8 57.70394244377566 34.360422389100776 16.815700526180727 0 0 0
3802 9630 1 -0.8 56.6563053022565 34.197551234177354 19.23232107287665 0 0 0
3808 9631 1 -0.8 58.64615405724805 36.838408733527835 16.999074422682895 0 0 0
3804 9634 1 -0.8 55.652589449991744 35.43955300531692 21.347144711601683 0 0 0
3810 9675 1 -0.8 58.77396638220013 38.638648063300025 18.934243111422166 0 0 0
3806 9678 1 -0.8 57.06078781639249 37.56777470221348 20.634736543005584 0 0 0
3900 3771 1 -0.8 60.42301035113995 38.859071111944566 16.938029158896168 0 0 0
3816 286 3 1.6 0.562146714430872 42.88066133603163 17.540240720666038 0 0 0
4868 287 3 1.6 2.3351186317251003 41.36531607821669 21.43308849403768 0 0 0
3818 288 3 1.6 0.008980156968236641 42.979614507562395 20.590262274507648 0 0 0
3815 3770 1 -0.8 0.8005649222277033 41.297070057178175 17.275913767400073 0 0 0
3823 3772 1 -0.8 1.8832935232113235 39.90609223963739 20.912054521822753 0 0 0
3822 3835 1 -0.8 1.6539431991911717 43.782152732131216 16.743163237237667 0 0 0
3817 3836 1 -0.8 0.6619275243168258 43.1790400383058 19.124250963617122 0 0 0
3821 3837 1 -0.8 1.0312898898862037 42.279222093386544 21.616755993188434 0 0 0
3826 3838 1 -0.8 3.2266251127727963 42.12456831212373 20.325345115025524 0 0 0
3830 563 3 1.6 5.369970616157392 42.858511644163976 17.279620077632185 0 0 0
3832 564 3 1.6 4.669512131781387 42.820446530075245 20.2825627942932 0 0 0
3829 4414 1 -0.8 5.216496561266006 41.25534374780066 17.148774051978567 0 0 0
3831 4446 1 -0.8 5.0586001068254705 43.298331748907316 18.797678840139195 0 0 0
3833 4447 1 -0.8 4.775729038959448 44.10933199727214 21.250571533687445 0 0 0
3760 5057 1 -0.8 7.471109024568505 39.32901389936156 18.626493453136536 0 0 0
3844 856 3 1.6 10.614951473023732 42.65463228865399 16.90197103464116 0 0 0
4876 857 3 1.6 7.23448483449715 41.6106788737466 21.153884131378128 0 0 0
3846 858 3 1.6 9.505274724073349 42.79924801923515 19.835394430197688 0 0 0
3836 4445 1 -0.8 6.8377116323226526 43.36160613939252 16.817790556435565 0 0 0
3835 4448 1 -0.8 5.669087512392161 41.69866248500961 20.825248839202764 0 0 0
3839 5056 1 -0.8 9.345136416860832 39.33375061487276 16.82210243870134 0 0 0
3837 5059 1 -0.8 7.618272061095769 40.05276452814405 21.117021061656825 0 0 0
3845 5102 1 -0.8 10.137492706923858 42.326401063620715 18.429347354731583 0 0 0
3840 5104 1 -0.8 7.925625279491782 42.48340129566558 19.972322104088168 0 0 0
3847 5106 1 -0.8 9.781775725145469 44.35714260596144 20.063113231241932 0 0 0
3848 5107 1 -0.8 9.992838725693732 41.98059142984423 21.107847287523008 0 0 0
3849 5103 1 -0.8 11.822816460838405 43.72722286253064 16.90536330960186 0 0 0
3853 10279 1 -0.8 12.027559817084091 43.05986765637826 21.291092821390453 0 0 0
3855 10279 2 0.4 11.086718251762946 42.75483719248902 21.317306898591273 0 0 0
3857 10207 1 -0.8 43.85396930016051 43.88904680072726 16.661506463984175 0 0 0
3859 10208 2 0.4 46.83903584036087 44.62714046381179 21.565812849194092 0 0 0
4902 2345 3 1.6 49.01254511529756 41.44094713178815 21.532816519257576 0 0 0
3869 7925 1 -0.8 47.43851045766227 43.50136709354911 17.107779301243724 0 0 0
3865 7926 1 -0.8 47.343810042280836 44.18998763171599 19.586892040291104 0 0 0
3868 7928 1 -0.8 47.65817419688865 42.30441520892231 21.449114574820257 0 0 0
3870 8544 1 -0.8 49.005138561185774 39.84342659786383 21.325863484776683 0 0 0
3864 9930 3 1.6 46.47542654953879 43.82727099832032 18.324974866472743 0 0 0
3862 9930 1 -0.8 45.58381379790257 42.60620319081006 18.761376236195904 0 0 0
3860 9930 2 0.4 46.81331407607131 44.43973445334049 18.82202842853008 0 0 0
3866 10208 3 1.6 47.08480891920465 43.75314966667545 21.106026006965926 0 0 0
3861 10208 1 -0.8 45.58832015399499 43.91473482498815 21.561911623333884 0 0 0
3783 8541 1 -0.8 50.03561750702923 39.058335498385595 19.04281223221893 0 0 0
3875 2327 3 1.6 51.93758677783952 40.38584521998439 16.65393983553202 0 0 0
3877 2344 3 1.6 51.23323026303637 43.18583784036933 17.6277045053677 0 0 0
3879 2346 3 1.6 51.15677979604105 43.172238544905866 20.581072380256384 0 0 0
4910 2619 3 1.6 53.56177929226714 41.61188918375949 21.455969184673027 0 0 0
3885 2631 3 1.6 53.79186091519366 44.38156454828644 16.50033350023768 0 0 0
3876 8542 1 -0.8 51.113539768813254 41.60056557480381 17.326288755402413 0 0 0
3881 8543 1 -0.8 53.3260350074453 40.091437862782804 17.398461683093437 0 0 0
3874 8596 1 -0.8 49.8667010737048 44.0256219649291 17.538568479607143 0 0 0
3878 8597 1 -0.8 51.80394121416626 43.379053790735725 19.124113582604714 0 0 0
3883 8598 1 -0.8 52.301054291151274 43.81194707986026 16.59789044120163 0 0 0
3873 8599 1 -0.8 49.97240188662073 42.11526530269092 20.445603481823035 0 0 0
3880 8601 1 -0.8 50.62782714296432 44.58507440112587 21.133196707017643 0 0 0
3882 8602 1 -0.8 52.24987880630814 42.53057205475696 21.567416052610014 0 0 0
3884 9122 1 -0.8 53.29604982909328 40.14626105121143 20.854132085944208 0 0 0
3887 9143 1 -0.8 54.55093783739929 42.35198060316099 20.43345521209932 0 0 0
3888 9167 1 -0.8 54.84821718408373 43.2320215756214 16.896916424919347 0 0 0
3819 3840 1 -0.8 60.370602289707755 44.427937972641 21.174532621261026 -1 0 0
3886 9120 1 -0.8 55.6525897237499 39.206748294931394 17.751635761099806 0 0 0
3889 2945 3 1.6 56.52961213899522 40.075493689555344 16.713207010246553 0 0 0
3891 2971 3 1.6 56.34406894348552 43.05277951505259 17.46102854191061 0 0 0
4918 2972 3 1.6 58.43436831642146 41.22645418122076 21.444243983838096 0 0 0
3893 2973 3 1.6 56.03928145701497 42.92008515491793 20.4813403998764 0 0 0
3899 2994 3 1.6 58.82936049391874 44.524916265526635 16.55017124305483 0 0 0
3902 3834 1 -0.8 59.810594994324724 43.331523585602014 17.032595975233704 0 0 0
3901 3841 1 -0.8 59.46283756238369 41.996981661572356 20.469971549808598 0 0 0
3890 9676 1 -0.8 56.8209346982848 41.52344637153846 17.344946121064183 0 0 0
3898 9677 1 -0.8 58.601429248319185 39.618413498332615 21.350139789516206 0 0 0
3897 9714 1 -0.8 57.312523047057496 43.992487227998765 16.58160817578582 0 0 0
3892 9715 1 -0.8 56.458202308262734 43.45952155811215 19.021046158996196 0 0 0
3896 9716 1 -0.8 56.966281614321325 41.69714185089326 20.98715990184707 0 0 0
3894 9718 1 -0.8 56.065953325961246 44.14736908452486 21.520467752824313 0 0 0
3907 310 3 1.6 3.0339623493349386 47.43278902268587 17.542771374676096 0 0 0
3909 311 3 1.6 2.8132758533301265 47.177460807678735 20.560386710642824 0 0 0
4924 312 3 1.6 0.25958884554558176 45.892846098284075 21.439201715811038 0 0 0
3903 339 3 1.6 0.577476470057908 48.932505824841186 16.544471515189684 0 0 0
3906 3892 1 -0.8 3.2563321895129143 45.84582642347064 17.29482442761183 0 0 0
3905 3894 1 -0.8 1.8792996369547263 47.974262962385914 16.553082735314046 0 0 0
3908 3895 1 -0.8 2.51238446522681 47.66715210819729 19.05497986547164 0 0 0
3912 3896 1 -0.8 4.4148130340322105 48.24597804458441 17.290365738163192 0 0 0
3910 3897 1 -0.8 2.641754939460452 48.408890616146415 21.597805957014934 0 0 0
3904 3898 1 -0.8 1.8000727596090937 45.99739276677042 20.991876278762845 0 0 0
3911 3899 1 -0.8 4.3139066696271815 46.6062895897439 20.56257380461875 0 0 0
3999 3967 1 -0.8 0.9071876869251505 50.26668575164818 17.398584752162666 0 0 0
4933 574 3 1.6 5.25937991454636 45.63700577975122 21.43116071155765 0 0 0
5023 341 3 1.6 2.9229436954453694 49.99525184571239 21.728176763481816 0 0 0
3917 880 3 1.6 7.954161179821608 47.15269216113138 17.378045714536487 0 0 0
3919 881 3 1.6 7.672148487101079 47.135906197792806 20.425414470318696 0 0 0
4942 882 3 1.6 10.132972461040652 45.55711784008386 21.069077213433868 0 0 0
3923 909 3 1.6 10.613579733466397 48.59472441271792 16.494308603444704 0 0 0
5033 911 3 1.6 7.806765784608007 49.960629505143544 21.69723539255649 0 0 0
3914 4468 1 -0.8 6.785219146308339 45.90173199784831 20.98458479282256 0 0 0
4012 4491 1 -0.8 6.272876719632553 50.14101958038394 16.942479576152085 0 0 0
3916 5147 1 -0.8 8.287763935722992 45.590255754807075 17.12293730101311 0 0 0
3922 5148 1 -0.8 9.265916065633233 48.09330088044019 17.244185015708172 0 0 0
3918 5149 1 -0.8 7.341884025180673 47.34235257705549 18.862507651675145 0 0 0
3920 5150 1 -0.8 7.337970715454993 48.47781944065879 21.258160726800647 0 0 0
3921 5151 1 -0.8 9.238912435218314 46.818509348675214 20.569378895593665 0 0 0
4025 5204 1 -0.8 11.077854814214666 50.047289816108204 17.048500378518344 0 0 0
4022 5209 1 -0.8 9.374251762156662 50.17519583812017 21.380016317440525 0 0 0
3927 1110 3 1.6 13.154608251849297 47.190518871469514 17.554405305216214 0 0 0
3929 1111 3 1.6 12.915219473166843 46.92156766680051 20.720798145649287 0 0 0
3933 1129 3 1.6 15.211717771952344 49.28203418147028 16.371129957849146 0 0 0
5043 1131 3 1.6 12.925801494035126 49.882974429750426 21.783712311624033 0 0 0
3924 5152 1 -0.8 11.672606556347398 45.97773323679048 21.074797072533084 0 0 0
3925 5205 1 -0.8 11.780775168610234 47.53050643528194 16.75925828580057 0 0 0
3926 5640 1 -0.8 13.564323731945453 45.72795444740949 17.013335735501744 0 0 0
3932 5641 1 -0.8 14.22278168899155 48.35298076652873 17.22687460023359 0 0 0
3928 5642 1 -0.8 12.847603709101337 47.26355316857718 19.1413096553509 0 0 0
3930 5643 1 -0.8 12.812724451460609 48.290405914555976 21.590141357925464 0 0 0
3931 5644 1 -0.8 14.309094640092976 46.267024831110064 21.097945277511997 0 0 0
3934 5645 1 -0.8 15.86883792413035 48.26341511045387 21.019240416412607 0 0 0
3944 10083 2 0.4 16.413776306964838 47.72472649953914 20.016553942661705 0 0 0
4951 9965 3 1.6 15.556688325951708 46.91508294809173 21.815787486264156 0 0 0
3935 5695 1 -0.8 16.708234191113768 48.75829713269659 16.519316576007068 0 0 0
3937 5965 1 -0.8 16.916153214958776 49.64120403580708 18.858860361018777 0 0 0
3939 5966 1 -0.8 18.255835096886887 48.954881957369714 20.910918556660587 0 0 0
3936 9987 3 1.6 17.729310516544068 49.45080195003046 17.50934176427966 0 0 0
3941 9987 1 -0.8 18.85240453432973 48.648951980314614 18.230393301545522 0 0 0
3940 9987 2 0.4 17.987945030781713 49.148202935698805 18.435819088794645 0 0 0
3938 10083 3 1.6 17.04610880623153 48.499726405483216 19.972409552773104 0 0 0
3942 10083 1 -0.8 16.77238453186028 47.13308658224406 19.274050598503973 0 0 0
4956 9965 1 -0.8 16.830336300046145 46.00117978842822 21.928442447347727 0 0 0
4969 9908 1 -0.8 29.18421479134372 50.17232643929134 20.26307486314608 0 0 0
2874 9982 2 0.4 40.54923965713283 48.89262612983432 16.62370665350646 0 0 0
3963 1947 3 1.6 43.725857004507645 47.95987901333253 17.461591404752657 0 0 0
5103 1957 3 1.6 43.663891023012 50.05204474375675 21.284025838647157 0 0 0
3962 7587 1 -0.8 43.58337021557079 46.47694312913467 16.936161427513344 0 0 0
3960 7589 1 -0.8 42.33621836956505 48.66868863876159 17.778366637987578 0 0 0
3958 9982 3 1.6 41.068903528652754 49.19943902021836 16.94737683008933 0 0 0
3957 9982 1 -0.8 39.9871503517957 48.114343778529154 16.797593578437194 0 0 0
3961 10217 1 -0.8 43.35137748850633 46.433801934243185 19.675942951234955 0 0 0
3959 10217 2 0.4 44.002498416223155 47.09109353107488 19.26183034609609 0 0 0
3966 7592 1 -0.8 44.1070906356332 48.50742541480442 21.123604531258778 0 0 0
3858 10207 3 1.6 44.59293077305852 45.267268180766855 16.825605013261487 0 0 0
3856 10207 2 0.4 45.60249459285852 45.449020011537236 16.565913184288743 0 0 0
3863 7588 1 -0.8 45.70362961900146 45.15247620105796 17.945543577596148 0 0 0
3964 7590 1 -0.8 44.74813010466226 47.977810640311866 18.699067345901916 0 0 0
3965 10217 3 1.6 44.54643461720083 47.324306042131006 20.117300113712453 0 0 0
3973 2365 3 1.6 48.22879664453431 47.301528840214466 17.202183251365327 0 0 0
3975 2366 3 1.6 48.80060191336577 47.7778205790272 20.118451394503047 0 0 0
3967 7593 1 -0.8 45.79928179848357 46.512090794674876 20.650801892618965 0 0 0
3970 7948 1 -0.8 47.96729072664492 47.49039404476597 21.464717942741444 0 0 0
3971 7972 1 -0.8 47.0242572408026 48.19587639908867 16.620441378712698 0 0 0
3972 8642 1 -0.8 48.299750219310134 45.87274076520397 16.487526727626086 0 0 0
3974 8644 1 -0.8 48.10227162614945 47.17504956174736 18.802051269574637 0 0 0
3976 8645 1 -0.8 48.923128381951294 49.38597424955595 20.002466366687308 0 0 0
3867 7927 1 -0.8 47.660214569145516 45.00084951835529 21.900311757819644 0 0 0
4992 2089 3 1.6 46.86054216886464 46.38452920807276 21.84480193282267 0 0 0
5001 2367 3 1.6 51.113201636816775 46.11207368370612 21.219253119497264 0 0 0
3979 2394 3 1.6 51.15574691977079 48.587442358006605 16.642964331744956 0 0 0
3983 2632 3 1.6 53.68022807282034 47.196565519172 17.470254070921243 0 0 0
3985 2633 3 1.6 53.808309963870364 47.26742657291364 20.469167566949334 0 0 0
5123 2649 3 1.6 53.46274282802725 50.089958651412736 21.746577570284867 0 0 0
3978 8643 1 -0.8 49.63717707191445 48.11038920539606 16.92384111676557 0 0 0
3977 8646 1 -0.8 50.246601235703935 47.0839753078074 20.27421296115874 0 0 0
3980 8647 1 -0.8 52.650326328241206 46.181463602612325 20.725445036380354 0 0 0
4127 8699 1 -0.8 51.631404609207394 49.80623450490863 17.60719176568585 0 0 0
3981 8700 1 -0.8 52.20317359047997 47.387926279936636 16.856884796354997 0 0 0
3982 9166 1 -0.8 53.99766333112425 45.6205337171731 17.51448070650696 0 0 0
3984 9169 1 -0.8 53.72033799407589 47.80639481015398 18.95761390086528 0 0 0
3986 9170 1 -0.8 53.620184447722046 48.4965699325118 21.5045103047288 0 0 0
3988 9168 1 -0.8 54.78554077521454 47.94033051204311 16.558575044501048 0 0 0
3987 9171 1 -0.8 55.23070246125257 46.534326060604435 20.637081187029498 0 0 0
3993 2995 3 1.6 58.66150574084761 47.40220649271158 17.59226631544924 0 0 0
3995 2996 3 1.6 58.5927241151565 47.34509117484606 20.576256570552182 0 0 0
5010 2997 3 1.6 56.27173375022521 45.74029966399832 21.568528961467948 0 0 0
5133 3026 3 1.6 58.54514361404098 50.11233150229862 21.633615565009826 0 0 0
3997 3900 1 -0.8 60.1484587388869 46.9692624479089 20.59229663043017 0 0 0
3998 3968 1 -0.8 60.022547025780185 48.18653799994671 17.20473548013666 0 0 0
3992 9749 1 -0.8 58.94982198919807 45.81105607816256 17.518867936780698 0 0 0
3991 9750 1 -0.8 57.445284485162084 47.8193251686366 16.620632889371038 0 0 0
3994 9751 1 -0.8 58.20831312382618 47.78695164402482 19.085940294658574 0 0 0
3996 9752 1 -0.8 58.29070388849281 48.53002972025996 21.608452327184114 0 0 0
3990 9753 1 -0.8 57.7454450697642 46.06543334649826 21.030480371889098 0 0 0
4140 9794 1 -0.8 56.15080773429545 49.9980102397284 17.477363293390745 0 0 0
4000 340 3 1.6 0.7386648083751403 51.83496880873592 17.750034531125944 0 0 0
4002 342 3 1.6 0.443505762815527 51.473350284136586 20.738821221360325 0 0 0
4007 369 3 1.6 3.3466194842019172 53.21366153897481 16.756503249378426 0 0 0
5019 372 3 1.6 0.4619900792392239 54.30119344557474 21.872626583653563 0 0 0
4005 3970 1 -0.8 2.178820219451543 52.553691969165634 17.64830001964504 0 0 0
4001 3971 1 -0.8 0.1759908120053572 52.01918720259763 19.249701172360464 0 0 0
4004 3972 1 -0.8 1.9095597917293727 50.80191950734255 20.769870216564865 0 0 0
4009 3973 1 -0.8 4.448800088719027 50.258972293993764 21.294169915473752 0 0 0
4003 3975 1 -0.8 0.35335766087351456 52.69177440143756 21.792873712327374 0 0 0
4008 4042 1 -0.8 3.7897268716996324 54.60928595045286 17.45349712581201 0 0 0
4010 4043 1 -0.8 4.631770054178524 52.235169872975504 16.64157891758897 0 0 0
4006 4048 1 -0.8 1.937467094682918 54.73637400358858 21.363335973705993 0 0 0
4011 4049 1 -0.8 4.508379469973997 55.39987720314577 21.13836061652583 0 0 0
4014 4494 1 -0.8 5.149862513319449 51.25940183870883 18.97324943784894 0 0 0
4015 588 3 1.6 5.375946782270428 51.342272337620464 20.55390269286598 0 0 0
4016 4495 1 -0.8 4.94121110651422 52.812267735589785 21.035572727290436 0 0 0
4013 587 3 1.6 5.792257364458309 51.55555722512166 17.53417619605131 0 0 0
5029 604 3 1.6 5.446510008291748 54.20026934155233 21.66282508475716 0 0 0
4026 910 3 1.6 10.65760018900681 51.49303982847141 17.633745442772753 0 0 0
4028 912 3 1.6 10.420453422549324 51.175055922218874 20.659170414037465 0 0 0
4020 939 3 1.6 8.275314702969172 53.16838808085891 16.771417661429815 0 0 0
5039 942 3 1.6 10.509003553692194 54.20981572467736 21.64360328506952 0 0 0
4018 4493 1 -0.8 7.052262957295204 52.55675497208212 17.630151072291422 0 0 0
4017 4496 1 -0.8 6.924621092144093 51.045875401323826 20.887626772857484 0 0 0
4019 4528 1 -0.8 6.965865317553144 54.47509987482491 21.201829576757586 0 0 0
4023 5206 1 -0.8 9.511238187495723 52.134534355231494 16.700617271269145 0 0 0
4027 5208 1 -0.8 10.023053497911528 51.3212110633698 19.106516861667945 0 0 0
4029 5211 1 -0.8 10.34879336657276 52.62399373699433 21.376590095639294 0 0 0
4021 5267 1 -0.8 8.767513612984194 54.541525891528046 17.447601726949117 0 0 0
4024 5271 1 -0.8 9.48840967248611 55.057172417207155 20.73602655893911 0 0 0
4178 941 3 1.6 7.985033959288111 55.634641820886294 20.743871654719044 0 0 0
4038 5694 1 -0.8 15.21015907728483 50.820937254871076 16.91864736708131 0 0 0
4039 1130 3 1.6 15.478912626870938 52.06786289276739 17.91732253242716 0 0 0
4041 1132 3 1.6 15.437311219762517 51.51886968664638 20.999673710681257 0 0 0
4033 1159 3 1.6 12.951996568815852 53.456652010900626 16.905360392247747 0 0 0
4031 5207 1 -0.8 11.92336581014669 52.50465980670367 17.72116910141092 0 0 0
4030 5212 1 -0.8 11.921444477542575 50.59629468316145 20.736841935763003 0 0 0
4032 5272 1 -0.8 12.015454740495358 54.70027005096077 21.33068547074577 0 0 0
4036 5696 1 -0.8 14.464750202147274 53.23309701842138 17.409343134164892 0 0 0
4040 5698 1 -0.8 15.074058418451372 51.71810402402984 19.437786086752894 0 0 0
4035 5699 1 -0.8 14.419504996627653 50.439331732318614 21.61370572279596 0 0 0
4042 5701 1 -0.8 15.12537008109364 52.91912747688575 21.750625383330366 0 0 0
4034 5757 1 -0.8 12.609778946273956 55.02128124335608 17.11601471034145 0 0 0
4037 5761 1 -0.8 14.505979777663574 55.27332021512395 20.75797383077292 0 0 0
5049 1162 3 1.6 15.459959035919582 54.485675429164125 21.78675965851995 0 0 0
3943 5964 1 -0.8 18.400486266705375 50.671962308141985 16.740439363762317 0 0 0
4051 6260 1 -0.8 20.873570789010568 50.8156702277881 17.139615607521886 0 0 0
4046 1276 3 1.6 18.206467068759792 53.416617834124736 17.11544022025339 0 0 0
4052 1383 3 1.6 20.815178039532046 52.02293310992262 18.18895627495577 0 0 0
4054 1384 3 1.6 20.810899206259336 51.56209073806035 21.202875642641974 0 0 0
4044 5697 1 -0.8 16.987424875104377 52.65053703140447 17.868715767422763 0 0 0
4043 5702 1 -0.8 17.00813013869552 51.20503576593924 21.235285424722143 0 0 0
4049 6006 1 -0.8 19.680726619520723 53.093413979587666 17.71606525094366 0 0 0
4047 6007 1 -0.8 17.9001201305531 54.99669121053293 17.337643490453324 0 0 0
4050 6011 1 -0.8 19.586723729056754 55.13735756338105 21.007678812137097 0 0 0
4053 6262 1 -0.8 20.40105363382715 51.52144065475493 19.650330574893648 0 0 0
4055 6266 1 -0.8 21.14290238818463 53.1003544131349 21.623937726656884 0 0 0
4045 5762 1 -0.8 17.004566804064712 54.71960338060179 21.394465824395535 0 0 0
3948 10129 1 -0.8 26.777619247991193 50.63642615700268 18.29656778354514 0 0 0
3949 10129 2 0.4 26.809799777244315 51.62312539113678 18.247496632138727 0 0 0
4059 1399 3 1.6 23.494244653698978 53.005768041656815 17.16885717290628 0 0 0
4066 1482 3 1.6 25.761579909672513 52.10218204253856 21.391196253421644 0 0 0
5069 1489 3 1.6 26.07181246477352 55.06927820311361 21.84780563428902 0 0 0
4057 6261 1 -0.8 22.275100863840304 52.7063197937168 18.186928287397045 0 0 0
4056 6263 1 -0.8 22.175589501666906 50.74735900571787 21.437281813040457 0 0 0
4060 6314 1 -0.8 24.05291929643018 54.4752298512083 17.537579125074068 0 0 0
4062 6315 1 -0.8 24.72534910814777 51.99666480988995 17.35287212646255 0 0 0
4063 6321 1 -0.8 24.57166143506709 55.2887050727507 21.28853632144839 0 0 0
4069 6480 1 -0.8 27.110179480631 52.943462331206625 17.92585767085781 0 0 0
4065 6481 1 -0.8 25.383979874087185 52.249245098704804 19.83279684453217 0 0 0
4067 6482 1 -0.8 26.395729990086892 53.503286370358936 21.864447488709086 0 0 0
4068 6483 1 -0.8 26.963372909889628 51.049362830382904 21.47325914598168 0 0 0
4070 6503 1 -0.8 27.13886500935587 55.80661324701763 20.905180612853805 0 0 0
4064 10129 3 1.6 25.96181355430955 51.95082960859523 18.37299441359012 0 0 0
5073 9908 3 1.6 28.55948631388844 51.00850927346199 21.410569089469462 0 0 0
4968 9908 2 0.4 29.248471632093406 51.10856699404189 20.648289358353313 0 0 0
3951 10145 1 -0.8 31.680748181647893 50.58619338018636 18.57895345608717 0 0 0
3950 10145 2 0.4 31.441716497069145 51.51595257615656 18.837323369190454 0 0 0
4078 1582 3 1.6 30.91249122997349 52.432558101577904 20.900882079192602 0 0 0
4071 1594 3 1.6 28.428184666091003 52.88333309791421 17.003685930745753 0 0 0
4074 6716 1 -0.8 29.525626798864003 51.87724216643587 17.580796388526004 0 0 0
4081 6717 1 -0.8 31.993859877075003 52.52179706350814 16.914787305720722 0 0 0
4077 6718 1 -0.8 31.184573013542124 52.75328128123312 19.358561900945897 0 0 0
4073 6719 1 -0.8 29.316791036611153 52.334749650500555 20.994363144295246 0 0 0
4079 6721 1 -0.8 31.626962164029752 53.62038365223457 21.672563640832326 0 0 0
4080 6722 1 -0.8 31.695542748327327 51.147063817110144 21.406099680234163 0 0 0
4072 6762 1 -0.8 29.024955241373554 54.38660517480845 17.011257237813616 0 0 0
4075 6766 1 -0.8 29.538783175859535 55.211056427823635 21.844436310609538 0 0 0
4082 6767 1 -0.8 31.948349372179198 56.06769229152533 21.444842264243576 0 0 0
4076 10145 3 1.6 31.044998498773293 51.898026216347226 18.048434352613295 0 0 0
4237 6764 1 -0.8 29.194328210262945 55.681226525240774 19.231364700249674 0 0 0
5083 10158 3 1.6 33.176805716282814 50.83670698305594 21.865278023968386 0 0 0
4088 7207 1 -0.8 36.706347775733235 50.34569348355764 17.22672016497234 0 0 0
4083 1686 3 1.6 33.491150236759964 53.09636020260411 16.926784461606577 0 0 0
4089 1785 3 1.6 36.11481090622128 51.729672780580074 17.77623763692452 0 0 0
4091 1786 3 1.6 35.9397631657853 51.69398981718907 20.91294414093663 0 0 0
4096 1804 3 1.6 38.335571355582005 53.667079384015274 16.950215347357616 0 0 0
5089 1807 3 1.6 35.93159585581962 54.65474057035731 21.838792050939652 0 0 0
4085 6938 1 -0.8 34.36773526191166 51.32201585436414 20.897214809119475 0 0 0
4086 6961 1 -0.8 34.56004042496024 51.98333683318092 17.40210737912381 0 0 0
4084 6962 1 -0.8 33.532727167492475 54.354751994659466 17.950407808530283 0 0 0
4087 6966 1 -0.8 34.482860034104434 55.10524236598758 21.279331065101985 0 0 0
4094 7208 1 -0.8 36.98327070705294 52.83040406740856 16.983267333982315 0 0 0
4090 7209 1 -0.8 36.35738392025249 51.95729373632703 19.360429076622186 0 0 0
4093 7211 1 -0.8 37.05606756865894 50.67418169842754 21.519943202028895 0 0 0
4092 7213 1 -0.8 36.098111798179104 53.061948800506265 21.76779449763277 0 0 0
4097 7265 1 -0.8 38.33821554760283 54.68354307399913 18.193109773168818 0 0 0
4095 7271 1 -0.8 37.14897651566595 55.33344731144941 21.012633699030726 0 0 0
4101 7637 1 -0.8 40.49340302361179 50.47714673018651 17.669084868489662 0 0 0
4102 1956 3 1.6 40.916333314535684 52.005712016110365 17.63211532194138 0 0 0
4104 1958 3 1.6 41.10762564441904 51.59371214547806 20.591474528666296 0 0 0
4109 1979 3 1.6 43.41370324118237 53.36758655762707 16.524662458017286 0 0 0
5099 1982 3 1.6 41.250913319440585 54.26729762212 21.806931259533446 0 0 0
4098 7210 1 -0.8 39.54792517266871 51.22978065444002 20.709797882528942 0 0 0
4099 7264 1 -0.8 39.7416899616079 52.897794056641835 17.009891741489753 0 0 0
4100 7270 1 -0.8 39.686890444625476 54.611625421127286 21.57938097805147 0 0 0
4107 7638 1 -0.8 42.284584205816365 52.2637014459065 16.80934678884521 0 0 0
4103 7639 1 -0.8 41.271360531487645 52.35723685462296 19.171454986523344 0 0 0
4106 7640 1 -0.8 42.156675200265404 50.37345601593398 20.77731435777784 0 0 0
4105 7643 1 -0.8 41.46977594476972 52.687863120905455 21.717714046718065 0 0 0
4110 7694 1 -0.8 43.1459504045512 54.70829087277797 17.390472562292555 0 0 0
4108 7700 1 -0.8 42.14256296490698 55.00814654536954 20.673500016630765 0 0 0
5113 2396 3 1.6 48.794815324728674 50.66101019418542 20.979501244598076 0 0 0
4114 7971 1 -0.8 46.07208984121488 50.50430845261289 17.51233228248006 0 0 0
4115 2102 3 1.6 46.18022829810459 52.10520354516953 17.543456819261678 0 0 0
4117 2103 3 1.6 45.965372169672655 51.969219145493845 20.54250223674018 0 0 0
5109 2119 3 1.6 45.86787939811435 54.816133492805 21.536192251259866 0 0 0
4122 2424 3 1.6 49.058059619869034 52.93300847622236 16.795926291642736 0 0 0
4111 7641 1 -0.8 44.68222290318705 50.99710229179446 20.43034207002247 0 0 0
4112 7695 1 -0.8 44.891371874659114 52.793266959035584 16.85771291692884 0 0 0
4113 7701 1 -0.8 44.7565017266199 55.46147420101745 20.572354447493034 0 0 0
4120 7973 1 -0.8 47.52248403386097 52.47489388473547 16.733500414568393 0 0 0
4116 7974 1 -0.8 46.283243352623366 52.572204590289246 19.07873312959854 0 0 0
4118 7975 1 -0.8 45.68673912798894 53.21116288151401 21.534493810246143 0 0 0
4119 7976 1 -0.8 47.25821182257336 51.14630229783976 21.05648126739985 0 0 0
4121 8008 1 -0.8 47.35705050677166 55.17681740741978 21.032755332225044 0 0 0
4123 8762 1 -0.8 49.2094889240429 53.93048710099734 18.04798204162099 0 0 0
4296 2425 3 1.6 49.08260090584624 55.52568795083049 18.131537946731044 0 0 0
4124 8704 1 -0.8 49.79541966235875 51.81120586253221 20.473839211740966 0 0 0
4128 2395 3 1.6 51.57901111975592 51.41451231798943 17.517047201606196 0 0 0
4130 2397 3 1.6 51.39749934970802 51.99800808211869 20.46310003898364 0 0 0
5119 2427 3 1.6 51.46749406969821 54.77045083943197 21.866534125668423 0 0 0
4125 8701 1 -0.8 50.08931688889634 51.726433045277815 16.985872159043357 0 0 0
4133 8702 1 -0.8 52.717871080832566 52.01213748956076 16.545052099493997 0 0 0
4129 8703 1 -0.8 51.827801074517076 52.15628493773291 18.926994892569674 0 0 0
4131 8706 1 -0.8 51.78489288160122 53.25237471869562 21.404021425073452 0 0 0
4132 8707 1 -0.8 52.16069352649708 50.66779616120077 20.987325280543534 0 0 0
4126 8766 1 -0.8 49.88094405721023 55.0474099284167 21.850045546949886 0 0 0
4134 8767 1 -0.8 52.251592821477 55.77198680950892 20.881921736824637 0 0 0
4137 9203 1 -0.8 54.82012368904237 50.80631277598242 21.211822747963637 0 0 0
4136 9227 1 -0.8 53.748905402265336 54.31901438828064 17.47701699823047 0 0 0
4139 9231 1 -0.8 54.77925051752564 55.0011795029992 20.952071906511062 0 0 0
4138 9226 1 -0.8 55.33538119077927 52.363202172730375 16.599022771631642 0 0 0
4141 3025 3 1.6 56.30234532232025 51.59976042111184 17.6373999868473 0 0 0
4143 3027 3 1.6 56.07844698399 51.65866650874733 20.65273650320938 0 0 0
4148 3054 3 1.6 58.871483719622994 53.08188612311491 16.745742329773723 0 0 0
5129 3057 3 1.6 56.24195809821104 54.59309800400276 21.481461384575397 0 0 0
4151 3969 1 -0.8 60.37924796440894 52.49907945148999 16.754756560570947 0 0 0
4150 3976 1 -0.8 60.040372705564415 50.37990857405466 21.09682876255846 0 0 0
4152 4050 1 -0.8 60.045587795142204 54.94383308814318 20.916818575382226 0 0 0
4146 9795 1 -0.8 57.84405035473786 51.99800723611864 17.361594682426563 0 0 0
4142 9796 1 -0.8 55.83133783540527 52.05287713593682 19.112035199606215 0 0 0
4145 9797 1 -0.8 57.44571803868035 50.8066429006086 20.694014605938015 0 0 0
4144 9799 1 -0.8 56.30298655168461 52.9841445684809 21.533589579918914 0 0 0
4149 9839 1 -0.8 58.802973202441635 54.43213637129963 17.624262595150256 0 0 0
4147 9843 1 -0.8 57.41512711335137 55.172223060094765 20.54739907519665 0 0 0
4161 370 3 1.6 3.466418300637281 56.13840611282594 17.880908072073964 0 0 0
4163 371 3 1.6 2.9855975287417325 55.889329685861696 20.93053920957118 0 0 0
4153 399 3 1.6 0.962454890256561 57.40057014949538 16.71941413385503 0 0 0
4155 400 3 1.6 0.754065669230574 60.28276790602014 17.90639334389185 0 0 0
4157 402 3 1.6 0.48445643709002806 60.28406214522018 20.90547776663339 0 0 0
4160 3132 1 -0.8 2.2174108802235084 60.96474791649311 17.815331624356432 0 0 0
4167 3133 1 -0.8 4.691913817335257 60.91591185000178 16.891855613604104 0 0 0
4158 4044 1 -0.8 2.4454475251939845 56.7843074032167 16.812960881955753 0 0 0
4165 4045 1 -0.8 4.831483624700799 56.989195179983426 17.847336948108925 0 0 0
4162 4046 1 -0.8 2.794102227978579 56.21692151464608 19.354819024160616 0 0 0
4154 4114 1 -0.8 0.8438649383871056 58.68367247922967 17.689279182562057 0 0 0
4156 4116 1 -0.8 0.10600727266210047 60.53920478543145 19.36307793201966 0 0 0
4159 4117 1 -0.8 1.8630807709316175 59.44209233404789 20.959140979846033 0 0 0
4166 4118 1 -0.8 4.43481606572142 59.2041363806816 21.672955767404595 0 0 0
4171 4553 1 -0.8 5.141178442668867 60.18265149684758 19.32179849538708 0 0 0
4164 4047 1 -0.8 2.742452125948403 57.18286916356476 21.869305009036854 0 0 0
4168 616 3 1.6 5.937570997252654 57.55603489610229 16.82297469095869 0 0 0
4170 617 3 1.6 5.839325919387338 60.38736660377531 17.88529876330823 0 0 0
4172 618 3 1.6 5.561991347025704 60.037393692613016 20.864307062856376 0 0 0
4176 940 3 1.6 8.32876271788176 56.05428773274031 17.770318005009972 0 0 0
4183 969 3 1.6 10.554251471286072 57.75634908399872 16.558797524502463 0 0 0
4185 970 3 1.6 10.493094275475018 60.48042625828218 17.660599511204076 0 0 0
5150 971 3 1.6 8.011701986471254 58.485481816140954 21.84531385824375 0 0 0
4187 972 3 1.6 10.555544646979705 59.80056687297241 20.64893067895093 0 0 0
4173 4550 1 -0.8 7.18789961052484 56.545285112934785 16.748484766814883 0 0 0
4169 4551 1 -0.8 6.434115213712117 58.997528143407116 17.338648833895245 0 0 0
4174 4554 1 -0.8 6.976156747925406 59.24831847207156 20.877424521945578 0 0 0
4180 5268 1 -0.8 9.60419704316717 57.02187230565738 17.63665746118806 0 0 0
4177 5269 1 -0.8 7.683827497104178 56.12986837924297 19.245343913447492 0 0 0
4179 5270 1 -0.8 7.829404814493449 56.88661595440125 21.744830615437806 0 0 0
4184 5320 1 -0.8 10.237544235096642 59.33580447941467 16.555406964847954 0 0 0
4186 5322 1 -0.8 10.139846607559953 59.84086145568991 19.09800671568013 0 0 0
4181 5324 1 -0.8 9.540888047106849 58.846917061150286 21.467319582645132 0 0 0
4193 1161 3 1.6 13.010734613283914 55.869739082986584 20.81782163372726 0 0 0
4191 1160 3 1.6 12.978305698103657 56.4501409854715 17.787572065633345 0 0 0
4198 1189 3 1.6 15.599569228677904 57.66594972419414 16.735683905277586 0 0 0
4200 1190 3 1.6 15.519829282168438 60.50249608505211 17.793306036138755 0 0 0
4202 1192 3 1.6 15.677886179093965 60.026199406575564 20.830833842169948 0 0 0
4188 5321 1 -0.8 12.0896737450322 57.55405524237446 17.014804212062142 0 0 0
4190 5323 1 -0.8 12.042342815307252 60.92513800124863 17.63240244123551 0 0 0
4189 5326 1 -0.8 12.078231547478582 59.30067703778787 20.830957692389674 0 0 0
4195 5758 1 -0.8 14.545986207146864 56.83235274884287 17.641335310828676 0 0 0
4192 5759 1 -0.8 12.581342725900848 56.38834521648958 19.352922192223964 0 0 0
4199 5810 1 -0.8 15.271502633661868 59.249520706635046 16.807670760306518 0 0 0
4201 5812 1 -0.8 15.184909203709331 60.01704830102896 19.297115884734588 0 0 0
4196 5814 1 -0.8 14.58066832465762 59.254863048362566 21.738196493620126 0 0 0
4194 5760 1 -0.8 13.003311140861772 57.107360311494894 21.855078617867875 0 0 0
4206 1277 3 1.6 18.166574901644193 56.45458153133713 17.94890451454625 0 0 0
4208 1278 3 1.6 18.120933306063105 55.80665553414178 20.991574458715977 0 0 0
4213 1429 3 1.6 20.949557313779454 57.17727187149163 16.700378846325158 0 0 0
4215 1430 3 1.6 20.88995993906821 60.030057795443895 17.652504901007514 0 0 0
4217 1432 3 1.6 20.570237492454822 60.05518163850792 20.715406882502407 0 0 0
4203 5811 1 -0.8 17.13201851204788 57.474142092979946 17.23173477756391 0 0 0
4205 5813 1 -0.8 17.071691237097387 60.96097667991824 17.719654136205868 0 0 0
4204 5816 1 -0.8 17.103278086383998 59.27374858313056 20.958685668391347 0 0 0
4212 5859 1 -0.8 19.57516383976111 60.53225132660908 16.864797671266476 0 0 0
4210 6008 1 -0.8 19.724638581111172 56.84214533485971 17.7109178876786 0 0 0
4207 6009 1 -0.8 17.833188143147698 56.41274388612202 19.52561475012682 0 0 0
4211 6041 1 -0.8 19.665187482852463 59.05732927116485 21.599898397237183 0 0 0
4214 6373 1 -0.8 21.425451461058813 58.69430979296218 16.939977640489047 0 0 0
4216 6374 1 -0.8 20.47603379624193 59.66269400251445 19.163160473864657 0 0 0
4220 6074 1 -0.8 22.077904334782023 61.120620530439574 17.624779218477084 0 0 0
4222 6318 1 -0.8 22.830894888600792 55.879215033037106 19.43726316212388 0 0 0
4219 6375 1 -0.8 22.11544523676503 59.95880618088922 21.186890881874017 0 0 0
4221 1400 3 1.6 23.458349424409555 55.90347610966657 17.95025557389549 0 0 0
4223 1401 3 1.6 23.2228057512086 56.11442872640196 20.983546272949198 0 0 0
4228 1501 3 1.6 26.100243963810073 57.462289297840705 17.31681134166558 0 0 0
4230 1502 3 1.6 25.96947449504915 60.37024248344848 18.169136859482517 0 0 0
4232 1503 3 1.6 25.917360603318237 60.466386381307565 21.267329023533087 0 0 0
4227 6075 1 -0.8 24.66234262073404 60.58538737538051 17.22749462966235 0 0 0
4218 6316 1 -0.8 22.249616410024156 56.249181431677684 16.930368492563527 0 0 0
4225 6317 1 -0.8 24.67769190957368 56.96720891682203 17.92350316519742 0 0 0
4224 6319 1 -0.8 23.493653641244872 57.69629481627261 21.209053979186923 0 0 0
4226 6376 1 -0.8 24.61762341097568 59.92610624176522 22.06102256117297 0 0 0
4233 6525 1 -0.8 27.295284544198196 56.37543594015315 17.506446702620323 0 0 0
4229 6526 1 -0.8 26.496912548901822 58.849906026340406 18.04143751825898 0 0 0
4235 6527 1 -0.8 27.15990543217464 61.36017252214045 17.70470638773346 0 0 0
4231 6528 1 -0.8 25.55243006612378 60.65759861085051 19.702886175654037 0 0 0
4234 6529 1 -0.8 27.13668622065729 59.421442663077784 21.430324312837605 0 0 0
5174 1431 3 1.6 23.23528259734965 59.09703492450584 21.97384800195163 0 0 0
4236 1595 3 1.6 28.83593697173486 55.83637168966919 17.664810839482588 0 0 0
4238 1596 3 1.6 28.727439943464518 56.03097310836347 20.72794121346081 0 0 0
4243 1624 3 1.6 31.286351842989294 57.604140882822406 16.739740910133296 0 0 0
4245 1625 3 1.6 30.79027810179026 60.24710901234174 18.06273578615609 0 0 0
5182 1626 3 1.6 28.500917778922368 58.7457106415119 21.976427139195604 0 0 0
4247 1627 3 1.6 30.792277759276836 60.36044160196961 20.993820486570105 0 0 0
4242 6572 1 -0.8 29.636717109909974 60.62308991459738 17.00284813395555 0 0 0
4240 6763 1 -0.8 29.850851752289042 56.873019807689076 16.934379953702077 0 0 0
4239 6765 1 -0.8 28.982155807085665 57.60330805769219 20.95932397415199 0 0 0
4244 6815 1 -0.8 31.36281746933831 58.76384824542356 17.846433846002547 0 0 0
4248 6816 1 -0.8 32.5349307083412 56.584227058767716 16.91596849312645 0 0 0
4246 6817 1 -0.8 30.146802012672435 60.34520317382705 19.525551426519314 0 0 0
4250 6818 1 -0.8 32.03968768421049 61.261204843686556 17.9372509399983 0 0 0
4241 6819 1 -0.8 29.69948777232615 59.82141073208101 22.041641699236752 0 0 0
4249 6821 1 -0.8 32.12478700652096 59.445401452411176 20.975211981776038 0 0 0
4251 1687 3 1.6 33.684737641411786 55.95341924744932 17.882675905522653 0 0 0
4253 1688 3 1.6 33.45803482287767 56.309129065862955 20.950928556179058 0 0 0
5190 1704 3 1.6 33.49876078064297 59.181663258287145 21.772980038622197 0 0 0
4258 1834 3 1.6 36.308427671136336 57.352029051881324 16.918225901673566 0 0 0
4260 1835 3 1.6 36.121514302214926 60.16961349260799 18.08307644585262 0 0 0
4262 1837 3 1.6 36.349800718726904 60.06442411748726 21.09795200829255 0 0 0
4257 6864 1 -0.8 34.690900812413915 60.895859181675355 18.212234866883346 0 0 0
4255 6963 1 -0.8 35.17495798574664 56.27607310210279 17.320614016957492 0 0 0
4252 6964 1 -0.8 33.52003066353185 56.592912486644316 19.357415072825074 0 0 0
4254 6965 1 -0.8 33.92908652187144 57.63337612090623 21.739598499906368 0 0 0
4256 6996 1 -0.8 34.74627897200644 59.97400549094805 21.16685902976124 0 0 0
4265 7030 1 -0.8 37.20979925327074 61.03544560084736 17.25804311566305 0 0 0
4263 7267 1 -0.8 37.67932823427271 57.15202546765983 17.74639364624387 0 0 0
4259 7323 1 -0.8 35.77247970733439 58.808669418402225 17.31048417556702 0 0 0
4261 7324 1 -0.8 36.74875923227716 59.904435227838604 19.545217099259904 0 0 0
4264 7326 1 -0.8 37.12532301156337 58.96209315853858 21.983219963955847 0 0 0
4266 1805 3 1.6 38.85026301179547 56.19434819308822 18.29694591332513 0 0 0
4267 7268 1 -0.8 39.16553660114278 56.493210072385935 19.838184545999617 0 0 0
3214 1864 3 1.6 43.80460811114753 61.227575171856806 17.297942584997514 0 -1 0
4268 1806 3 1.6 38.67973023155643 55.8103296205046 21.216941512435064 0 0 0
4281 1980 3 1.6 43.490376717643144 56.28634947139127 17.493241391167277 0 0 0
4283 1981 3 1.6 43.28693045195363 56.11947055435272 20.456443924007722 0 0 0
4273 2009 3 1.6 40.93797060269489 57.503842142503956 16.55735266834653 0 0 0
4275 2010 3 1.6 41.00755770392353 60.202535515569195 18.137118248637055 0 0 0
4277 2012 3 1.6 41.02313913388327 60.05160316956623 21.151929833822148 0 0 0
4272 7029 1 -0.8 39.716355957074114 61.17955900470738 18.253302502612296 0 0 0
4270 7266 1 -0.8 40.15958891839253 56.35933666723763 17.374972712030058 0 0 0
4271 7325 1 -0.8 39.70276829168847 59.16981432177283 21.426314888653184 0 0 0
4280 7374 1 -0.8 42.232140565596524 60.88247248039597 17.337938153570562 0 0 0
4278 7696 1 -0.8 42.51455576914944 57.1613107876444 16.563975573176634 0 0 0
4282 7698 1 -0.8 43.206068615959566 56.77200792021386 18.996820698855643 0 0 0
4284 7699 1 -0.8 43.09278253294106 57.258499873290226 21.56633833461485 0 0 0
4274 7753 1 -0.8 40.588142241417906 58.884397184062664 17.31425132755748 0 0 0
4276 7754 1 -0.8 41.49563176122532 59.830911569229265 19.624608553291313 0 0 0
4288 2131 3 1.6 46.55953536517582 57.04869454675587 17.18989082659502 0 0 0
4290 2132 3 1.6 46.31613284855504 59.87001261329023 18.295573008961505 0 0 0
4292 2133 3 1.6 46.06044166001549 60.27334584415787 21.31295834775413 0 0 0
4298 2426 3 1.6 48.77319695692495 55.946950393402645 21.10215477930092 0 0 0
4287 7375 1 -0.8 44.755857703206175 60.082787094773636 17.923836458830763 0 0 0
4285 7697 1 -0.8 45.045932789044436 56.48749089006883 17.11577225470411 0 0 0
4286 7756 1 -0.8 44.75837267266638 59.31213191387587 21.37938245250443 0 0 0
4293 8030 1 -0.8 47.59715319824544 55.90247960642472 17.625164146950983 0 0 0
4289 8031 1 -0.8 46.65567698890041 58.29594514653322 18.207172733003592 0 0 0
4295 8032 1 -0.8 47.29061428348431 60.71832013250052 17.312569060761053 0 0 0
4291 8033 1 -0.8 46.55743894659008 60.403600938292016 19.789766105964265 0 0 0
4297 8764 1 -0.8 49.285262786252815 56.14411600292349 19.59234298511086 0 0 0
4299 8765 1 -0.8 48.60939222389873 57.384930415779216 21.82359769285103 0 0 0
4301 8819 1 -0.8 49.70460667568548 59.70605715480181 21.052389896233255 0 0 0
4303 2454 3 1.6 51.30012878180116 57.20892379282712 16.796605896304403 0 0 0
4305 2455 3 1.6 51.258259914325656 59.984573834665724 17.839486091865325 0 0 0
4307 2457 3 1.6 51.17365905141477 60.35175584208198 20.849035444605846 0 0 0
4311 2662 3 1.6 53.991861154620295 55.918512430639126 17.54051779314797 0 0 0
4313 2663 3 1.6 53.774053844551396 56.20509586500868 20.590705485253363 0 0 0
5222 2679 3 1.6 53.87815867508404 59.064356962259815 21.625053126542547 0 0 0
4302 8077 1 -0.8 49.94579567851071 60.56081550035039 17.095900608115617 0 0 0
4300 8763 1 -0.8 50.2512920837681 56.06233451076745 17.16809917387912 0 0 0
4304 8815 1 -0.8 51.16160475972979 58.380356335173616 17.893206582964382 0 0 0
4308 8816 1 -0.8 52.819228539463076 56.652416902154144 16.706331068652226 0 0 0
4306 8817 1 -0.8 51.338658163288834 60.6693537947756 19.285947093247042 0 0 0
4310 8818 1 -0.8 52.64227572257351 60.29851831741331 17.080977381674565 0 0 0
4309 8821 1 -0.8 52.3224570396522 59.30331483823586 21.276408205476095 0 0 0
4312 9229 1 -0.8 53.914571035477074 56.52729509733841 19.027819218354914 0 0 0
4314 9230 1 -0.8 54.18230278147613 57.49068680215074 21.466537161994395 0 0 0
4316 9261 1 -0.8 54.86442962429961 59.89822691249972 20.667017160807152 0 0 0
4317 8864 1 -0.8 55.2641119125223 60.77076885295699 16.84997222830997 0 0 0
4315 9228 1 -0.8 55.48244801113737 56.22337205105396 17.00030534651025 0 0 0
4326 3055 3 1.6 59.13733898767796 56.010390961728724 17.634937041486246 0 0 0
4328 3056 3 1.6 58.82714082774413 55.9586084197141 20.593765739157934 0 0 0
4318 3084 3 1.6 56.56844497789475 57.36455804384307 16.657479990080493 0 0 0
4320 3085 3 1.6 56.57251917767008 60.2283575039871 17.612828711557622 0 0 0
5230 3086 3 1.6 58.60360621053615 58.7172680097178 21.937951130641416 0 0 0
4322 3087 3 1.6 56.3900188225975 60.42983042930231 20.591032674523976 0 0 0
4330 4113 1 -0.8 60.638637574580656 56.24301870572871 17.12086374803807 0 0 0
4332 4115 1 -0.8 60.525333444245966 60.97037021127391 16.803323904942598 0 0 0
4331 4120 1 -0.8 60.007024276168465 59.487336078832115 21.65505014780938 0 0 0
4325 9289 1 -0.8 57.92982785376061 60.64522156042641 16.859928334852256 0 0 0
4323 9840 1 -0.8 58.070000150269415 56.77483731096907 16.704469050025867 0 0 0
4327 9841 1 -0.8 59.04450228338012 56.59011624471018 19.132035799930517 0 0 0
4329 9842 1 -0.8 58.807463227415354 57.13475059903894 21.692160019115505 0 0 0
4319 9880 1 -0.8 56.46039086891648 58.61471514744899 17.673104135358447 0 0 0
4321 9881 1 -0.8 56.63999447304515 60.88202499859518 19.0753175746805 0 0 0
4324 9882 1 -0.8 57.43396863849634 59.252645362577 20.96119384470203 0 0 0
4333 12 3 1.6 0.19937704420154442 1.7318205877725839 22.112500192625394 0 0 0
4343 424 3 1.6 5.16936858092638 1.5351904760280508 22.065844574395577 0 0 0
4340 13 3 1.6 2.773767941621155 0.5444974237742882 26.330492256657262 0 0 0
4335 14 3 1.6 0.32850934422217093 2.0053213644463215 25.191214438686757 0 0 0
4337 44 3 1.6 0.3175505345370725 4.73608111871676 26.576974882802457 0 0 0
4338 3143 1 -0.8 1.8611237393815627 1.5377815219414588 25.433300113866203 0 0 0
4341 3144 1 -0.8 4.360773506805355 0.7681707723499102 26.095255874911967 0 0 0
4336 3148 1 -0.8 0.20528643979478298 3.585673012433825 25.46072548910985 0 0 0
4339 3227 1 -0.8 1.7342491604215577 5.49290818957453 26.384339509327237 0 0 0
4342 3229 1 -0.8 4.1932447545359715 4.861681798921582 25.504391276592624 0 0 0
4344 4166 1 -0.8 4.885261576183637 1.4061305968802589 23.643937763012314 0 0 0
4345 425 3 1.6 5.50499813790934 1.3714563030715987 25.127450296483353 0 0 0
4347 439 3 1.6 5.4575915047459445 4.244977421751343 26.303581064551143 0 0 0
4350 643 3 1.6 8.144248051108011 0.07062475738495727 26.012336977378176 0 0 0
4355 644 3 1.6 10.389740858829105 1.8726637643982176 24.915542196789538 0 0 0
4357 674 3 1.6 10.339950125328775 4.642193349043772 26.037153106703542 0 0 0
4348 4167 1 -0.8 6.867140242290187 0.5023737447682279 25.118582841896547 0 0 0
4346 4168 1 -0.8 5.896906441882071 2.8600942571406165 25.60871264186724 0 0 0
4349 4197 1 -0.8 6.730666643646495 5.24744398723352 26.307315774528483 0 0 0
4354 4604 1 -0.8 10.129122150407085 1.285940928055711 23.43772728359604 0 0 0
4351 4605 1 -0.8 9.339662145930374 1.154722443889468 25.92211269678972 0 0 0
4356 4608 1 -0.8 10.14081758868939 3.4661224063857126 24.953978449529366 0 0 0
3147 5380 1 -0.8 12.78555974346784 4.1694019418517465 22.465143214836328 0 0 0
4363 1002 3 1.6 15.347878961691857 1.5536344985079689 21.989998207452633 0 0 0
4360 1003 3 1.6 13.01239511348879 0.7238422779472247 26.185118010071804 0 0 0
4365 1004 3 1.6 15.594370753642318 1.8341521727963839 25.017614453172538 0 0 0
4367 1034 3 1.6 15.551602831317558 4.731305314342745 26.046411693875783 0 0 0
4358 4609 1 -0.8 11.928580709051113 1.583623807429718 25.343067614089097 0 0 0
4359 4675 1 -0.8 11.873108975301179 5.165920832770217 25.98850164491322 0 0 0
4364 5384 1 -0.8 15.105396152807645 1.329881169162629 23.566029288897223 0 0 0
4361 5385 1 -0.8 14.496384293983386 1.3625494117395365 26.104455546694382 0 0 0
4366 5388 1 -0.8 15.63839888217693 3.448229877758522 25.068814104524662 0 0 0
4370 1219 3 1.6 18.064600938957767 0.3048069788168175 26.181370289821214 0 0 0
4375 1314 3 1.6 20.59726498037751 1.4630310014478267 24.86783799987884 0 0 0
4377 1344 3 1.6 20.530744555346658 4.424762149430025 25.913463848453457 0 0 0
4368 5389 1 -0.8 17.062742614980056 1.1917426027526332 25.26930247152058 0 0 0
4371 5864 1 -0.8 19.607160624451648 0.7233274268569868 25.91099717378308 0 0 0
4374 6083 1 -0.8 20.173732324051926 1.00313050539666 23.38141521577616 0 0 0
4376 6088 1 -0.8 20.400238663713825 3.0670342059760736 25.02939938885506 0 0 0
5271 6157 1 -0.8 20.014879756511714 4.143242786126982 27.417655358437706 0 0 0
4369 5455 1 -0.8 17.01550695586346 5.422551584438838 26.09853724235061 0 0 0
4383 1454 3 1.6 25.8559915351289 2.033198409731515 22.121361749834797 0 0 0
4380 1313 3 1.6 23.204637152917222 0.16499156812194649 25.948792864125426 0 0 0
4385 1455 3 1.6 25.873754409523624 1.571969079457973 25.179574734196084 0 0 0
4387 1469 3 1.6 25.977961625652146 4.378332744240017 26.11741302027086 0 0 0
4378 6084 1 -0.8 22.14809234609451 1.038855070152519 25.08318335719807 0 0 0
4381 6085 1 -0.8 24.738826575495754 0.4536200207737436 25.492869416076044 0 0 0
4379 6154 1 -0.8 22.087849648326483 4.873067764457712 25.891915023949746 0 0 0
4384 6411 1 -0.8 25.60962529670717 2.19417902209843 23.707318674123268 0 0 0
4388 6412 1 -0.8 27.38377073679632 0.9790548396947494 25.24433453371787 0 0 0
4386 6413 1 -0.8 25.730565558365605 2.7819925722506205 26.234738628648735 0 0 0
4389 6442 1 -0.8 27.376630603363758 4.573210228420923 25.304938774381398 0 0 0
4498 6152 1 -0.8 22.881265167097176 4.930854001848479 23.407752528733038 0 0 0
4382 6156 1 -0.8 24.72135148515266 5.027869073701659 25.32550549207263 0 0 0
4393 1527 3 1.6 31.025347120972942 1.7187966679129043 22.341988710490078 0 0 0
3184 6576 1 -0.8 29.620948142607432 2.479876731034439 22.086388113239053 0 0 0
4390 1528 3 1.6 28.450710985451874 61.358265110346345 25.92752924287116 0 -1 0
4395 1529 3 1.6 30.99199502755925 1.4902656973984303 25.396384812783563 0 0 0
4397 1559 3 1.6 31.069489575715487 4.3726035477569525 25.903818544008537 0 0 0
4394 6579 1 -0.8 31.072561948860912 1.1237792458999383 23.834786783051776 0 0 0
4391 6580 1 -0.8 29.947474255941433 0.5313446647396449 26.13524150989294 0 0 0
4396 6583 1 -0.8 30.39791010010034 2.956872826209892 25.568856053929906 0 0 0
4398 6584 1 -0.8 32.48142146609452 1.4347370876180139 26.011671121460246 0 0 0
4392 6648 1 -0.8 29.874213297912235 5.430122811018915 25.77477598126995 0 0 0
4399 6650 1 -0.8 32.266120700171165 4.523128614155419 24.839373752746827 0 0 0
5289 6651 1 -0.8 31.57984518127189 4.365900168339716 27.427666096773724 0 0 0
4403 1722 3 1.6 36.16216353240337 1.6487572527939163 21.713077819380196 0 0 0
4400 1654 3 1.6 33.684160168481604 0.37083539016063205 26.115800920040897 0 0 0
4410 1723 3 1.6 38.60227058926945 0.47380567395533185 25.993063065919284 0 0 0
4405 1724 3 1.6 35.99088660018257 1.8094719484205597 24.814932422535296 0 0 0
4407 1754 3 1.6 35.77132156991897 4.702947711511894 25.539967052300764 0 0 0
4401 6869 1 -0.8 34.87819872514463 0.6721055646794064 25.06882015654959 0 0 0
4402 6905 1 -0.8 34.76725289527123 5.340711776301508 24.459741191683616 0 0 0
4404 7038 1 -0.8 36.144011923634466 2.145329727622834 23.24605075830241 0 0 0
4408 7040 1 -0.8 37.43628976869595 1.4126157443463476 25.409433257435882 0 0 0
4406 7043 1 -0.8 35.48431912619512 3.1191277802542983 25.582786369808293 0 0 0
4409 7110 1 -0.8 37.3149919296211 4.930890453865614 25.11094276838799 0 0 0
5298 7112 1 -0.8 35.515778317953625 5.232422160951002 27.036123472603357 0 0 0
4420 1868 3 1.6 43.87577717850728 0.6980037606330447 25.84527619861054 0 0 0
4415 1869 3 1.6 41.145872530525835 1.6874334905396895 24.92165192284262 0 0 0
4417 1899 3 1.6 41.04134466060627 4.583499822636725 25.97721317454408 0 0 0
4411 7039 1 -0.8 39.940621051166815 0.6305592463856634 25.105619586534935 0 0 0
4414 7383 1 -0.8 41.6313693006769 1.6284481628034158 23.39146424557917 0 0 0
4418 7384 1 -0.8 42.39539981551855 1.329076625544994 25.869679022853813 0 0 0
4416 7388 1 -0.8 40.63877021101702 3.176038595716333 25.289789348404447 0 0 0
4419 7454 1 -0.8 42.36539597967544 5.1700066555967155 25.245230942887492 0 0 0
5307 7457 1 -0.8 41.35304032363602 4.384777845459545 27.54544673664313 0 0 0
4423 2034 3 1.6 46.0154991410668 1.9266450449399708 22.074645581466157 0 0 0
3220 7381 1 -0.8 44.60191929407841 2.6917485208691807 22.0632818814057 0 0 0
5310 7387 1 -0.8 44.30709065462985 0.3653575164577874 27.357568176517514 0 0 0
4425 2035 3 1.6 46.54257586527483 1.9253085932700815 25.03268880597523 0 0 0
4427 2049 3 1.6 46.4390996686636 4.7690078838706595 25.85700694097409 0 0 0
4430 2158 3 1.6 48.88943529795946 0.22418710639141717 25.943605908525875 0 0 0
4421 7385 1 -0.8 44.965193029657755 1.7013240076871283 25.246518038060934 0 0 0
4422 7456 1 -0.8 45.01418472574364 4.8027421535644175 25.097644281007334 0 0 0
4424 7791 1 -0.8 46.78306581322712 2.156096039798869 23.467499257285386 0 0 0
4428 7792 1 -0.8 47.40496809755706 0.6400659421135121 25.470929160199642 0 0 0
4426 7793 1 -0.8 46.96911959721669 3.2452932264509244 25.84413427214258 0 0 0
4429 7822 1 -0.8 47.472161493905766 5.732685456827612 25.10680637906065 0 0 0
5319 8087 1 -0.8 49.14619815123555 0.9040441144928254 27.37370401260365 0 0 0
5316 7823 1 -0.8 46.362041096971005 5.286095514439907 27.379145420123834 0 0 0
4435 2159 3 1.6 51.40862749396766 1.5947450116057391 24.849340130434392 0 0 0
4437 2189 3 1.6 51.371625336233755 4.3634105087199595 26.04465280169409 0 0 0
4440 2484 3 1.6 53.86105952271859 0.20582219878979555 26.100822424583747 0 0 0
4434 8084 1 -0.8 51.44449339369069 2.291928534992951 23.4025882206411 0 0 0
4431 8085 1 -0.8 50.027278405041486 0.7651293717691234 24.94021496754102 0 0 0
4436 8088 1 -0.8 51.45960352698388 2.763235837347032 25.9501728842234 0 0 0
4438 8089 1 -0.8 52.68905228561599 0.6387624023298978 25.072193788653458 0 0 0
4432 8153 1 -0.8 49.880373433283125 4.8469213451312045 25.683617508249725 0 0 0
4439 8155 1 -0.8 52.41334070789907 5.097141928399972 25.066159411499747 0 0 0
4441 8869 1 -0.8 55.090492324460584 1.2622552859783691 26.055800221136458 0 0 0
4442 8905 1 -0.8 54.8000418902443 5.005371852855663 26.156950534164366 0 0 0
4443 2697 3 1.6 55.9938248999126 1.7160012896276795 21.999957486096136 0 0 0
4334 3142 1 -0.8 60.59245238520238 1.666340085716264 23.68447393495025 -1 0 0
4450 2698 3 1.6 58.708098203341095 0.2787414352836867 26.1160531227415 0 0 0
4445 2699 3 1.6 56.23348727465599 1.8033060793678795 25.045329648894402 0 0 0
4447 2729 3 1.6 56.36350454618275 4.64869783356249 26.236162356553084 0 0 0
4451 3147 1 -0.8 60.02521617746632 1.2172225803973662 26.159041084216266 0 0 0
4444 9295 1 -0.8 55.610265605496444 1.712910368115123 23.561674574094077 0 0 0
4448 9296 1 -0.8 57.56645887292473 0.8919971209213354 25.146837665624346 0 0 0
4446 9299 1 -0.8 56.65253331901165 3.328437758031553 25.36530255086859 0 0 0
4457 41 3 1.6 2.9437692103417037 6.017527659135438 22.36529298924731 0 0 0
4453 68 3 1.6 0.5083155100199768 10.53811837555048 22.440563844704748 0 0 0
3268 3223 1 -0.8 4.291478654861086 6.911712375694825 22.283710407832153 0 0 0
4459 43 3 1.6 2.9646037042029496 5.912673101385758 25.425152986591694 0 0 0
4461 69 3 1.6 3.0204689907229216 8.771432998680089 26.524539466442157 0 0 0
4455 70 3 1.6 0.5920624251663338 10.437435932221183 25.49051488067756 0 0 0
4458 3224 1 -0.8 2.4421297739525363 5.977477991892823 23.89929418120462 0 0 0
4460 3228 1 -0.8 3.487959784954798 7.358090844988411 25.907056213532382 0 0 0
4454 3291 1 -0.8 0.04165367242426428 10.392445487242504 23.974027010285177 0 0 0
4456 3292 1 -0.8 1.778919628790951 9.349562102224537 25.658507069214174 0 0 0
4462 3293 1 -0.8 4.273739939018491 9.780097915353393 26.48854954677184 0 0 0
4465 455 3 1.6 5.258562038087988 10.529706273018581 25.462317940548367 0 0 0
4464 4229 1 -0.8 4.97674489568116 9.966906003494755 23.981303146519732 0 0 0
4463 454 3 1.6 5.487240865325572 10.23764093954907 22.481096378959773 0 0 0
3281 4669 1 -0.8 9.335840692153157 6.78316126954917 22.186407076015627 0 0 0
4467 671 3 1.6 8.00146901077529 5.885097969543438 22.380622907605726 0 0 0
4473 698 3 1.6 10.450763841508866 10.23004369817889 22.372961571663865 0 0 0
4352 4673 1 -0.8 9.28725050448544 5.839883392992884 25.77361872182252 0 0 0
4469 673 3 1.6 7.737625925604751 6.2092632666345215 25.480381823474968 0 0 0
4471 699 3 1.6 7.750225833715614 9.17039326590237 26.5850019011279 0 0 0
4475 700 3 1.6 10.275573110829397 10.365014371643133 25.39611702489813 0 0 0
4466 4231 1 -0.8 6.799458551509363 10.267213591994137 25.871023854828593 0 0 0
4468 4670 1 -0.8 7.4695556132576355 5.995044946683114 23.902914425887115 0 0 0
4470 4674 1 -0.8 7.432771678092361 7.737022363463434 25.905473399808237 0 0 0
4474 4727 1 -0.8 10.01333621157806 9.8771973572556 23.882617099511403 0 0 0
4472 4728 1 -0.8 9.309471093388172 9.52260813957724 26.375784830462937 0 0 0
4483 1058 3 1.6 15.066885149733473 9.887800568983186 22.230996493234326 0 0 0
3294 5449 1 -0.8 14.451007549456031 6.05986936402038 21.93644649281287 0 0 0
4477 1031 3 1.6 12.938634650975645 5.774801303291896 22.42277324404096 0 0 0
4362 5453 1 -0.8 14.453907952122885 5.804746875042202 25.546760470410927 0 0 0
4479 1033 3 1.6 12.910442920325604 6.270166411070163 25.418748962423688 0 0 0
4481 1059 3 1.6 12.864333391488378 9.210102760624778 26.607449992168764 0 0 0
4485 1060 3 1.6 15.307297394881179 10.391697521681525 25.23470140667895 0 0 0
4476 4731 1 -0.8 11.832629562060474 10.121934160001725 25.759504400116896 0 0 0
4478 5450 1 -0.8 12.63062462717408 6.452772383628988 23.84653016969304 0 0 0
4480 5454 1 -0.8 12.664201486413026 7.65603274478711 26.20467020318082 0 0 0
4484 5507 1 -0.8 14.836727598954388 9.767916677595966 23.816177655032014 0 0 0
4482 5508 1 -0.8 14.396835036254268 9.649402441013292 26.351506248071495 0 0 0
4487 1234 3 1.6 17.99362780002626 6.091733487783305 22.073733434120683 0 0 0
3307 5898 1 -0.8 19.47805749356104 6.740287458147992 22.13558928758612 0 0 0
3304 5506 1 -0.8 16.630980678897917 10.117673178483335 21.967365607999497 0 0 0
4372 5900 1 -0.8 19.5808999007381 5.601694682047806 25.330678478283627 0 0 0
4489 1235 3 1.6 18.061864882937154 6.101469320736296 25.07232468771495 0 0 0
4491 1245 3 1.6 17.999565234599277 9.089360910573765 26.03705741908427 0 0 0
4495 1370 3 1.6 20.680765913152207 10.278663350967271 25.049410289169174 0 0 0
4486 5511 1 -0.8 16.88080209872483 10.109989984770117 25.4609164346881 0 0 0
4488 5899 1 -0.8 17.63851988885448 5.649707092868014 23.58094873215998 0 0 0
4490 5901 1 -0.8 17.94957215513609 7.711012953865852 25.175227583375083 0 0 0
4492 5919 1 -0.8 19.520344792084305 9.631315872251255 26.000627580372715 0 0 0
4494 6202 1 -0.8 20.021328150839903 10.305833702766222 23.58026450734169 0 0 0
4497 1341 3 1.6 23.10150589294338 5.472886205750835 21.90331020148306 0 0 0
4503 10122 3 1.6 25.124905207453487 9.237229638140496 22.436696391916474 0 0 0
3322 6233 1 -0.8 23.681120422542936 9.87340151220781 22.51480308695709 0 0 0
4610 10122 1 -0.8 26.21066050549452 10.12147853711137 21.77205509089793 0 0 0
4499 1343 3 1.6 23.221557393169917 5.457844872623357 24.89213052585349 0 0 0
4501 1369 3 1.6 23.052075026495324 8.344730083683404 25.80589577509892 0 0 0
4500 6155 1 -0.8 23.144567847682985 7.061218049670118 24.834394753347688 0 0 0
4496 6203 1 -0.8 22.03593883103625 9.40796049078117 25.142914867282975 0 0 0
4502 6204 1 -0.8 24.533767584663302 8.905893186460064 26.08299191830019 0 0 0
4504 6470 1 -0.8 25.61804602672774 8.609370402574305 23.804274902482398 0 0 0
4506 6471 1 -0.8 27.191185415463625 9.346596322130202 25.86089214790901 0 0 0
4505 10123 3 1.6 25.752526965570578 9.404043376019036 25.170321237938744 0 0 0
4613 10123 2 0.4 25.38633498660212 9.807635523688413 24.31747694193241 0 0 0
4611 10123 1 -0.8 25.36539774104013 10.779722007547784 24.54727301848238 0 0 0
5379 6205 1 -0.8 22.481373285006306 7.79113893279936 27.21253422165199 0 0 0
4513 10000 3 1.6 32.56259337916007 8.946363946891678 22.90876889201166 0 0 0
4616 10000 1 -0.8 32.86795777403585 10.463137216495442 22.87813203451735 0 0 0
3473 10000 2 0.4 33.08485148350246 9.525044249353142 23.090036989714548 0 0 0
4509 1558 3 1.6 28.54546074219213 5.629987198726974 24.888979480197875 0 0 0
4511 1578 3 1.6 28.30429805610797 8.241789189624287 26.240252010737706 0 0 0
4508 6645 1 -0.8 29.0283038710833 5.524828570053278 23.35287699619959 0 0 0
4510 6649 1 -0.8 27.93489283682598 7.063452720306585 25.194579969295127 0 0 0
4514 6694 1 -0.8 31.36182275545786 8.680302969727688 23.930172318505615 0 0 0
4512 6695 1 -0.8 29.887365484279854 8.423865642485469 26.07400726739208 0 0 0
4516 6697 1 -0.8 32.38925981837396 9.156201400099238 26.246097070806186 0 0 0
4515 10136 3 1.6 31.05528871056233 9.238695422664248 25.393956330897304 0 0 0
4518 6904 1 -0.8 32.84148041875621 6.005053404471002 22.80572030570079 0 0 0
4520 6906 1 -0.8 32.89408125082613 6.831106903837145 25.470985366327724 0 0 0
4615 10136 1 -0.8 30.379319735589092 10.630875056311025 25.341198156401454 0 0 0
4614 10136 2 0.4 30.404407407047216 9.664281162895909 25.54747347906429 0 0 0
4523 9979 3 1.6 36.538302467660635 9.938325253244471 22.31424279432108 0 0 0
4618 10000 1 -0.8 33.91575560788521 8.329536475177187 23.376149404392482 0 0 0
3475 9979 2 0.4 36.226240750542026 10.36795936464332 22.97523596797839 0 0 0
4519 1670 3 1.6 33.21134034555218 5.749322739109374 24.343699946108437 0 0 0
4521 1678 3 1.6 33.527447065166506 8.034679499456399 26.326070611448017 0 0 0
4529 1753 3 1.6 38.459912330410305 6.067153877410343 25.073994872934826 0 0 0
4531 1775 3 1.6 38.34758270623568 8.838711356008444 26.246572940703537 0 0 0
4522 6922 1 -0.8 35.02471848145585 8.277052537792994 25.855569677641085 0 0 0
4530 7111 1 -0.8 37.87973345958381 7.363209163243145 25.795023659622238 0 0 0
4524 7155 1 -0.8 36.47102083479856 9.17247313287225 23.693227032348073 0 0 0
4526 7157 1 -0.8 37.09716672260153 9.80468659999888 26.031526398715275 0 0 0
4525 9924 3 1.6 35.80229928192473 9.449174948788837 25.12252002408185 0 0 0
4621 9924 1 -0.8 34.64378051014828 10.465470552997289 25.230698604738837 0 0 0
4619 9924 2 0.4 34.81500260198436 9.491098899989941 25.405664061036745 0 0 0
4527 1751 3 1.6 38.49415801659051 6.2771282155755035 22.014522338028527 0 0 0
4533 1923 3 1.6 41.323830124263715 10.41635779768319 22.46306919635906 0 0 0
4412 7109 1 -0.8 39.788150873566345 5.587317004897747 25.86513617154864 0 0 0
4528 7107 1 -0.8 38.8911944519983 6.42090623095582 23.566483754670266 0 0 0
4539 1898 3 1.6 43.80404119018715 5.855049669673441 24.95510822689903 0 0 0
4541 1924 3 1.6 43.78077936298322 8.534291495772004 26.32966921883196 0 0 0
4535 1925 3 1.6 41.1719062250943 9.724847659315135 25.437363829902527 0 0 0
4532 7156 1 -0.8 39.65161813622134 9.213900371228558 25.36137838455908 0 0 0
4538 7452 1 -0.8 43.756017390537735 6.499857631177054 23.469062269948534 0 0 0
4540 7455 1 -0.8 44.17224811918145 7.0018457696832295 26.02931137481298 0 0 0
4534 7502 1 -0.8 41.63124563803019 10.341265140152956 24.031315649654267 0 0 0
4536 7503 1 -0.8 42.251392717972436 8.603474423934838 25.831975332602564 0 0 0
4624 7506 1 -0.8 41.30593996719895 10.778259683793888 26.60687588451047 0 0 0
4543 2064 3 1.6 46.28442817928309 10.195510624398057 22.374808657511362 0 0 0
4547 2186 3 1.6 48.816953654076464 6.170898751994975 22.16489140295285 0 0 0
3376 7821 1 -0.8 47.44795402174446 6.99223318728362 21.935725362323364 0 0 0
4545 2065 3 1.6 46.33920196210077 9.929007380856838 25.337749445223672 0 0 0
4549 2188 3 1.6 49.03204766078969 6.1131839151613265 25.160565972258187 0 0 0
4551 2214 3 1.6 48.88557467544914 8.859040830877698 26.567354843118906 0 0 0
4542 7504 1 -0.8 44.784089556511866 9.52526813157976 25.53212278919838 0 0 0
4544 7854 1 -0.8 46.76907203818581 9.666239672381069 23.80829529225633 0 0 0
4546 7856 1 -0.8 47.3083741196662 9.057758650511103 26.28853489096963 0 0 0
4548 8150 1 -0.8 49.41717119583098 6.451468452705853 23.63984180878481 0 0 0
4550 8154 1 -0.8 49.29421464497345 7.347838441915598 26.164473041764296 0 0 0
4553 2213 3 1.6 51.48482440242524 9.93341277831827 22.338649193702963 0 0 0
4557 2499 3 1.6 54.01002113279475 5.934999568575347 22.206664440283532 0 0 0
3389 8152 1 -0.8 52.454736035209876 6.336433728022166 22.08836397366718 0 0 0
3383 8205 1 -0.8 49.95492592977091 10.421236891719222 22.248779278275716 0 0 0
3396 8952 1 -0.8 54.97308704142849 10.683977253026676 22.537039463323957 0 0 0
4555 2215 3 1.6 51.339177158753415 10.120881784761998 25.327829589391897 0 0 0
4559 2500 3 1.6 53.83197474293457 5.84623529998366 25.191341437634172 0 0 0
4561 2510 3 1.6 53.69021713763372 8.722052459436307 26.57671214402639 0 0 0
4554 8207 1 -0.8 51.739026055638455 9.52897745617047 23.877869663943816 0 0 0
4552 8208 1 -0.8 49.779367798422825 9.860313627242489 25.660148599897013 0 0 0
4556 8211 1 -0.8 52.22716095159051 9.382233879214006 26.446619710816282 0 0 0
4558 8904 1 -0.8 54.48465663520476 5.8568419895005706 23.73153576825839 0 0 0
4560 8906 1 -0.8 53.704686511901386 7.374315622079356 25.690913593422227 0 0 0
4562 8924 1 -0.8 54.798208479844526 9.79843338437704 26.07413512793234 0 0 0
4567 2726 3 1.6 58.88454711557122 5.987828987461727 22.53318704604658 0 0 0
4563 2753 3 1.6 56.51227282964002 10.240631881561715 22.696817772175756 0 0 0
3407 3226 1 -0.8 59.91140357250148 7.151274599933159 22.0988660054632 0 0 0
3402 9347 1 -0.8 57.369672926916856 6.517679995952218 22.4017542353008 0 0 0
4452 3230 1 -0.8 59.788154396476635 5.753380048251806 26.53505539653081 0 0 0
4449 9350 1 -0.8 57.22006058849661 5.918481425986254 25.74715771684144 0 0 0
4569 2728 3 1.6 58.73858223948207 6.376533583109113 25.492626521123146 0 0 0
4571 2754 3 1.6 58.79220453974932 9.163102959670837 26.70199767741826 0 0 0
4565 2755 3 1.6 56.22894405391665 10.451936587063688 25.688099184902896 0 0 0
4572 3296 1 -0.8 60.06774775924419 10.111445211089165 26.457860962412624 0 0 0
4568 9348 1 -0.8 59.1729583678015 5.7463845511593785 24.08238463804734 0 0 0
4570 9351 1 -0.8 58.81517411776039 7.9823310321026835 25.600111595944757 0 0 0
4564 9388 1 -0.8 56.680302889072365 9.87715856626685 24.248099146330286 0 0 0
4566 9389 1 -0.8 57.40251703147264 9.988631287823425 26.685544024203814 0 0 0
4576 91 3 1.6 2.90019891095681 14.763669523101658 22.542765672181858 0 0 0
3265 3290 1 -0.8 1.835625510185572 11.45624574555979 22.459282782363932 0 0 0
3422 3349 1 -0.8 4.056783700175569 15.886837003257906 22.556141776253238 0 0 0
4578 93 3 1.6 2.7392966659818616 14.998813395044614 25.567511258579632 0 0 0
4574 94 3 1.6 0.6964375611381854 13.123722577761114 26.869309383684946 0 0 0
4573 3295 1 -0.8 1.1429549234980503 11.891941295928481 25.923907449801785 0 0 0
4577 3350 1 -0.8 2.494053561418684 14.44896161495159 24.06984730143472 0 0 0
4579 3352 1 -0.8 2.6308298165294 16.602998262605958 25.531079799413344 0 0 0
4575 3353 1 -0.8 1.6053815839457277 14.407872989535829 26.539867992845537 0 0 0
4580 3354 1 -0.8 4.1797857254765844 14.53953961205318 26.14382378437845 0 0 0
4582 465 3 1.6 5.148323906913057 13.315173854896145 26.555785882316403 0 0 0
4581 4230 1 -0.8 4.9321098920156174 12.10266129274977 25.524677065256476 0 0 0
4584 721 3 1.6 7.714007361469064 14.849092397711376 22.714939962689346 0 0 0
3278 4228 1 -0.8 6.742274113494435 11.24344324349199 22.56676138160416 0 0 0
3435 4772 1 -0.8 8.954265594133053 15.842174941861362 22.53876567256714 0 0 0
4586 723 3 1.6 7.620472130864479 14.887190931504767 25.828439791207053 0 0 0
4590 724 3 1.6 10.117317676542484 13.219722199822062 26.499685814122415 0 0 0
4583 4249 1 -0.8 6.684916646002994 13.775191995293696 26.50633077746235 0 0 0
4589 4730 1 -0.8 9.887451907865051 11.92595391600544 25.553792999874226 0 0 0
4585 4773 1 -0.8 7.236253019924843 14.903503361386406 24.25436258771424 0 0 0
4587 4774 1 -0.8 7.286258637445895 16.319198549439115 26.49857518777172 0 0 0
4588 4775 1 -0.8 9.152369529389011 14.436341324099347 26.04211893060447 0 0 0
3291 4726 1 -0.8 11.705821625547644 11.245999448437274 22.43282856121466 0 0 0
4592 1081 3 1.6 12.489458990204032 14.893421051611476 22.45207610537063 0 0 0
3448 5552 1 -0.8 13.717944205214222 15.903109131334354 22.514273970048368 0 0 0
3455 5595 1 -0.8 16.0989578834 14.83800916089418 22.478080639823688 0 0 0
4594 1083 3 1.6 12.440552782768124 14.734277812582143 25.44723002599909 0 0 0
4598 1084 3 1.6 15.063609278525396 13.35669571172527 26.134870629345787 0 0 0
4591 4776 1 -0.8 11.645669064803831 13.672156228458508 26.351992840332496 0 0 0
4597 5510 1 -0.8 14.969798377020199 11.962985516519163 25.311497928661634 0 0 0
4593 5553 1 -0.8 11.914868574327024 14.613576291448146 23.929794704218793 0 0 0
4595 5554 1 -0.8 12.08754351800619 16.19541853864213 25.968314060308217 0 0 0
4596 5555 1 -0.8 14.003057024465273 14.39422608294883 25.526463814458857 0 0 0
4599 5556 1 -0.8 16.539231828806805 13.910744317998205 25.958790895579583 0 0 0
4600 10076 3 1.6 17.144658688833832 13.633346183511525 22.473428351145344 0 0 0
4604 10076 1 -0.8 18.539248660037032 13.935061821616321 21.85339197888907 0 0 0
4684 10076 2 0.4 17.754844765945194 13.312042029654455 21.79256628754864 0 0 0
4601 5942 1 -0.8 17.28681616895627 12.892724163088724 23.89294798845748 0 0 0
4605 5944 1 -0.8 18.63011322268817 12.471524689014045 26.18284345674743 0 0 0
4606 6206 1 -0.8 20.959492129098887 11.76209625284004 25.580066162696774 0 0 0
4602 9926 3 1.6 17.879905610461645 13.512149976951576 25.234848402210964 0 0 0
4603 9926 1 -0.8 18.679987932051283 14.781084012254174 24.755098722480966 0 0 0
4607 10094 3 1.6 20.123467928173906 12.473859813149149 26.730427399869132 0 0 0
4608 10094 1 -0.8 20.222418704724042 14.005133145013701 26.924901287285138 0 0 0
4609 10094 2 0.4 19.652946275451963 13.24082566388667 26.636823333221738 0 0 0
4683 9926 2 0.4 17.056101691207584 13.19944269298101 24.78154575006496 0 0 0
4620 9979 1 -0.8 36.012792702567445 11.31361267565309 22.77767269910032 0 0 0
3357 7181 1 -0.8 40.188501594730184 11.492702175752651 22.161739684141256 0 0 0
4630 10190 3 1.6 44.03665475307803 14.384373715051108 22.773979472240754 0 0 0
4628 10190 1 -0.8 42.92131712098082 15.360752747417916 23.219891563364023 0 0 0
4685 10190 2 0.4 43.60002951372132 14.658633935931183 23.323446732315272 0 0 0
4627 7547 1 -0.8 42.875535049795204 12.363177359919227 25.641358400940007 0 0 0
4632 9909 3 1.6 43.90062204477496 13.557641014529406 25.603585010909114 0 0 0
4629 9909 1 -0.8 42.97247812148055 14.650096206321908 26.193944293495782 0 0 0
4626 9909 2 0.4 43.109007046627056 13.690495508672267 26.010629396236897 0 0 0
4625 9952 3 1.6 41.698537286642896 12.303018449208787 26.699512188868294 0 0 0
4623 9952 1 -0.8 40.42733383385198 13.152617171411059 26.36212785940678 0 0 0
4622 9952 2 0.4 41.94754130605373 11.422531342304065 26.2819286602799 0 0 0
4637 2236 3 1.6 49.10739521487004 14.120729905241024 22.555808018752753 0 0 0
3370 7546 1 -0.8 45.05666496207771 11.208954760547611 22.57198702588371 0 0 0
3499 7898 1 -0.8 47.56309493909156 14.52675291382292 22.591953465665863 0 0 0
4631 7545 1 -0.8 44.53278702753533 13.838038269105837 24.17372947767318 0 0 0
4635 2075 3 1.6 46.596639413976035 12.814860634685461 26.55442172001638 0 0 0
4639 2238 3 1.6 49.119148944710346 14.235470999414677 25.546139376603904 0 0 0
4633 7548 1 -0.8 45.081601855249716 13.28947685033152 26.62755635371581 0 0 0
4634 7855 1 -0.8 46.631977310274586 11.482686367057694 25.648104229125238 0 0 0
4636 7874 1 -0.8 47.58155537977941 13.93577821714577 25.921533736898414 0 0 0
4638 8253 1 -0.8 49.47864668151971 13.697539093342902 24.061352204866722 0 0 0
4640 8254 1 -0.8 49.50579095960903 15.802202094278769 25.58542506280755 0 0 0
4645 2522 3 1.6 54.00470309941705 14.55597477559979 22.49967996090882 0 0 0
3512 8309 1 -0.8 52.44355674466787 14.86348722529486 22.314997869758212 0 0 0
4643 2239 3 1.6 51.602260766891945 12.959458433850193 26.372881166771034 0 0 0
4647 2524 3 1.6 53.81974782856506 14.964503939962597 25.563705336638616 0 0 0
4642 8210 1 -0.8 51.68006376729222 11.697321566416742 25.373504584860584 0 0 0
4641 8255 1 -0.8 50.065951671316235 13.404570820996868 26.54966960440992 0 0 0
4644 8256 1 -0.8 52.39781202878019 14.236548916295279 25.782470439469027 0 0 0
4646 8951 1 -0.8 54.352777937694555 14.609218766593278 24.07555204746867 0 0 0
4648 8953 1 -0.8 53.74031337984449 16.571421319334824 25.798963718323968 0 0 0
4649 8954 1 -0.8 54.85296602118659 14.275261974974498 26.591841751420912 0 0 0
4653 2776 3 1.6 58.82602728446524 14.799916283461837 22.72929487996876 0 0 0
3531 3423 1 -0.8 59.95719162091211 15.936870813567976 22.526694410733082 0 0 0
3404 9387 1 -0.8 57.51796491430446 11.469991233757009 22.37225257879901 0 0 0
3525 9423 1 -0.8 57.37500602149975 15.487779668633356 22.584151305994297 0 0 0
4655 2778 3 1.6 58.95663000103383 14.495062237992496 25.736174067724857 0 0 0
4651 2779 3 1.6 56.20223192145567 13.395494777013417 26.650922177109596 0 0 0
4657 3355 1 -0.8 59.87367524684554 13.475766514414554 26.573516577443502 0 0 0
4650 9391 1 -0.8 56.12404093460496 12.078181300658457 25.698471776002442 0 0 0
4654 9424 1 -0.8 59.01183891270556 14.120857261509434 24.174985033857382 0 0 0
4656 9425 1 -0.8 59.52388246885229 16.000323292554693 25.905144581829447 0 0 0
4652 9426 1 -0.8 57.43134044232996 14.365034123628678 26.240217795079886 0 0 0
4658 122 3 1.6 0.892819817701457 19.402997651520128 22.22627842307289 0 0 0
3535 3425 1 -0.8 2.3751800122898468 20.026809909588 22.2776980743934 0 0 0
4664 123 3 1.6 2.7923296742266768 17.93417714594597 26.4152703755799 0 0 0
4660 124 3 1.6 0.49289719993422887 19.589690430845913 25.31351563396136 0 0 0
4659 3426 1 -0.8 0.2566792421621295 19.431443686921728 23.71655105224217 0 0 0
4663 3427 1 -0.8 1.9880639529676785 19.140480246246078 25.711327722773824 0 0 0
4665 3428 1 -0.8 4.347396346556458 18.333439669245827 26.508191051389232 0 0 0
4661 3430 1 -0.8 0.29931442453348417 21.14540313943586 25.720052171693453 0 0 0
4668 479 3 1.6 5.329160881897424 19.307485962387506 25.68319205802997 0 0 0
4667 4277 1 -0.8 5.011674394057103 19.14354999529292 24.110008824569704 0 0 0
4669 4278 1 -0.8 5.066170482457264 20.826033458569242 26.160623107089574 0 0 0
4666 478 3 1.6 5.684526517888146 19.31419474709683 22.657173266435073 0 0 0
4674 752 3 1.6 10.707719314749204 19.088617253501905 22.52728361668339 0 0 0
3549 4276 1 -0.8 7.193468078949665 19.840695604942997 22.84254137852876 0 0 0
3558 4830 1 -0.8 9.714527358478525 20.358101957646696 22.378055505471746 0 0 0
4672 753 3 1.6 7.804330913509889 17.835647661655372 26.727008703785092 0 0 0
4676 754 3 1.6 10.464267163863983 18.9039588578086 25.65422043737671 0 0 0
4671 4279 1 -0.8 6.852952940880828 18.868808584565212 25.934853595883897 0 0 0
4675 4832 1 -0.8 10.800918590589136 18.63871758020699 24.085453364903035 0 0 0
4673 4833 1 -0.8 9.293450070926685 17.9015315574873 26.13885656284892 0 0 0
4677 4835 1 -0.8 9.881222595369668 20.391847707047404 25.810571634966756 0 0 0
4678 10005 3 1.6 9.973578466133214 21.647239038718936 26.78193835565966 0 0 0
4679 4836 1 -0.8 11.70948695152781 18.615389634676255 26.63887009828955 0 0 0
4680 9985 3 1.6 12.278405517252983 17.21708278654145 27.179532226353725 0 0 0
4732 10005 1 -0.8 11.383620343987475 21.717139972138327 27.438181715190982 0 0 0
3583 7897 1 -0.8 46.997391851796394 17.050998868508074 22.137645356515346 0 0 0
4687 10293 2 0.4 49.02172047552921 20.06717467261147 24.640246373515428 0 0 0
4696 2268 3 1.6 49.25662217062059 17.30650813677466 26.130524276451602 0 0 0
4693 7900 1 -0.8 47.5392842628147 19.39604915276271 23.021300632357157 0 0 0
4695 7901 1 -0.8 48.2715900536019 18.065415951625514 25.129553814698333 0 0 0
4694 10293 3 1.6 48.52417186431843 19.39794827357894 24.262137281711222 0 0 0
4690 10293 1 -0.8 48.42386084667198 20.624345751780723 25.18342214328321 0 0 0
3597 8308 1 -0.8 51.71846994848296 17.329922232644638 22.74590825892874 0 0 0
3607 9010 1 -0.8 53.792935719515555 21.741601020607945 22.144781492754475 0 0 0
4698 2267 3 1.6 52.20414823810049 18.86354720791127 22.78874275495158 0 0 0
4691 10293 1 -0.8 50.035502674279286 19.4137873663412 23.856141649995404 0 0 0
4688 10293 2 0.4 51.0110097417941 19.348499041611408 23.988903011027574 0 0 0
4700 2269 3 1.6 51.6135597053719 19.37922493637527 25.717809213596855 0 0 0
4702 2292 3 1.6 52.07962532003553 22.240381822843908 26.29839806316237 0 0 0
4704 2540 3 1.6 54.14547004441342 17.972384168087622 26.541475567298555 0 0 0
4699 8312 1 -0.8 52.29561697943733 19.364414731329994 24.279143334520153 0 0 0
4697 8313 1 -0.8 50.60591686013828 18.18541703759176 26.131565576392294 0 0 0
4701 8315 1 -0.8 51.25657819690829 20.887794978296313 26.072074425687173 0 0 0
4703 8316 1 -0.8 52.91470766125844 18.993291112305116 26.654161859994552 0 0 0
4747 8376 1 -0.8 53.55311131824429 22.135198732788236 25.66681018704657 0 0 0
4705 8984 1 -0.8 55.355687675026154 18.679682371731374 25.73221458743828 0 0 0
3609 9012 1 -0.8 55.98469999676654 20.262218528942945 22.29138169998284 0 0 0
4706 2807 3 1.6 57.06673098452665 19.078833493358133 22.385425221136202 0 0 0
3614 9468 1 -0.8 58.41766346844532 19.626684305225634 21.712377877652152 0 0 0
4712 2808 3 1.6 59.25427887784838 17.397662850747007 26.660051389073033 0 0 0
4708 2809 3 1.6 56.93206866385211 18.897544428837985 25.477102911963996 0 0 0
4710 2839 3 1.6 56.93053289182504 21.881757293342694 26.21089311220755 0 0 0
4713 3431 1 -0.8 60.20993166719295 18.601772475734382 26.132671989414558 0 0 0
4707 9469 1 -0.8 57.298699468365385 18.656805848440893 23.92277159972662 0 0 0
4711 9470 1 -0.8 57.732283942818604 17.82932557710499 26.37142546240654 0 0 0
4709 9472 1 -0.8 57.41242277522262 20.380267553300705 25.902034158055205 0 0 0
3633 3498 1 -0.8 3.6272994842538067 24.985423848995495 22.326211491152737 0 0 0
4662 154 3 1.6 0.5692906891820343 22.52689186543929 26.52433688491566 0 0 0
4716 151 3 1.6 2.6869817659747093 23.702291459663627 22.569716023535534 0 0 0
3630 3497 1 -0.8 1.1864651076055241 24.180848732943904 22.233504986407965 0 0 0
3629 3565 1 -0.8 0.6340801651789005 26.741203451723464 21.597283714130953 0 0 0
4718 153 3 1.6 3.142200350044432 23.727096296842642 25.591502434239338 0 0 0
4720 179 3 1.6 3.1856687999775897 26.82725251304207 26.050253695650845 0 0 0
4717 3500 1 -0.8 2.87330107211279 23.191412433876323 24.088795929222 0 0 0
4719 3502 1 -0.8 2.826871527893034 25.32026260373361 25.571587309073575 0 0 0
4714 3503 1 -0.8 2.1274035475008057 22.92952118910488 26.564601177212072 0 0 0
4721 3504 1 -0.8 4.64541710830932 23.425593285367334 26.092685441005745 0 0 0
4715 3566 1 -0.8 1.8731956839309827 27.778140675303668 26.055011888542047 0 0 0
4722 3567 1 -0.8 4.192665229453668 27.565161950476423 25.0315861744899 0 0 0
5602 3568 1 -0.8 3.7776403318478122 26.660911806215793 27.554131543140695 0 0 0
3639 4328 1 -0.8 5.7525546992685985 26.568801337563773 21.97529029690182 0 0 0
4670 495 3 1.6 5.708793016272474 22.268711176422876 26.4998718084544 0 0 0
4725 779 3 1.6 7.519571604894348 23.727119012565264 22.566648618080198 0 0 0
3640 4327 1 -0.8 5.939574465833983 24.00493635537894 22.73784915788423 0 0 0
4727 781 3 1.6 8.188357641371962 23.590954065832804 25.470955762541216 0 0 0
4729 800 3 1.6 7.876998767851299 26.49417527804135 26.012606140030723 0 0 0
4723 4309 1 -0.8 7.047477773515963 22.454915797820615 25.63452426161239 0 0 0
4724 4359 1 -0.8 6.645188493110149 27.049087437342113 25.141315615196028 0 0 0
4726 4891 1 -0.8 8.324388133350709 23.937067437257205 23.917928543825465 0 0 0
4728 4892 1 -0.8 7.692031769751474 24.912153010592203 26.2138244045897 0 0 0
4730 4893 1 -0.8 9.539422440808977 22.99964897841079 26.0738284645677 0 0 0
4731 4933 1 -0.8 9.160702295355119 26.792690718251272 25.114492817761242 0 0 0
4786 4969 1 -0.8 8.504582134039476 27.684401255395215 22.837317324083045 0 0 0
4740 10232 3 1.6 49.252735829884095 22.477935938389162 22.29437223760377 0 0 0
4738 10232 1 -0.8 47.867238784378216 22.789828236047864 22.934820317501206 0 0 0
4734 10232 2 0.4 48.834570070377616 22.60754749629174 23.11150306081061 0 0 0
4737 9967 1 -0.8 48.47495981144866 27.135883271885827 25.229051679631294 0 0 0
4736 9967 2 0.4 49.39338117840447 26.79999897886215 25.269523932216238 0 0 0
4739 10227 1 -0.8 49.294110215250235 22.999462452902684 26.336626548180167 0 0 0
4743 8374 1 -0.8 49.484852719067035 24.842683873110037 24.59740059822461 0 0 0
4749 2552 3 1.6 53.680251432462036 23.359728317281068 22.244130792724157 0 0 0
4742 10227 3 1.6 49.944172864148626 23.36628458120818 24.955215862257205 0 0 0
4735 10227 2 0.4 50.53677113085639 23.187317489557884 25.738314250022675 0 0 0
4741 8373 1 -0.8 50.04935371419542 22.44368840560458 23.65637589201349 0 0 0
5621 8421 1 -0.8 50.25765192915849 26.230261032747897 26.778770360236102 0 0 0
4744 9967 3 1.6 49.74906844836057 26.260147559665025 25.27627024303248 0 0 0
4751 2554 3 1.6 54.616330188529076 23.206681503384306 25.128652452012737 0 0 0
4753 2570 3 1.6 54.507248489970436 26.029934928218424 26.2021287821977 0 0 0
4745 8375 1 -0.8 51.436594654158675 23.43911376395512 25.492500331409936 0 0 0
4746 8420 1 -0.8 50.88851023615704 26.94178300576805 24.461033143572195 0 0 0
4748 8459 1 -0.8 53.04774529890878 26.19960494810402 25.603004965758522 0 0 0
4750 9011 1 -0.8 54.20108627825786 23.791735765995814 23.70132114240421 0 0 0
4752 9013 1 -0.8 54.844750198066556 24.445091158800714 26.151409331491372 0 0 0
4802 2313 3 1.6 52.420190883468436 27.28470071561323 24.606121963195463 0 0 0
4801 8457 1 -0.8 52.971375337251764 27.018958935388092 23.119578745746516 0 0 0
3675 9512 1 -0.8 57.052300811079824 24.034254556226692 22.011107456936166 0 0 0
4758 2836 3 1.6 58.5878071454312 23.60752224875481 22.197117248997674 0 0 0
4754 9014 1 -0.8 55.999314696540075 22.400456079711272 25.0178549169794 0 0 0
4755 9044 1 -0.8 55.45371528446525 26.866750108807608 25.188732376250762 0 0 0
4760 2838 3 1.6 59.00752017083648 23.900187112016717 25.290773685493104 0 0 0
4762 2864 3 1.6 58.62784736284899 26.699634997483056 26.443875598235252 0 0 0
4763 3505 1 -0.8 60.53006739602053 23.73317020503869 25.773916044538392 0 0 0
4764 3628 1 -0.8 60.10351492686248 27.332696290711187 26.46595577508576 0 0 0
4759 9514 1 -0.8 58.89626142191854 23.37381161741315 23.765192588545325 0 0 0
4761 9515 1 -0.8 58.5476089644866 25.438641892275598 25.430093859626773 0 0 0
4756 9516 1 -0.8 58.14379354469416 22.93949172041161 26.2668539388721 0 0 0
4757 9553 1 -0.8 57.65784737984033 27.887061175166977 25.9597045320385 0 0 0
3682 3623 1 -0.8 1.7310828883067808 28.999383994430026 22.487094535704856 0 0 0
4765 202 3 1.6 0.4072448915440478 28.081412004862628 22.472258155455062 0 0 0
4767 203 3 1.6 0.39772767260805636 28.117927836594394 25.502474675781063 0 0 0
4769 204 3 1.6 0.44256063844989235 31.256396987671682 25.85393393089815 0 0 0
4773 233 3 1.6 3.0544150865031723 32.549068536817956 24.844978695090273 0 0 0
4768 3627 1 -0.8 0.13044234147849104 29.717672068410227 25.464302244246362 0 0 0
4770 3630 1 -0.8 1.5505098089761367 31.93733743328872 24.890533281743547 0 0 0
5638 3631 1 -0.8 1.0034874351979022 31.242538454359213 27.362675533710522 0 0 0
4772 3699 1 -0.8 3.4700359615940704 32.94294010394677 23.340194711521363 0 0 0
4774 3703 1 -0.8 4.052304796033035 31.42330095546738 25.409195083290975 0 0 0
4779 520 3 1.6 5.296011667980103 30.99199794205986 26.35831618860451 0 0 0
4777 519 3 1.6 5.656026942187612 28.273942905792744 24.83857378285529 0 0 0
4776 4357 1 -0.8 5.753284277730486 28.784556993759253 23.309912327322934 0 0 0
4778 4358 1 -0.8 5.725264404168991 29.500119278202007 25.894171544031114 0 0 0
4781 823 3 1.6 7.367316223857068 32.57531285433679 22.240024996837317 0 0 0
3705 5012 1 -0.8 8.858129789147975 33.114229555228945 22.082982161264308 0 0 0
4783 824 3 1.6 7.686726372908129 32.504024284937316 25.22174971888629 0 0 0
4780 4360 1 -0.8 6.451216071194642 32.10396742255133 26.19702845703393 0 0 0
4788 4970 1 -0.8 8.290859912011816 29.14389414934461 24.88022389871857 0 0 0
4784 4971 1 -0.8 8.911850492447485 31.5105426294033 25.471574484288222 0 0 0
5654 4972 1 -0.8 8.056204979621004 30.218089617896414 27.44168679786098 0 0 0
4782 5013 1 -0.8 7.111578403530222 32.16425151442474 23.755408908041108 0 0 0
4787 10021 3 1.6 9.239518132724388 28.07810975905403 24.182927182831655 0 0 0
4789 10022 3 1.6 8.845325918605754 30.03281224612563 26.074170327128336 0 0 0
4794 10021 2 0.4 8.36617986754251 28.017707934858887 23.732077767436493 0 0 0
4795 10022 2 0.4 9.183638148703453 29.08308423327054 25.794283981209205 0 0 0
4791 10021 1 -0.8 10.601827933324172 28.755103212327384 23.780561477958138 0 0 0
4792 10022 1 -0.8 10.000022395483576 29.031726598145465 26.382716825677118 0 0 0
4799 10259 1 -0.8 51.421807436610536 28.65396509803892 22.52879973370458 0 0 0
4797 10259 2 0.4 52.06618314812469 27.927158499022745 22.765430320503885 0 0 0
4798 10260 1 -0.8 50.623857895617135 29.44150214822359 25.409963973544972 0 0 0
4796 10260 2 0.4 51.57071969186367 29.149577757020797 25.355509192131414 0 0 0
4808 2594 3 1.6 53.5801583425685 32.33501991446667 24.558221396560782 0 0 0
4803 8458 1 -0.8 52.83145116732132 28.737224687748164 25.10078105260057 0 0 0
4805 8460 1 -0.8 52.36170382717752 31.320819917777953 24.762242504053237 0 0 0
5661 8461 1 -0.8 52.41303377438607 30.393908151463066 27.127298033610717 0 0 0
4807 9092 1 -0.8 54.22193042543241 31.991416219370585 23.10178779851289 0 0 0
4809 9094 1 -0.8 54.73364513506892 32.026953794171305 25.651493580785584 0 0 0
4804 10260 3 1.6 52.045852806666076 30.00435193370076 25.630041373765284 0 0 0
4766 3626 1 -0.8 0.1297141195931979 27.612126048224695 23.988985171298705 0 0 0
4812 2888 3 1.6 56.38742629358932 28.15945093163781 24.996418100134704 0 0 0
4814 2889 3 1.6 56.018323803137456 31.09600140438163 25.89216479608574 0 0 0
4818 2918 3 1.6 58.61649067421465 32.61130291882429 24.805404427984282 0 0 0
4819 3629 1 -0.8 59.79479229626888 32.12099706644558 25.79682654758621 0 0 0
4811 9589 1 -0.8 56.848770116023694 28.213461859720383 23.44818072142587 0 0 0
4813 9590 1 -0.8 55.743440710071646 29.578833188160182 25.404714808336568 0 0 0
4815 9591 1 -0.8 57.28136923167856 31.721147945541748 25.054073061013966 0 0 0
5669 9592 1 -0.8 56.40072715565138 31.084896524814464 27.459649824850423 0 0 0
4817 9633 1 -0.8 59.122814471311074 32.39364103735546 23.280784114989505 0 0 0
4826 234 3 1.6 2.8629553337310405 35.50921520351451 25.67212452410542 0 0 0
4822 263 3 1.6 0.44024594849151777 37.01440818936915 24.59637379043598 0 0 0
4825 3702 1 -0.8 3.1322578139429 33.91618603878623 25.693955827788248 0 0 0
4824 3704 1 -0.8 1.3589614913616515 35.819604182753984 25.17924499772008 0 0 0
4827 3705 1 -0.8 3.801065046425167 36.32902004632862 24.64257502711296 0 0 0
5680 3706 1 -0.8 3.08972417126582 36.00159436497588 27.18897438649964 0 0 0
4821 3776 1 -0.8 0.6623085230850618 37.23765301913219 23.005459772935982 0 0 0
4823 3778 1 -0.8 0.8102311895419166 38.4103511859941 25.34817483103411 0 0 0
4830 549 3 1.6 5.259369018077667 36.963472710268334 24.349260506518906 0 0 0
4829 4417 1 -0.8 5.382348917531046 37.534413653188864 22.85827314580421 0 0 0
4831 4419 1 -0.8 5.530521545981388 38.20943184336947 25.349813054808784 0 0 0
4842 10039 2 0.4 9.8381003491486 37.17570095311264 22.292221964168633 0 0 0
4834 825 3 1.6 7.4907375941753305 35.54589194600004 25.614845847702863 0 0 0
4832 4418 1 -0.8 6.297226219437589 35.768141124259515 24.565960379952813 0 0 0
4833 5015 1 -0.8 8.05091376040535 34.05295303704099 25.439332655205085 0 0 0
4835 5016 1 -0.8 8.47169909429053 36.77899541313308 25.36683958136567 0 0 0
5689 5017 1 -0.8 6.881943349974368 35.73393446546101 27.10058097206099 0 0 0
4837 5061 1 -0.8 8.69334430401242 37.300839287960876 22.84747510932888 0 0 0
4839 5062 1 -0.8 10.365928885480415 38.37430881407578 24.672687704041874 0 0 0
4838 10040 3 1.6 9.507408334026119 37.10580311454443 24.20647990959187 0 0 0
4843 10040 2 0.4 9.324279481901847 36.179044446267795 24.516439710757105 0 0 0
4841 10040 1 -0.8 10.09456610957322 35.6575863220197 24.1665674113793 0 0 0
4846 10303 1 -0.8 51.32726972574037 34.257226385031856 26.782841573834965 0 0 0
4848 10303 3 1.6 50.546208321669916 35.58504921171777 27.04290537212357 0 0 0
4844 10303 2 0.4 51.46832832527659 35.19191120123895 26.97925447673239 0 0 0
4852 2329 3 1.6 50.96891150721897 36.883402477337334 24.52026257263715 0 0 0
4856 2595 3 1.6 53.52440318217463 35.338713431808635 25.31752213927394 0 0 0
4849 8497 1 -0.8 50.066768402738404 36.140564468429204 25.61408724891211 0 0 0
4851 8547 1 -0.8 50.77284865060354 36.35560082662869 22.995330226988155 0 0 0
4853 8548 1 -0.8 50.71408420460184 38.48554724062799 24.678670604213835 0 0 0
4854 8549 1 -0.8 52.480758515919604 36.500720404113125 24.929845689104372 0 0 0
4855 9093 1 -0.8 53.205907951430525 33.90883043595072 24.63678318204059 0 0 0
4857 9095 1 -0.8 54.92167880151983 35.88093829650919 24.66039442914684 0 0 0
5713 9096 1 -0.8 53.834481144212134 35.25357223890179 26.883947357495444 0 0 0
4864 2919 3 1.6 58.58573201833355 35.64994088726913 25.716446426179562 0 0 0
4860 2948 3 1.6 56.05395482217828 37.017841145058085 24.7200865116801 0 0 0
4865 3777 1 -0.8 59.638556018076294 36.55002679328221 24.87049133281468 0 0 0
4863 9635 1 -0.8 58.3338545410976 34.196625797115566 25.033729977079712 0 0 0
4862 9636 1 -0.8 57.21494545830409 36.499504297261495 25.7159784844763 0 0 0
5722 9637 1 -0.8 59.106373394453755 35.42490563666396 27.233165502818142 0 0 0
4859 9679 1 -0.8 56.569224253376994 37.160223522451226 23.1833947669635 0 0 0
4861 9680 1 -0.8 55.547224239002134 38.46652997705107 25.26056153196211 0 0 0
4866 264 3 1.6 0.47659585786547803 39.98594818470993 25.568250195076914 0 0 0
4870 289 3 1.6 3.021722793799211 41.40319480173555 24.425679741606718 0 0 0
4872 313 3 1.6 3.084513307477725 44.47668228642072 25.349232048211228 0 0 0
4867 3780 1 -0.8 1.5073983007628586 40.97218494864945 24.803614002444853 0 0 0
5728 3781 1 -0.8 0.5542698128019171 40.33560173468064 27.144861632800644 0 0 0
4869 3839 1 -0.8 3.156062325555738 41.26447635407383 22.820402148877882 0 0 0
4871 3842 1 -0.8 3.3411194214080995 42.93849183372045 24.877620480046712 0 0 0
4873 3843 1 -0.8 4.023812135826655 40.38012246869376 25.180502969055947 0 0 0
4874 550 3 1.6 5.509013084380262 39.816151635786554 25.542540927798846 0 0 0
5735 3904 1 -0.8 2.435379075828228 44.50893419472063 26.827609826998682 0 0 0
4882 842 3 1.6 10.115768391209684 39.91673303381223 25.038092613437307 0 0 0
4878 859 3 1.6 7.8212382809444 41.485472394496504 24.084782485384622 0 0 0
4880 883 3 1.6 7.979043979899763 44.21309036336701 25.481210161178634 0 0 0
4875 4420 1 -0.8 6.549185752376271 40.56781687111343 24.554214640262394 0 0 0
5739 4421 1 -0.8 5.782979086777039 40.139035432165876 27.10680971887701 0 0 0
4881 5063 1 -0.8 9.104069927825224 40.54475991711608 23.955596975527524 0 0 0
5750 5065 1 -0.8 9.258864673214767 40.065226980828356 26.412844741048993 0 0 0
4877 5105 1 -0.8 7.494582380183618 42.160699737483625 22.650293401021656 0 0 0
4879 5108 1 -0.8 8.048186732805595 42.62956294375843 25.211719852515927 0 0 0
4885 5620 1 -0.8 10.827194589624257 42.68115900181479 23.54695894011267 0 0 0
5746 5155 1 -0.8 7.546202885283882 44.59284427509098 26.998183668074464 0 0 0
4884 10279 3 1.6 11.154428707396649 42.086435680213555 22.136498546701123 0 0 0
4889 10279 1 -0.8 11.602302783480965 40.67431038490449 22.60782573126945 0 0 0
4891 10279 2 0.4 11.16089033354979 41.437435755005545 23.060846942850358 0 0 0
4883 5064 1 -0.8 11.367008104829033 40.89135739584455 25.311156786977026 0 0 0
4887 5621 1 -0.8 12.021930990986883 43.48655137284663 25.67575339974204 0 0 0
4886 10062 3 1.6 11.840681166335111 42.272241117765596 24.7004523408803 0 0 0
4890 10062 1 -0.8 13.26368225050753 42.33689963691314 24.071487160216993 0 0 0
4892 10062 2 0.4 12.550455073388903 42.79491519424891 24.5849130504652 0 0 0
4896 9994 1 -0.8 47.04515665262545 43.623989466437024 26.701369073011314 0 0 0
4895 9994 2 0.4 47.8243650932042 44.21513989240383 26.714662483940284 0 0 0
4903 8600 1 -0.8 49.61915932856896 41.74043708477619 22.989110721139145 0 0 0
4905 8603 1 -0.8 48.54344060566079 43.160979114013784 24.587976553973032 0 0 0
4904 10249 3 1.6 48.91042002137263 41.63860975486284 24.406592842073938 0 0 0
4901 10249 1 -0.8 47.63656044981604 40.71263522364494 24.290804430729057 0 0 0
4900 10249 2 0.4 49.15721154556617 42.240363182569 23.677527366578506 0 0 0
4908 2330 3 1.6 51.154129301044534 39.87784475953083 25.388785252400012 0 0 0
4912 2620 3 1.6 53.59300875054378 41.510203713995146 24.452712372529305 0 0 0
4914 2634 3 1.6 53.633541420833076 44.47057769127618 25.273675048303513 0 0 0
4907 8550 1 -0.8 49.98773031332499 41.007963389937196 25.41960249338244 0 0 0
4909 8551 1 -0.8 52.35664430235276 40.49000541169349 24.496939602624447 0 0 0
5776 8552 1 -0.8 51.68004763222607 39.62160180471996 26.901914657775055 0 0 0
4911 9144 1 -0.8 54.18568264862584 41.5130164101057 22.94510492837624 0 0 0
4915 9145 1 -0.8 54.71245397470443 40.994275835807514 25.49499653255337 0 0 0
4913 9146 1 -0.8 53.11465495044973 43.0007300848901 24.86101470706732 0 0 0
4916 2949 3 1.6 55.95872655892376 39.98453338944803 25.67143563534219 0 0 0
4920 2974 3 1.6 58.54483737965418 41.27861136207135 24.525970582941778 0 0 0
4922 2998 3 1.6 58.849628241102785 44.22156789622652 25.523075094776292 0 0 0
4923 3779 1 -0.8 59.71413689938933 40.263252619729855 24.990177743058975 0 0 0
4917 9681 1 -0.8 57.1353529145419 40.507490879370756 24.69184423779857 0 0 0
5787 9682 1 -0.8 56.486652562192354 40.05955883275463 27.20183412702021 0 0 0
4919 9717 1 -0.8 58.72269068982363 41.68636527614976 22.971330543511353 0 0 0
4921 9719 1 -0.8 58.6050626616442 42.62057483618587 25.43686557352112 0 0 0
5008 9172 1 -0.8 55.19445689611013 44.56834380867382 24.877933285698305 0 0 0
4926 314 3 1.6 0.5461781425235318 45.817025284198586 24.471833012062607 0 0 0
4928 344 3 1.6 0.548657678672621 48.73155511579411 25.583432973190664 0 0 0
4925 3901 1 -0.8 0.08945920553367386 46.258544421897334 22.997457359055094 0 0 0
4929 3902 1 -0.8 2.0493607613911617 45.23790775033591 24.37922978892819 0 0 0
4931 3903 1 -0.8 4.4679084658244 45.31312758731608 25.384162385692076 0 0 0
4927 3906 1 -0.8 0.45713403201569336 47.11629808030262 25.440511984361663 0 0 0
4930 3977 1 -0.8 2.0733014067703124 49.202243816383564 25.355893767220948 0 0 0
4932 3979 1 -0.8 4.592086010194841 49.477820675272866 24.64770759981051 0 0 0
5798 3981 1 -0.8 0.09789587629994483 49.199102047617295 27.059560479718797 0 0 0
4934 4469 1 -0.8 5.074071954608231 46.04581645522819 22.972064580944743 0 0 0
5805 4498 1 -0.8 5.017908121649834 48.422892214159184 26.975509644915473 0 0 0
4935 575 3 1.6 5.657251074682557 45.8909717416187 24.457949260467718 0 0 0
4937 589 3 1.6 5.698191360912446 48.74106517121289 25.55768699945384 0 0 0
4944 884 3 1.6 10.128296340925703 45.771372942019525 24.044171197797496 0 0 0
4946 914 3 1.6 10.266873341168145 48.50838975682503 25.35842761907978 0 0 0
4938 4470 1 -0.8 6.871526070797452 44.842409992983924 24.4837441531229 0 0 0
4936 4471 1 -0.8 6.1780710837593515 47.339253251051474 24.93389999749261 0 0 0
4939 4497 1 -0.8 6.958593552405602 49.73548466933595 25.744323679849966 0 0 0
4943 5153 1 -0.8 9.667068448246102 45.28332313507222 22.58565330106548 0 0 0
4940 5154 1 -0.8 9.378248637373714 44.92229242138068 25.181845059824568 0 0 0
4945 5156 1 -0.8 9.813979662930356 47.34857360117702 24.325732572249077 0 0 0
5034 5210 1 -0.8 7.5354092025957735 50.18661276063369 23.26788994542127 0 0 0
4941 5213 1 -0.8 9.487673516025986 49.88510390578458 24.990551796357515 0 0 0
5812 5216 1 -0.8 9.856307398573728 48.14145461193487 26.877552713482316 0 0 0
4888 1112 3 1.6 12.610612854344279 44.944975622817395 25.372224453605423 0 0 0
5757 5648 1 -0.8 12.344517794904244 45.71521551194327 26.76188824320267 0 0 0
4893 9965 2 0.4 14.757133083964199 47.03917445292018 22.319987387260948 0 0 0
4894 10071 2 0.4 15.736293615552214 46.66008696705077 25.159726188049625 0 0 0
5045 1133 3 1.6 12.838392287174916 49.97438641155514 24.77959685698357 0 0 0
4955 1134 3 1.6 15.250930409344658 48.84055368205072 25.95068045613086 0 0 0
4947 5157 1 -0.8 11.695022864081272 45.59475301337154 24.231293632572633 0 0 0
4948 5215 1 -0.8 11.853145723569773 48.79827985512533 25.281448444492884 0 0 0
4952 5646 1 -0.8 14.937154268516219 47.1350137478641 23.265085749657068 0 0 0
4949 5647 1 -0.8 14.089542017281802 45.10810176701166 24.804872172961424 0 0 0
4954 5649 1 -0.8 14.741258709005544 47.34770569150579 25.840164073200526 0 0 0
4950 5703 1 -0.8 14.39354629689227 49.60883839569364 24.828775973382914 0 0 0
4953 10071 3 1.6 15.061515516806848 46.346267994533115 24.662683654221837 0 0 0
5760 10067 2 0.4 13.038576174476923 45.14435798669441 27.1080344339041 0 0 0
4957 10071 1 -0.8 16.55839941453235 46.12659136629897 24.99467321177561 0 0 0
5819 5706 1 -0.8 14.878165835398226 49.45213157886574 27.38521932850955 0 0 0
5055 1265 3 1.6 17.716784459618903 50.060948775174715 24.85729752655821 0 0 0
4958 5705 1 -0.8 16.813859885953253 49.048281736566075 25.698945277272873 0 0 0
4959 5985 1 -0.8 19.261931474292723 50.05359654843361 25.241187447147603 0 0 0
4960 9918 3 1.6 20.284663336323938 49.59049632588367 26.353696011314252 0 0 0
4962 9918 1 -0.8 20.838811767001342 48.22702719978031 25.881475661954063 0 0 0
4961 9918 2 0.4 20.554111591099733 49.1422135570558 26.060035319537064 0 0 0
5054 5984 1 -0.8 17.568706573168477 49.750263413284834 23.29757282442181 0 0 0
4966 10109 1 -0.8 24.281995158844865 49.51845594268567 22.41972472173489 0 0 0
4965 9959 1 -0.8 23.74005898727225 49.44986813726405 25.751508987063843 0 0 0
4964 9959 2 0.4 23.20809093431152 50.24820346181977 25.577537241358804 0 0 0
4970 10284 1 -0.8 31.173216803804056 50.92784881221136 24.491095344753642 0 0 0
4977 9963 1 -0.8 33.379276068012274 49.172095103985306 24.960087046695627 0 0 0
4975 10158 2 0.4 33.46659565070934 50.279328202492934 22.531372559243003 0 0 0
4976 10158 1 -0.8 33.44748084989453 49.341029307644405 22.193560396788993 0 0 0
4982 7215 1 -0.8 38.03228258762061 49.8726854643735 24.785587283190914 0 0 0
5837 7217 1 -0.8 36.657642592864484 50.34953216045172 26.7632242881496 0 0 0
4981 10180 3 1.6 36.58768285082174 49.666029311490746 25.342720324633763 0 0 0
4980 10180 1 -0.8 36.30063076011739 48.173200698199494 25.61130193313531 0 0 0
4979 10180 2 0.4 36.57620474373873 49.11187396479197 25.62215753850461 0 0 0
4984 10179 1 -0.8 39.31330783054103 49.42987357181502 22.44964992882712 0 0 0
4989 7644 1 -0.8 42.60861921680551 49.45564947732398 24.904103163480986 0 0 0
5843 7647 1 -0.8 41.651158607034716 49.749953552216994 27.274749888906918 0 0 0
4988 10218 3 1.6 41.23841946022379 49.60037138108326 25.747119116806886 0 0 0
4987 10218 1 -0.8 40.305404580133285 48.42920897479509 25.378408545986385 0 0 0
4985 10218 2 0.4 40.411975035541275 49.40523976494732 25.410268455644452 0 0 0
4899 9994 3 1.6 46.110114433230564 44.83480006243437 27.017573096559993 0 0 0
4906 2368 3 1.6 48.90857248222644 44.56928461367553 25.244797762040296 0 0 0
5772 8650 1 -0.8 49.1932097971531 44.666884209035274 26.81526377687717 0 0 0
4994 2090 3 1.6 46.487265827832296 46.466302907812164 24.792017455718796 0 0 0
4996 2104 3 1.6 46.54913491420975 49.541107293661135 25.494830576546192 0 0 0
4990 7594 1 -0.8 45.58399740183755 45.45658406738224 25.635352232481143 0 0 0
4991 7646 1 -0.8 45.12501342334689 50.24882898040149 25.186904839470184 0 0 0
4993 7949 1 -0.8 46.12633030531069 46.633048293002936 23.238571114424197 0 0 0
4997 7950 1 -0.8 47.96389267176048 45.81080345519283 24.841608250308916 0 0 0
4995 7951 1 -0.8 46.43730707326756 47.93836711165896 25.45172352312595 0 0 0
4998 7977 1 -0.8 47.60238547752613 50.017982395501164 24.373756537951483 0 0 0
5851 7978 1 -0.8 47.142016224886305 49.97130757704436 26.937605380035404 0 0 0
5783 9173 1 -0.8 53.5353012502673 44.692560847163385 26.870965451793356 0 0 0
5003 2369 3 1.6 51.29480169576412 46.15388007361432 24.26397454071583 0 0 0
5005 2399 3 1.6 51.07907180822145 48.908700235719195 25.758228858625333 0 0 0
5125 2650 3 1.6 53.804012583383106 50.062707181043315 24.792669140554565 0 0 0
5002 8648 1 -0.8 51.08537755780871 46.63401921234295 22.741398894204142 0 0 0
4999 8649 1 -0.8 50.35539404968634 44.896716108431725 24.55595728866071 0 0 0
5004 8651 1 -0.8 50.91388206724492 47.3911733028123 25.236949704462972 0 0 0
5006 8652 1 -0.8 52.8187293150959 45.648804909577834 24.512765180264253 0 0 0
5000 8708 1 -0.8 50.21238468850173 49.97322521553368 24.903319084448192 0 0 0
5007 8710 1 -0.8 52.648012112234504 49.31175638351076 25.630175380639866 0 0 0
5858 8711 1 -0.8 50.62723923969752 49.02046293287359 27.299484827561805 0 0 0
5009 9205 1 -0.8 55.098899282724645 49.11394208219111 24.63350885461542 0 0 0
5794 9756 1 -0.8 58.67984811418013 44.73092247997396 27.046316280381912 0 0 0
5012 2999 3 1.6 56.313382304696574 45.67635080906718 24.563203415641897 0 0 0
5135 3028 3 1.6 58.756145060601575 50.0743439618812 24.602591802650476 0 0 0
5014 3029 3 1.6 56.2712767262061 48.512086419510744 25.554008639228122 0 0 0
5017 3905 1 -0.8 60.32470585874666 44.61591908164105 25.006658867958254 0 0 0
5018 3980 1 -0.8 60.256831821522496 49.47018743405945 24.568376454679264 0 0 0
5011 9754 1 -0.8 56.08522864946752 46.247431880291224 23.078677020172584 0 0 0
5015 9755 1 -0.8 57.77026140530382 44.99366746763988 24.612837473781898 0 0 0
5013 9757 1 -0.8 56.18485333637808 46.901030062103516 25.60166369732158 0 0 0
5016 9800 1 -0.8 57.72604114257639 48.898280458337624 24.982445585734276 0 0 0
5865 9802 1 -0.8 56.07322631650343 49.13800819522799 27.02563194817418 0 0 0
5025 343 3 1.6 3.160252068019302 50.2218485135941 24.736221597077158 0 0 0
5024 3974 1 -0.8 2.702114406631986 50.54782861542319 23.228521191057233 0 0 0
5027 373 3 1.6 3.1763309109421054 53.15631108895951 25.952256285007977 0 0 0
5021 374 3 1.6 0.5841475944131694 54.38726937791057 24.91939443704643 0 0 0
5026 3978 1 -0.8 3.2843461075162788 51.56274152882292 25.647959943039982 0 0 0
5020 4051 1 -0.8 0.23832898318165635 54.791714037939144 23.394276090154243 0 0 0
5022 4052 1 -0.8 2.0936705055748144 53.811864653207564 24.949422501269517 0 0 0
5028 4053 1 -0.8 4.606468778601264 53.88406661970262 25.75113207842103 0 0 0
5030 4529 1 -0.8 5.3429922384800825 54.10095544774141 23.265363739469574 0 0 0
5139 4056 1 -0.8 0.45114459063045376 55.663513184441264 25.90072243037383 0 0 0
5035 913 3 1.6 8.01110001292799 50.491049616722954 24.780355243893055 0 0 0
5031 605 3 1.6 5.551373855187233 54.71944502821275 24.734817808381145 0 0 0
5037 943 3 1.6 8.108653600940702 53.488576399857365 25.838457442089343 0 0 0
5041 944 3 1.6 10.74584296431025 54.48663812983963 24.658863811546286 0 0 0
5032 4530 1 -0.8 7.094672628213622 54.55112338490135 25.1689483532975 0 0 0
5036 5214 1 -0.8 7.99345115403884 52.083734604100414 25.042976842802673 0 0 0
5040 5273 1 -0.8 10.123853822998145 54.50833539293362 23.18077552565869 0 0 0
5038 5274 1 -0.8 9.618925595658759 54.03253181700425 25.723454944020833 0 0 0
5884 5275 1 -0.8 7.6835714396895405 53.29147461143198 27.382967826473173 0 0 0
5044 5700 1 -0.8 12.425428736337164 50.29930754711652 23.263273663342396 0 0 0
5047 1163 3 1.6 13.017899255191882 52.8381115750069 25.756103687719587 0 0 0
5051 1164 3 1.6 15.375817753308466 54.5818390298232 24.815405675481294 0 0 0
5042 5277 1 -0.8 11.96884254515006 53.466853278070815 24.71523300313454 0 0 0
5046 5704 1 -0.8 12.709995687012995 51.26186526288935 25.744307105379484 0 0 0
5050 5763 1 -0.8 15.139449686736615 55.007951101002796 23.281505309166 0 0 0
5048 5764 1 -0.8 14.48195903161875 53.29756460127768 25.248605191403964 0 0 0
5892 5765 1 -0.8 12.80052710991962 53.386379671433595 27.263443471105138 0 0 0
5163 5766 1 -0.8 15.04092483519718 55.83720267138803 25.76997596055913 0 0 0
5053 1264 3 1.6 18.140858736223176 50.219794315130855 21.879074396827612 0 0 0
5059 1402 3 1.6 20.738044113689185 54.61041440347563 22.009911905957967 0 0 0
4048 5983 1 -0.8 19.545767887369813 51.005767375457026 22.041628626057122 0 0 0
4963 6267 1 -0.8 21.51458398046287 50.58475464034049 26.365369213111144 0 0 0
5057 1279 3 1.6 17.70541119304344 52.987691973585676 25.73221264403685 0 0 0
5061 1404 3 1.6 20.378747368378068 54.26986083856914 25.06499495059555 0 0 0
5052 5767 1 -0.8 16.923881171446347 54.169414855053205 24.965465892468586 0 0 0
5056 5986 1 -0.8 17.20736606648899 51.57323394400193 25.160627230268794 0 0 0
5058 6012 1 -0.8 19.289145897198246 53.183513634886936 25.52934508106666 0 0 0
5060 6322 1 -0.8 20.141626417860998 54.6261891099449 23.507530610810417 0 0 0
5062 6323 1 -0.8 21.88614588506045 53.73964008471479 25.264087966318478 0 0 0
5171 6326 1 -0.8 20.16498005551098 55.626003891935426 25.914143774989395 0 0 0
5063 10109 3 1.6 23.328175123697903 50.73490765533 22.5477222522103 0 0 0
4967 10109 2 0.4 24.1717771880821 50.50402600252859 22.380208274024675 0 0 0
4061 6264 1 -0.8 24.424469592033955 51.855378978581435 22.272933754280313 0 0 0
4058 6320 1 -0.8 22.018644968029506 55.59760557349068 21.926764392281978 0 0 0
5064 6265 1 -0.8 22.58563804347407 50.83510237171166 23.95738600540012 0 0 0
5065 9959 3 1.6 22.84710117970983 50.686506052752954 25.518614730542666 0 0 0
5067 1403 3 1.6 23.380799473816104 53.536573107796286 25.84630179062499 0 0 0
5071 1490 3 1.6 25.925752636670392 54.83763686936773 24.796685989594163 0 0 0
5066 6268 1 -0.8 23.672782908344846 51.97170549098183 25.941368004003337 0 0 0
5068 6324 1 -0.8 24.4424526832395 54.21021467998313 24.847711738056038 0 0 0
5070 6504 1 -0.8 26.13064038623859 55.5774773847259 23.37596423516992 0 0 0
5072 6505 1 -0.8 27.068552974748037 53.732763298100345 25.018946730810004 0 0 0
5179 6506 1 -0.8 25.980996411164845 55.92531400110285 25.975511460254918 0 0 0
5908 6325 1 -0.8 23.492911863516504 54.09908783430522 27.357082096062157 0 0 0
5079 1597 3 1.6 31.069167720517648 54.96026624277268 22.277584326313278 0 0 0
5074 6720 1 -0.8 29.11237354359985 50.64305060311379 22.864185887747112 0 0 0
5075 10284 3 1.6 29.843574432370982 51.51161928717729 23.974931510506295 0 0 0
4971 10284 2 0.4 30.763415721186878 51.705837974392495 24.063855465663195 0 0 0
4972 10284 1 -0.8 30.283702454932204 52.88664589607768 23.36888380933875 0 0 0
4973 10284 2 0.4 30.793452332618752 53.248333554913984 22.601487508136668 0 0 0
5077 1598 3 1.6 28.3622295578629 53.205147476090985 25.836945266885316 0 0 0
5081 1599 3 1.6 31.120290525475617 54.587227277479144 25.294916182979573 0 0 0
5076 6723 1 -0.8 28.850852299326693 51.822587966475226 25.20068283376807 0 0 0
5080 6768 1 -0.8 31.327652905539143 55.2197302962938 23.82793622610723 0 0 0
5078 6769 1 -0.8 29.582939604907263 54.24683459231977 25.66919855751295 0 0 0
5082 6772 1 -0.8 32.201601190547784 53.45440050266035 25.60473711471165 0 0 0
5093 10179 3 1.6 38.619398236800556 50.71474080915529 21.908776641923 0 0 0
4974 9963 2 0.4 33.758434818009775 50.06952997508951 24.901437197144 0 0 0
5084 6939 1 -0.8 33.49917557650215 51.40066046321139 23.292579474705896 0 0 0
4978 6940 1 -0.8 35.53807925383641 50.325347760616445 24.368989158627873 0 0 0
5085 9963 3 1.6 33.9669064013583 50.544176621107624 24.543358783815414 0 0 0
5087 1689 3 1.6 33.701013995316856 52.993840619431744 25.98063930935983 0 0 0
5097 1808 3 1.6 38.62872637774844 53.80060798275104 25.918006018194543 0 0 0
5091 1809 3 1.6 35.85871841235597 54.876904379870524 24.907121892094388 0 0 0
5086 6941 1 -0.8 33.81377916861944 51.42470727004831 25.850228046462203 0 0 0
5088 6967 1 -0.8 34.81192506172634 53.67312100607148 25.023199961979962 0 0 0
5096 7216 1 -0.8 38.2734617494934 52.31902346178734 25.50997033971702 0 0 0
5090 7272 1 -0.8 36.09804990996924 55.19105377029114 23.348353682696445 0 0 0
5092 7274 1 -0.8 37.282979157658495 54.65275918849677 25.634850087939483 0 0 0
5839 10291 2 0.4 38.64863665117362 51.74797583315965 26.694885051000323 0 0 0
5094 7212 1 -0.8 38.9163066925212 51.61412728918925 23.173204727235085 0 0 0
4983 10179 2 0.4 39.116544824039195 50.372729478518444 22.71532399191906 0 0 0
5095 1787 3 1.6 38.96785710572629 51.13012395907552 24.706015682948056 0 0 0
5105 1959 3 1.6 43.70228927420779 50.511159658224 24.436805181275556 0 0 0
4986 7214 1 -0.8 40.43878578854735 50.84493858911798 25.194470659347576 0 0 0
5104 7642 1 -0.8 43.8869910336778 50.484962260813674 22.83264172434367 0 0 0
5107 1983 3 1.6 43.64757483244991 53.26751120355566 25.69701673753464 0 0 0
5101 1984 3 1.6 41.306510488645365 55.013198962438565 24.770953065760438 0 0 0
5098 7273 1 -0.8 39.87433378697355 54.3115364252065 25.014332795503822 0 0 0
5106 7645 1 -0.8 43.17776169341109 51.96964642780602 24.890270960294302 0 0 0
5100 7702 1 -0.8 41.735728539399965 54.81848960433469 23.23328076068911 0 0 0
5102 7703 1 -0.8 42.479272234592095 54.3822792739067 25.681062518949663 0 0 0
5938 7705 1 -0.8 44.008099796536456 52.93431765464592 27.22698098994021 0 0 0
5930 7275 1 -0.8 39.02495130989959 53.993963656017655 27.453186263134338 0 0 0
5840 10291 1 -0.8 38.982931863466874 51.277220548659464 27.487292512043176 0 0 0
5115 2398 3 1.6 49.03916902801024 50.636097660753954 24.014428829023892 0 0 0
5114 8705 1 -0.8 49.31538250951599 50.3055909392621 22.4640179030039 0 0 0
5111 2120 3 1.6 46.00369086324704 54.95424704762635 24.533703242329068 0 0 0
5117 2428 3 1.6 48.7843108745683 53.59118773371584 25.153853956937304 0 0 0
5108 7704 1 -0.8 45.0027775447611 53.779069635635906 24.969896814672758 0 0 0
5110 8009 1 -0.8 45.671186078993614 55.392348639424924 23.022010449211727 0 0 0
5112 8010 1 -0.8 47.543763150464486 54.45302832593874 24.571408777435234 0 0 0
5116 8709 1 -0.8 48.9927389574719 52.24412098608464 24.270288459273885 0 0 0
5946 8770 1 -0.8 48.49515782578377 53.26477270910009 26.71189622197348 0 0 0
5124 9204 1 -0.8 53.27322560617665 50.41601329466926 23.31599488694719 0 0 0
5121 2429 3 1.6 51.71026120713604 54.7483128684212 24.90366410069028 0 0 0
5127 2664 3 1.6 54.099444229314734 53.02862144492901 25.574877260413377 0 0 0
5120 8768 1 -0.8 52.00296929453286 55.07654578027204 23.354062107201596 0 0 0
5118 8769 1 -0.8 50.13893237450312 54.46375676689495 25.099590483136005 0 0 0
5122 8772 1 -0.8 52.57858154475746 53.4443956597517 25.253043081735083 0 0 0
5126 9206 1 -0.8 54.23533423609262 51.4246392823 25.54778740660319 0 0 0
5128 9232 1 -0.8 55.13325732465412 53.68852294016387 24.541675999930106 0 0 0
5954 9233 1 -0.8 54.440323205826125 53.61130537939111 27.032658105194155 0 0 0
5134 9798 1 -0.8 58.404487744741665 50.641672629954954 23.13987307120106 0 0 0
5137 3058 3 1.6 58.730725605486136 52.881586089921946 25.729014347143494 0 0 0
5131 3059 3 1.6 56.50410777037769 54.534823900735155 24.42644102514958 0 0 0
5138 4055 1 -0.8 60.27261238821334 53.25609362245763 25.427679446459063 0 0 0
5136 9801 1 -0.8 58.60098498582989 51.27634233538583 25.664174155093264 0 0 0
5130 9844 1 -0.8 56.50760161013534 55.17487304000164 22.956032038488363 0 0 0
5132 9845 1 -0.8 57.77845038718059 53.56338651418801 24.618709149577867 0 0 0
5962 9846 1 -0.8 58.27732944108671 53.42641671163095 27.178448017539843 0 0 0
5227 9847 1 -0.8 56.56952251773737 55.69670628338558 25.536739864594733 0 0 0
5142 401 3 1.6 2.9044985255722784 58.785359288654526 21.999317041625197 0 0 0
5144 403 3 1.6 2.768890384027722 59.08852398749377 25.07527489725932 0 0 0
5140 404 3 1.6 0.39339238655091596 57.27392520311986 25.98387050420537 0 0 0
5145 3145 1 -0.8 2.393156330843712 60.4132648056827 25.924569988510175 0 0 0
5143 4119 1 -0.8 2.526496573885113 59.2995359879881 23.489923626442078 0 0 0
5141 4121 1 -0.8 1.8448468277530323 57.85886798459642 25.575852611793543 0 0 0
5146 4122 1 -0.8 4.328707334520152 58.729749443480166 25.304711421162732 0 0 0
5148 619 3 1.6 5.361197864267982 57.566998337309165 25.730406172769598 0 0 0
5147 4531 1 -0.8 5.189533292905188 56.29176692739511 24.75419916650354 0 0 0
5977 4556 1 -0.8 5.045214637583968 57.08452643552696 27.238293502257893 0 0 0
5152 973 3 1.6 8.138510846176697 58.679630447816244 24.852414140604107 0 0 0
5156 974 3 1.6 10.652438252656534 57.23212923577985 25.70797448762963 0 0 0
5149 4555 1 -0.8 6.882274975929218 58.11415567931045 25.691969405955817 0 0 0
5153 4606 1 -0.8 8.688609023380842 60.0419329305756 25.500490103377533 0 0 0
5151 5325 1 -0.8 7.677890900169104 58.96233635013164 23.343069882933378 0 0 0
5154 5327 1 -0.8 9.359593231086608 57.635557424685366 24.840579002634094 0 0 0
5988 5329 1 -0.8 10.17857012905369 56.86856803484537 27.19990690375176 0 0 0
5158 1191 3 1.6 13.069905183985636 58.71550118364192 21.958437369099563 0 0 0
5155 5276 1 -0.8 11.307389857734593 55.939536097874566 25.03470389806448 0 0 0
5160 1193 3 1.6 12.942285991898903 59.1356634265203 24.986755929671144 0 0 0
5164 1194 3 1.6 15.385912545712978 57.39929543376549 25.989609138949987 0 0 0
5157 5328 1 -0.8 11.742951680355851 58.41138546676325 25.779845477144875 0 0 0
5161 5386 1 -0.8 13.122760910639405 60.627270281497054 25.566100615889972 0 0 0
5159 5815 1 -0.8 12.565199963702048 59.19018339980445 23.416988617149347 0 0 0
5162 5817 1 -0.8 14.327022568532588 58.31236323273169 25.171672489464846 0 0 0
4209 6010 1 -0.8 18.054459973203226 57.04065159181479 22.02720005294039 0 0 0
5166 1294 3 1.6 18.158272654916786 58.64940792309234 22.00988225077261 0 0 0
5168 1295 3 1.6 18.019882356144315 58.771723010255144 25.014291913088385 0 0 0
5172 1434 3 1.6 20.496097861070286 57.19606028037203 26.04090688864025 0 0 0
5165 5818 1 -0.8 16.887076885563637 57.703666853765974 25.45944142975271 0 0 0
5169 5865 1 -0.8 17.89451914172077 60.10421003175773 25.91934409984818 0 0 0
5167 6042 1 -0.8 17.804406612588263 59.20299903147395 23.47725086070963 0 0 0
5170 6043 1 -0.8 19.486224506074297 58.09127203296042 25.147579495527854 0 0 0
5176 1433 3 1.6 23.06148370691926 58.56220442042325 25.025181906426948 0 0 0
5180 1504 3 1.6 25.737510502978715 57.49702548237207 26.1836772575729 0 0 0
5177 6086 1 -0.8 22.88516447241515 59.97320948000384 25.800521972986573 0 0 0
5175 6377 1 -0.8 22.711965231650854 58.79253418745481 23.467081936103735 0 0 0
5173 6378 1 -0.8 22.031226369530973 57.46592566157285 25.61350857605514 0 0 0
5178 6379 1 -0.8 24.580036477672287 58.03369884988493 25.188776710644273 0 0 0
5181 6530 1 -0.8 27.137830360350378 58.212505808242895 25.86295617587155 0 0 0
5283 6582 1 -0.8 27.91295083420702 61.0169516858568 27.40540299609375 0 -1 0
5184 1628 3 1.6 28.450145655701263 58.47778139150952 24.96919476769492 0 0 0
5188 1629 3 1.6 31.240576859386945 57.41250403422556 26.09892992149762 0 0 0
5185 6581 1 -0.8 28.635969583236903 60.07083086998023 24.997648830305987 0 0 0
5187 6771 1 -0.8 31.462097840353675 55.83772807739235 26.283706055516173 0 0 0
5183 6820 1 -0.8 28.2454304542199 58.08219110759084 23.424102885404526 0 0 0
5186 6822 1 -0.8 29.73102125909992 57.71429276560148 25.58613649276688 0 0 0
5189 6823 1 -0.8 32.319815872967986 57.967470416294 25.043039647075663 0 0 0
6032 6824 1 -0.8 31.450420802892285 58.08142462789243 27.54266542337837 0 0 0
5193 6870 1 -0.8 33.027306544279696 60.34180505102726 25.782630496237715 0 0 0
5198 1836 3 1.6 38.619119390647406 58.52483966627069 22.434897122431476 0 0 0
5192 1705 3 1.6 33.37129284892724 59.146423530610114 24.78201157329044 0 0 0
5200 1838 3 1.6 38.534699190428604 58.89907911305638 25.467612319415757 0 0 0
5196 1839 3 1.6 35.76096822361205 57.667054198012394 25.94165780935429 0 0 0
5191 6997 1 -0.8 33.24565910353731 59.67042015302948 23.27659500966745 0 0 0
5194 6998 1 -0.8 34.89210442015372 58.69700090733144 25.064871119041822 0 0 0
5201 7041 1 -0.8 38.07134956576726 60.34542293146328 25.996552759332378 0 0 0
5195 7276 1 -0.8 35.23609695826388 56.19262868803447 25.599347765380912 0 0 0
5197 7329 1 -0.8 37.32912013436772 57.839926182332356 25.593933882552975 0 0 0
6043 7330 1 -0.8 35.55939526217499 57.935192722880814 27.514161670370683 0 0 0
4269 7269 1 -0.8 38.74355141312304 56.92603672772537 22.372920027178846 0 0 0
5206 2011 3 1.6 43.51936736409202 58.66893560375422 22.199190322519662 0 0 0
4279 7755 1 -0.8 42.2327691179271 59.64352700505709 22.134434938137005 0 0 0
5199 7327 1 -0.8 38.938476046084006 59.05018725037449 23.91687775180573 0 0 0
5208 2013 3 1.6 43.83137760515943 59.152831801444876 25.168103038196115 0 0 0
5204 2014 3 1.6 41.26460354811368 57.72113517683756 26.227345228132414 0 0 0
5202 7328 1 -0.8 39.82552617081553 58.444051999030044 26.31480417058303 0 0 0
5209 7386 1 -0.8 43.87421925743629 60.74561605635761 24.966206742856208 0 0 0
5203 7706 1 -0.8 41.19430082877069 56.59441623770714 25.083845355436505 0 0 0
5207 7757 1 -0.8 43.93558027578963 58.44535219003013 23.732329584901148 0 0 0
5205 7758 1 -0.8 42.439894077482734 58.77616827894345 25.892602051489146 0 0 0
5214 2456 3 1.6 48.74698422032676 58.974123214434115 22.118729084918776 0 0 0
4294 8034 1 -0.8 47.27492471925299 59.63744240534307 22.15316883886698 0 0 0
5212 2134 3 1.6 46.33574912691345 57.63684804217107 25.967775501634353 0 0 0
5216 2458 3 1.6 48.99375620892688 58.72650590184199 25.0515958222232 0 0 0
5210 7759 1 -0.8 45.11125087431101 58.68327072492711 26.023035516673335 0 0 0
5211 8011 1 -0.8 45.79072013386211 56.191531982718615 25.533109747352857 0 0 0
5213 8035 1 -0.8 47.5066833395475 58.109168919925416 24.978031804020016 0 0 0
6065 8036 1 -0.8 46.96745259428082 57.53814514158363 27.43470734362849 0 0 0
5217 8086 1 -0.8 48.99423353198287 60.00719573637784 26.03059957407394 0 0 0
5215 8820 1 -0.8 49.40144594040531 59.18862702973774 23.568929328855692 0 0 0
5220 2459 3 1.6 51.64915908635142 57.57581021142285 25.875577012645753 0 0 0
5224 2680 3 1.6 54.04947880452005 58.96556153327191 24.6267058614989 0 0 0
5219 8771 1 -0.8 52.11584878695133 56.02994954867221 25.803173743100427 0 0 0
5218 8822 1 -0.8 50.0805254990421 57.64463696073839 25.517321457639653 0 0 0
5221 8823 1 -0.8 52.53921834000244 58.43729043616966 24.845438894883298 0 0 0
6076 8824 1 -0.8 51.81671525590734 58.225012066167096 27.334749010451763 0 0 0
5225 8870 1 -0.8 54.39399867040427 60.13813968866204 25.673817205691527 0 0 0
5223 9262 1 -0.8 54.186613503495266 59.52624475422042 23.131796414230287 0 0 0
5226 9263 1 -0.8 55.0767998642605 57.7478932382932 24.861043200058607 0 0 0
5232 3088 3 1.6 58.673909706111544 58.78323407264807 24.98315283640345 0 0 0
5228 3089 3 1.6 56.16431636505611 57.205552212589936 25.917139956979376 0 0 0
5234 4123 1 -0.8 59.9633806712897 57.80812389249442 24.98580444335924 0 0 0
5233 9297 1 -0.8 59.12533986879879 60.20459247690957 25.59337748056052 0 0 0
5231 9883 1 -0.8 58.1629713295908 58.975269071916806 23.467807963681963 0 0 0
5229 9884 1 -0.8 57.48383768383744 58.14400436053711 25.86899525526723 0 0 0
6087 9885 1 -0.8 55.53314561580923 57.25951967054712 27.398413405370675 0 0 0
5238 3146 1 -0.8 2.455228927320315 0.8416438004837725 27.885813097325716 0 0 0
5235 3231 1 -0.8 0.27304280179169355 4.095649950988068 28.041435295796635 0 0 0
5244 4198 1 -0.8 5.013068986188469 3.986601274031901 27.831557748491193 0 0 0
5239 15 3 1.6 2.778740428596891 0.47851741770455064 29.424376344353576 0 0 0
5241 16 3 1.6 2.864694503518013 3.2674291533256197 30.757464408687493 0 0 0
5236 45 3 1.6 0.4108582405299304 4.702865036267091 29.519121978819193 0 0 0
5240 3149 1 -0.8 2.4737294690616594 1.746881274804056 30.381576045294665 0 0 0
5237 3152 1 -0.8 1.8940706345111717 4.299532928669943 29.998741304374906 0 0 0
5243 3153 1 -0.8 4.397396913598337 3.5392511608759945 30.336946462693437 0 0 0
5242 3154 1 -0.8 2.6632592055384396 3.5550327412734526 32.319335407592355 0 0 0
5245 440 3 1.6 5.292656908825587 4.446991124128478 29.3495226245728 0 0 0
5253 4676 1 -0.8 10.052058892674426 4.029413889675029 27.502966756705963 0 0 0
5248 645 3 1.6 7.868757970476335 0.23969511835041113 29.07516435382895 0 0 0
5250 646 3 1.6 7.862974530233984 3.104429939133082 30.192139224719508 0 0 0
5254 675 3 1.6 10.427015726305749 4.3196102029304635 29.042912483097503 0 0 0
5246 4199 1 -0.8 6.8562351689613825 4.264519213391257 29.707294185112957 0 0 0
5249 4610 1 -0.8 7.57063942753488 1.8027227343711418 29.294077892748263 0 0 0
5252 4612 1 -0.8 9.404669193183963 3.5414502991157004 30.013881084951432 0 0 0
5251 4613 1 -0.8 7.58652149704726 2.7635132068225707 31.74009555118555 0 0 0
5987 4611 1 -0.8 9.39472241075203 61.29446685331187 29.47414329045999 0 0 0
5247 4607 1 -0.8 7.631276646018315 61.28133922446057 27.52535985551903 0 -1 0
5262 5456 1 -0.8 15.101173456168656 4.261639989517708 27.519769455021834 0 0 0
5256 5387 1 -0.8 12.53295950506358 0.6500567748668358 27.722910255236226 0 0 0
5257 1005 3 1.6 13.01271683153228 0.273818930689353 29.21486475614157 0 0 0
5259 1006 3 1.6 13.035532527289574 3.221950710128855 30.319919450540677 0 0 0
5263 1035 3 1.6 15.61953969683431 4.392124404649288 29.038120619366506 0 0 0
5255 4678 1 -0.8 11.948175387694725 3.8519451704478223 29.310037952401167 0 0 0
5258 5390 1 -0.8 13.157147038906368 1.6234488941168432 30.092445182168788 0 0 0
5261 5392 1 -0.8 14.480609043759726 3.8995738999823053 30.069738552817114 0 0 0
5260 5393 1 -0.8 12.55046857951537 3.4887050074817125 31.83611347580179 0 0 0
5265 5866 1 -0.8 17.673836725212468 0.5721758545650223 27.713866601349842 0 0 0
5266 1220 3 1.6 17.974422535788097 61.34258427209237 29.167994960617403 0 -1 0
5268 1221 3 1.6 17.94499286861879 2.7047398796812487 30.165352614701643 0 0 0
5272 1345 3 1.6 20.357021605551292 4.01135080864747 28.98998210914392 0 0 0
5264 5458 1 -0.8 16.933709183371402 3.462046681899481 29.16649351521736 0 0 0
5267 5867 1 -0.8 17.68748318162186 1.122380075959082 30.231644875489593 0 0 0
5270 5869 1 -0.8 19.466613046486557 2.8496162958410434 29.64878235722478 0 0 0
5269 5870 1 -0.8 17.717737461862015 3.3298215863714664 31.621116952041863 0 0 0
5273 6092 1 -0.8 21.936186757489125 3.683902151342309 29.079523988040044 0 0 0
5375 6158 1 -0.8 19.907893865204443 5.3424931475587565 29.80175672684535 0 0 0
5280 6443 1 -0.8 26.043340944895306 5.001827385021606 27.603421561467044 0 0 0
5274 6087 1 -0.8 22.986941775187827 0.5982387413663263 27.485766417112576 0 0 0
5275 1315 3 1.6 23.368484994677324 0.4713435258511764 29.044906228468975 0 0 0
5277 1316 3 1.6 23.25508515981121 3.359781042226175 29.953700192158884 0 0 0
5281 1470 3 1.6 25.949162907710434 4.812420478971029 29.209539661485856 0 0 0
5276 6089 1 -0.8 23.848308882668636 1.9091578041267965 29.57885051376387 0 0 0
5279 6093 1 -0.8 24.435395392158355 4.423155078405694 29.664357940866456 0 0 0
5278 6094 1 -0.8 22.774297544464776 3.3329242389525704 31.496546410828113 0 0 0
5282 6444 1 -0.8 26.99085667004795 3.6368654259804507 29.628275804940863 0 0 0
6016 6090 1 -0.8 22.043743256335897 0.06264444060204628 29.88550283098388 0 1 0
5284 1530 3 1.6 28.385521912985407 0.090173897995381 28.87746245215283 0 0 0
5286 1531 3 1.6 28.51172679701323 3.0690009735219053 29.710561868564383 0 0 0
5290 1560 3 1.6 31.02487741177131 4.774195634537555 28.883301017504728 0 0 0
5285 6585 1 -0.8 28.66483146463911 1.686971874402275 28.88065173421095 0 0 0
5288 6587 1 -0.8 29.537200642228232 4.1644017284262045 29.10970335539955 0 0 0
5287 6588 1 -0.8 28.85297135108629 2.7689334011878124 31.265218355206237 0 0 0
5291 6653 1 -0.8 32.04396949481211 4.1740625193417875 29.982300533933014 0 0 0
6172 6589 1 -0.8 28.364081472769872 4.851442847102117 32.76919705832166 0 0 0
6171 1532 3 1.6 28.467554033364667 3.2410790813613874 32.7645710490226 0 0 0
5292 6871 1 -0.8 34.261775356600445 0.3212300619704414 27.608658722566332 0 0 0
5293 1655 3 1.6 33.75963747598504 0.7556803600730498 29.07389354838463 0 0 0
5295 1656 3 1.6 33.57466188237618 3.6734879713957445 30.032839835010165 0 0 0
5302 1725 3 1.6 38.68588230923607 0.6681851067131229 29.046815220882056 0 0 0
5304 1726 3 1.6 38.27561488159101 3.7020145449923794 29.904386710525394 0 0 0
5299 1755 3 1.6 35.8667816711054 5.207935288523017 28.60364379389338 0 0 0
5294 6872 1 -0.8 33.715164098650405 2.3631508661710026 29.10665109054177 0 0 0
5297 6874 1 -0.8 34.56364300815397 4.827020786878633 29.489073960748584 0 0 0
5296 6875 1 -0.8 33.958137354059375 3.2142279068693647 31.529630688870768 0 0 0
5303 7044 1 -0.8 38.558663048263405 2.1168267118099098 29.739467981070206 0 0 0
5300 7048 1 -0.8 37.02595539355099 4.111926369658795 28.956102210578692 0 0 0
5305 7049 1 -0.8 37.97583271449963 3.878027609285228 31.486213426548534 0 0 0
6042 6873 1 -0.8 34.83898999213116 0.2024779492152798 30.133162325639006 0 1 0
6197 1727 3 1.6 38.32485431172725 3.107758181765154 32.8713718475793 0 0 0
5301 7042 1 -0.8 39.008724431368265 0.9027605984653327 27.49011902917319 0 0 0
5311 1870 3 1.6 43.671449169504044 0.3795090532085288 28.831075729305397 0 0 0
5313 1871 3 1.6 43.55110584039973 3.3284786730675076 29.80183847233944 0 0 0
5308 1900 3 1.6 41.1003256144576 4.9361467666943915 29.042941733136516 0 0 0
5306 7047 1 -0.8 39.5881649868479 4.568910829172855 29.503208512683265 0 0 0
5312 7389 1 -0.8 43.19154210596814 1.865891037032773 29.236215579886682 0 0 0
5309 7392 1 -0.8 42.203565625023366 4.203985705931181 29.965927484980757 0 0 0
6210 1872 3 1.6 43.90548111568775 3.6368577162193216 32.74436789356538 0 0 0
6208 7396 1 -0.8 42.367198941317994 3.211759623326523 32.999652338113506 0 0 0
6200 7051 1 -0.8 39.81053245835281 2.4484660023562754 32.81311251907566 0 0 0
6211 7395 1 -0.8 44.03118229760194 5.222995784407666 32.960864294007976 0 0 0
5314 7394 1 -0.8 44.265887388601676 3.2089461282624243 31.238936586250766 0 0 0
5317 2050 3 1.6 46.03482632908264 4.789608998100959 28.867245347618002 0 0 0
5320 2160 3 1.6 48.84653203805327 0.5560030803783503 28.910448707272312 0 0 0
5322 2161 3 1.6 48.68134221677121 3.4923003987385672 29.864073070259423 0 0 0
5315 7393 1 -0.8 44.59197122156063 4.065963718769657 28.821430774091247 0 0 0
5318 7824 1 -0.8 47.176268579199025 3.741577313300117 29.334510921165016 0 0 0
5321 8090 1 -0.8 48.99518618204662 1.90049371727486 29.795612124633656 0 0 0
5323 8093 1 -0.8 48.83603431511246 4.005060808589302 31.384874759807964 0 0 0
6223 2162 3 1.6 48.7508035862287 3.3247936238134184 32.839781986768436 0 0 0
6221 7794 1 -0.8 47.40075183019238 2.4250207704498217 32.82701337229493 0 0 0
5325 8156 1 -0.8 51.79906910758224 4.831956277765667 27.51563207650591 0 0 0
5326 2190 3 1.6 51.2108060449789 5.007858662633467 28.99273619477148 0 0 0
5329 2485 3 1.6 53.5398214653187 0.7320888274498788 29.058661011962986 0 0 0
5331 2486 3 1.6 53.70602219095148 3.6573307204001524 29.8830478506973 0 0 0
5324 8092 1 -0.8 49.74811316974183 4.326689739908047 28.997203707460883 0 0 0
5327 8158 1 -0.8 52.22477157343812 4.2818157403994075 30.013823152018432 0 0 0
5330 8872 1 -0.8 53.60637929472667 2.340640488034044 28.96270686836211 0 0 0
5333 8874 1 -0.8 54.752812505041376 4.736130339344292 29.318745300428017 0 0 0
5332 8875 1 -0.8 54.298855434194664 3.234367167620743 31.309195760112903 0 0 0
6082 8827 1 -0.8 52.34560818839658 0.25875615094827253 30.04118818636647 0 1 0
6086 8873 1 -0.8 54.96557888955407 0.18904772767716463 29.592847883274054 0 1 0
6236 2487 3 1.6 53.93731475915269 3.2261093650792536 32.86540146700381 0 0 0
5328 8871 1 -0.8 53.25856014953634 0.1403933959392639 27.589533067218206 0 0 0
6234 8097 1 -0.8 52.772416333794396 2.1205477025397657 33.027649714195434 0 0 0
5337 9298 1 -0.8 58.11640954276809 0.18925984985940822 27.607836112902223 0 0 0
5334 9352 1 -0.8 56.789071723593814 4.417189548594176 27.759818597321264 0 0 0
5338 2700 3 1.6 58.55542748253728 0.5143257389292355 29.12392505575667 0 0 0
5340 2701 3 1.6 58.52425903600791 3.282216239112848 30.46464147930866 0 0 0
5335 2730 3 1.6 56.338908036499774 4.99951856502511 29.18200387978163 0 0 0
5342 3232 1 -0.8 59.927536455861805 4.096605394076855 30.40814865431242 0 0 0
5339 9300 1 -0.8 58.51388412129343 2.1070072481501807 29.3651739872902 0 0 0
5336 9302 1 -0.8 57.24728293046643 4.247815468300471 30.274683582220696 0 0 0
5341 9303 1 -0.8 58.413608412046564 2.645573279829241 31.927081130138298 0 0 0
5347 3294 1 -0.8 2.566790013317579 8.615384585816916 28.060176417440136 0 0 0
5344 46 3 1.6 0.4431785843468636 7.507760003197056 30.646339653593824 0 0 0
5348 71 3 1.6 2.9319899038278066 9.028670587541543 29.576004585716966 0 0 0
5343 3233 1 -0.8 0.3157974835767316 6.322120932657373 29.559576558178435 0 0 0
5346 3235 1 -0.8 1.8504291712680834 8.297783971621707 30.526445958781874 0 0 0
5345 3236 1 -0.8 0.3656259769565122 6.861382541683131 32.11424263041708 0 0 0
5349 3297 1 -0.8 2.8887125477047575 10.630931476282212 29.76215376742893 0 0 0
5350 3298 1 -0.8 4.423716108539289 8.534826447214003 29.959323621727098 0 0 0
5352 441 3 1.6 5.324560850180376 7.281676316425183 30.43140333340228 0 0 0
5351 4200 1 -0.8 4.9043850042792645 5.996835126403739 29.55183917246961 0 0 0
5353 4202 1 -0.8 5.077125288568551 6.98973006732416 32.00057839143005 0 0 0
5355 4729 1 -0.8 7.415170126147504 9.142126846694318 28.161463812653267 0 0 0
5360 676 3 1.6 10.43401427725843 7.219879781635127 30.216273173771853 0 0 0
5356 701 3 1.6 7.851847802562156 8.788127298744577 29.674905884116683 0 0 0
5354 4201 1 -0.8 6.890856065015724 7.606503399373307 30.205463982125394 0 0 0
5358 4679 1 -0.8 9.404681673188746 8.34875080696514 29.69643465469278 0 0 0
5361 4681 1 -0.8 10.09848748249687 6.906348713531096 31.760927352482696 0 0 0
5357 4732 1 -0.8 7.653003321746079 10.07502190303352 30.62252429091127 0 0 0
5359 4677 1 -0.8 10.272892416029732 5.906070304539926 29.29818957972735 0 0 0
5363 5509 1 -0.8 12.520813188455413 9.360710288531232 28.16979928411031 0 0 0
5368 1036 3 1.6 15.691993944899558 7.341912550906297 30.11718761796546 0 0 0
5364 1061 3 1.6 13.002459518118004 8.837549324806936 29.613444448137887 0 0 0
5362 4680 1 -0.8 11.96662209050924 7.72064346114335 30.13858968663409 0 0 0
5367 5457 1 -0.8 15.950424300266299 5.949882978456877 29.33144430551809 0 0 0
5366 5459 1 -0.8 14.47973663924633 8.187032061124118 29.45324049593626 0 0 0
5369 5461 1 -0.8 15.285117101048542 7.038638724919843 31.64730358554549 0 0 0
5365 5512 1 -0.8 13.00122941046225 10.099738626966335 30.609217868916243 0 0 0
5371 5920 1 -0.8 17.610668805754774 8.755776923822431 27.571020650470796 0 0 0
5372 1246 3 1.6 18.181244110502025 8.800071708221015 29.08134531695472 0 0 0
5376 1346 3 1.6 20.38203748451655 6.863106241204556 30.06448220507805 0 0 0
5370 5460 1 -0.8 17.05602060281644 8.200092890776077 30.079822141133146 0 0 0
5374 5921 1 -0.8 19.50207778171702 7.86532461129487 29.146200410742562 0 0 0
5373 5922 1 -0.8 18.45630194884138 10.325550686440824 29.50903949967205 0 0 0
5377 6160 1 -0.8 20.188261773294347 7.341832109796799 31.593064225637242 0 0 0
5378 6159 1 -0.8 21.9313898034415 6.829150887075999 29.623341036325332 0 0 0
5380 1371 3 1.6 22.80624910039098 7.885410854974884 28.781753785779216 0 0 0
5384 1471 3 1.6 25.6240000931694 7.692528193020116 30.07924255765689 0 0 0
5381 6207 1 -0.8 22.23703742882147 9.254990895301242 29.327317981260233 0 0 0
5382 6208 1 -0.8 24.374658174564747 7.713542299657504 29.062050121980317 0 0 0
5383 6445 1 -0.8 26.29236092466989 6.199331908841802 29.946957211329423 0 0 0
5386 6446 1 -0.8 26.81941072250091 8.702773986631035 29.72932977956062 0 0 0
5385 6447 1 -0.8 25.128808184276853 7.8609855898585685 31.598347183632185 0 0 0
5481 6236 1 -0.8 22.54822987905763 9.454316163435289 31.93189951652178 0 0 0
5480 10095 3 1.6 22.62997757362813 10.1925707194422 30.523640005738162 0 0 0
5483 10095 2 0.4 23.282677273820905 9.856701111938133 29.885457968521955 0 0 0
5387 6696 1 -0.8 28.086189536747884 7.6769004391267766 27.730758567857947 0 0 0
5392 1561 3 1.6 30.91874384549183 7.58396874969306 30.06922548161327 0 0 0
5391 6652 1 -0.8 30.96853086048023 6.366535058894809 29.01577717000988 0 0 0
5390 6654 1 -0.8 29.40623953472026 8.13976697519778 30.033627780582528 0 0 0
5394 6655 1 -0.8 32.06359289850535 8.63612622839936 29.656497887476768 0 0 0
5393 6656 1 -0.8 31.264712844181062 6.9934962949439585 31.549829699233143 0 0 0
5388 10137 3 1.6 28.244228153383812 8.580007739271041 29.02050406048626 0 0 0
5389 10137 1 -0.8 28.70460635224478 9.817887465892113 28.190024582397776 0 0 0
5484 10137 2 0.4 28.44751774438227 8.84741703119965 27.998323898729662 0 0 0
5396 6923 1 -0.8 33.588127998608364 7.565971028908619 27.862022082626186 0 0 0
5403 7158 1 -0.8 38.77871328886303 8.73192206025375 27.78732654126445 0 0 0
5400 1756 3 1.6 36.179686304623374 7.730752610924054 30.18661425759628 0 0 0
5404 1776 3 1.6 38.624875815653034 9.220979734059675 29.308412055715877 0 0 0
5398 6924 1 -0.8 34.61145928013189 8.073199606156955 30.191233007419 0 0 0
5399 7113 1 -0.8 36.42904265128057 6.6450005064211854 29.02491801536597 0 0 0
5402 7114 1 -0.8 37.142423652357785 8.983653750093312 29.89376721854636 0 0 0
5401 7115 1 -0.8 36.54068428455278 7.006154661102284 31.581775798952364 0 0 0
5397 10151 3 1.6 33.561890612973286 8.56246429620904 29.090191916323345 0 0 0
5395 10151 1 -0.8 34.139694106155105 9.84280963845927 28.404005555616656 0 0 0
5485 10151 2 0.4 33.80253323016379 8.459058186184594 28.147498892585627 0 0 0
5405 7160 1 -0.8 39.0926826946341 10.742621829893517 29.388019218295593 0 0 0
5408 1901 3 1.6 41.16070091383432 7.775181756864286 30.174422331880724 0 0 0
5412 1926 3 1.6 43.72210200572777 9.256171366416746 29.446146035303165 0 0 0
5406 7159 1 -0.8 39.648411269533064 8.306103985339531 30.172754179627272 0 0 0
5407 7458 1 -0.8 41.31678785134457 6.537883884220576 29.132551903387977 0 0 0
5410 7459 1 -0.8 42.17625475792016 8.970615482850128 29.79961039729682 0 0 0
5409 7460 1 -0.8 41.491480849526106 7.225692800331335 31.655257223931223 0 0 0
5413 7507 1 -0.8 44.215193150221104 10.757327181266257 29.750974455741456 0 0 0
5411 7505 1 -0.8 43.94855137835471 8.887188705471413 27.890111245216836 0 0 0
5489 7183 1 -0.8 39.292989197895395 10.827091927217705 31.9145699265677 0 0 0
5419 8209 1 -0.8 49.17988720927943 9.168852053493106 28.123716478115977 0 0 0
5416 2051 3 1.6 46.08264073429333 7.541413295956533 30.473404123427382 0 0 0
5420 2216 3 1.6 48.624822673627364 9.135389805637006 29.64276271275526 0 0 0
5414 7508 1 -0.8 44.636653798482286 8.246431827822299 30.338812967205172 0 0 0
5415 7825 1 -0.8 46.00207237197824 6.029542891794124 29.90099983779399 0 0 0
5418 7826 1 -0.8 47.18294003739504 8.402566558300661 29.655582986775734 0 0 0
5417 7827 1 -0.8 46.52958587689303 7.495244408146762 32.02388257043905 0 0 0
5421 8212 1 -0.8 48.549307776246515 10.624636873084354 30.248496879357685 0 0 0
5422 8159 1 -0.8 49.685375272251974 8.330056397972303 30.545892771322396 0 0 0
5427 8925 1 -0.8 53.967992319007195 8.379216793314018 28.11488810958794 0 0 0
5424 2191 3 1.6 51.17007719706848 7.715150827756412 30.44924496631781 0 0 0
5428 2511 3 1.6 53.799951786500046 8.99260593897542 29.591905241607694 0 0 0
5423 8157 1 -0.8 51.13460052125682 6.573740831394019 29.32266756268596 0 0 0
5426 8160 1 -0.8 52.27072698626636 8.831925048711419 30.072452750659465 0 0 0
5425 8161 1 -0.8 51.54364034901127 7.0802166610806285 31.876983425939812 0 0 0
5429 8927 1 -0.8 54.253106167204 10.539396818366518 29.612970874486738 0 0 0
5430 8926 1 -0.8 54.80557509751393 8.168193068879255 30.536544756516744 0 0 0
5435 9390 1 -0.8 58.91792318841043 8.580975656062845 28.190093488470744 0 0 0
5432 2731 3 1.6 56.34059680863225 7.680730136563932 30.50667169485243 0 0 0
5436 2756 3 1.6 58.79700277131057 9.230495906361682 29.653729688485743 0 0 0
5438 3234 1 -0.8 59.94479952258301 8.558519115884906 30.553569177515513 0 0 0
5431 9353 1 -0.8 56.571133749751404 6.582219086036 29.35103200244199 0 0 0
5434 9354 1 -0.8 57.332854560492045 8.917506304995833 30.245283198522692 0 0 0
5433 9355 1 -0.8 56.6408567625297 7.047192634305593 31.952068598987832 0 0 0
5437 9392 1 -0.8 59.02829317409936 10.827270755639573 29.613225398169458 0 0 0
5439 3356 1 -0.8 0.8666045053102857 12.786167966510883 28.429461713809285 0 0 0
5448 4250 1 -0.8 4.9168904464386385 12.824779002696785 28.074240824225118 0 0 0
5445 95 3 1.6 3.282976265019148 11.806890603982769 30.800695289069747 0 0 0
5440 96 3 1.6 0.9319785188960948 13.398094673639344 29.920373808533064 0 0 0
5442 125 3 1.6 0.49064051844856915 16.256517048294146 30.914547319685294 0 0 0
5444 3357 1 -0.8 2.3766975239998467 13.105131569066266 30.533448050890176 0 0 0
5447 3358 1 -0.8 4.797240519050922 12.295458779694615 30.616673654472933 0 0 0
5446 3359 1 -0.8 3.006049387758034 11.254960525190139 32.28141489429609 0 0 0
5441 3361 1 -0.8 0.6336177327823641 14.977740804122766 29.939644453945945 0 0 0
5443 3434 1 -0.8 0.8035926855087773 15.848499600052127 32.43573312225685 0 0 0
5451 480 3 1.6 5.145684813436523 16.014274107135268 30.37282969200084 0 0 0
5452 4281 1 -0.8 4.875404636165806 15.700967378884226 31.936777674697886 0 0 0
5535 3436 1 -0.8 3.774033438195306 16.424436738221985 29.62861223061471 0 0 0
5457 4777 1 -0.8 9.865111519724167 12.831767835627334 28.040891041263407 0 0 0
5449 466 3 1.6 5.658808288418264 13.066633002704242 29.493127800391182 0 0 0
5454 725 3 1.6 7.9873811917281605 11.647782903993262 30.7237322526377 0 0 0
5458 726 3 1.6 10.446259935291565 12.887889437929593 29.550632842091783 0 0 0
5460 755 3 1.6 9.702642139547086 15.740875863306435 30.78302820885496 0 0 0
5453 4251 1 -0.8 7.133272529662597 12.434163934204095 29.60220150468486 0 0 0
5450 4252 1 -0.8 5.742309680666788 14.663994779419786 29.719782312430343 0 0 0
5456 4778 1 -0.8 9.550038999614259 11.888202298219204 30.45158174882234 0 0 0
5455 4779 1 -0.8 7.624314661237443 12.176067089791765 32.20063339797085 0 0 0
5459 4780 1 -0.8 10.293676999017631 14.377736932767132 30.147809050683396 0 0 0
5461 4839 1 -0.8 9.178818738107967 15.4861870822171 32.274311330321545 0 0 0
5546 4837 1 -0.8 8.516842081774415 16.350062047409942 29.895340158414776 0 0 0
5466 5557 1 -0.8 14.799179621725958 13.08567795023353 27.708834428217322 0 0 0
5463 1085 3 1.6 13.046244345796188 11.722694335610194 30.614255192203878 0 0 0
5467 1086 3 1.6 15.414095217390054 13.119122818818813 29.209166712639124 0 0 0
5462 4781 1 -0.8 11.962727998393884 12.3517434617289 29.5976646270802 0 0 0
5465 5558 1 -0.8 14.51847182026803 12.164592839509567 30.163898697251508 0 0 0
5464 5559 1 -0.8 12.697358516532887 12.209127951283966 32.10285937553862 0 0 0
5468 5560 1 -0.8 15.381773924310473 14.586865043824604 29.85173272656582 0 0 0
5470 5598 1 -0.8 14.636173377847925 14.84666767457931 32.32786537563604 0 0 0
5469 9933 3 1.6 14.522551512876372 15.503246628240396 30.87191163642925 0 0 0
5557 5597 1 -0.8 13.056098590543895 15.649084037321265 30.31252502240554 0 0 0
5562 9933 2 0.4 14.107058966620755 16.399982066750255 30.654297896756585 0 0 0
5475 6234 1 -0.8 20.493121049834212 11.771270802475684 28.110175680584476 0 0 0
5472 1255 3 1.6 18.023167021964937 11.767876309339023 30.128991202329978 0 0 0
5471 5561 1 -0.8 16.901824302718794 12.470748419798285 29.20519074497127 0 0 0
5474 5945 1 -0.8 19.340261037760047 12.67294559529426 30.17571959117236 0 0 0
5473 5946 1 -0.8 17.485104460586893 11.473089328028063 31.626983233611824 0 0 0
5476 9940 3 1.6 20.7721213338744 12.336154395018871 29.56667663326784 0 0 0
5478 9940 1 -0.8 21.68698442734967 13.56283912512593 29.348836234115332 0 0 0
5477 9940 2 0.4 21.112480205321678 12.784683812755668 29.20599704133556 0 0 0
5479 6235 1 -0.8 21.527623730040965 11.33071673688436 30.524946861812925 0 0 0
5482 10095 1 -0.8 24.086907052295988 10.426953403502676 30.040954748840118 0 0 0
6480 10096 1 -0.8 23.463247012999155 11.53996447512069 32.58738522526724 0 0 0
6481 10096 2 0.4 22.795926910608785 10.273886882772318 32.374271813135394 0 0 0
5487 10169 1 -0.8 38.84635896264143 12.96698005862176 30.625457631803553 0 0 0
5493 7549 1 -0.8 42.356593177839585 12.445930339113623 28.130666550358114 0 0 0
5488 10169 3 1.6 39.62105879272443 11.63317831746979 30.583639819733175 0 0 0
5486 10169 2 0.4 39.333467039357956 12.12357523584273 30.61550415832401 0 0 0
5491 7182 1 -0.8 41.16013553194439 11.952986717357454 30.40129376120271 0 0 0
5495 7550 1 -0.8 43.44085114079594 13.16601956857977 30.3421434632271 0 0 0
5497 7552 1 -0.8 44.253285920127084 11.56412202399732 32.24493995981234 0 0 0
5494 10191 3 1.6 42.06074080677938 12.985265764608256 29.576019877996504 0 0 0
5492 10191 1 -0.8 41.308298791651 14.2955805550003 29.27197289004621 0 0 0
5490 10191 2 0.4 41.74615781576139 13.444990230476586 29.045143522931795 0 0 0
5496 1940 3 1.6 44.49539859674479 12.037002488168035 30.723805547250404 0 0 0
5499 7875 1 -0.8 47.055653142044996 12.503709118465817 28.06150437599778 0 0 0
5500 2076 3 1.6 47.01001137428386 13.280474907318107 29.47300958435492 0 0 0
5505 2240 3 1.6 49.328478591527194 11.980543531367466 30.66945154345815 0 0 0
5498 7551 1 -0.8 45.99681354594761 12.552432585136485 30.4910188013862 0 0 0
5504 7876 1 -0.8 48.4935721178966 13.20859795966827 30.083613615121465 0 0 0
5501 7877 1 -0.8 46.611134701737704 14.816111854798383 29.289280693073138 0 0 0
5503 7903 1 -0.8 46.979550664630416 15.30826187807109 31.773304946049112 0 0 0
5506 8259 1 -0.8 49.378535641501415 12.094310636941882 32.272737437376996 0 0 0
5502 10198 3 1.6 46.55062519104104 15.967108443532053 30.398234831991537 0 0 0
5565 10198 1 -0.8 45.10789978819107 16.31118796565375 30.850946274540707 0 0 0
5564 10198 2 0.4 45.95632091153842 15.892622215196408 31.214434808357282 0 0 0
5508 8257 1 -0.8 52.17697258019473 12.52792665246368 27.80942853328844 0 0 0
5509 2241 3 1.6 51.916736308161134 12.982907830072849 29.33132880085026 0 0 0
5511 2270 3 1.6 51.36552311853685 15.92508919256784 30.107841718108375 0 0 0
5514 2525 3 1.6 54.323332951956516 11.77685234814379 30.6455291285022 0 0 0
5507 8258 1 -0.8 50.80670060454716 12.032970467240633 30.022618134259595 0 0 0
5510 8260 1 -0.8 51.495606155487884 14.534061824372314 29.301461086548386 0 0 0
5513 8261 1 -0.8 53.26531682187202 12.886881493638382 30.184875490263543 0 0 0
5512 8319 1 -0.8 51.697133797787785 15.69311059156301 31.67097515387872 0 0 0
5515 8956 1 -0.8 53.89658065398857 11.23581651730182 32.0952811002272 0 0 0
5574 8317 1 -0.8 49.845631395794726 16.398302399453318 29.942611684174146 0 0 0
5517 9427 1 -0.8 56.41712762978551 12.90324986135725 28.167123571343136 0 0 0
5516 8955 1 -0.8 55.757645241063756 12.498754541099316 30.653594966349676 0 0 0
5523 2780 3 1.6 59.06955159591722 12.075934042845748 30.63450895464504 0 0 0
5518 2781 3 1.6 56.61622163736757 13.447475665134874 29.66974435173902 0 0 0
5520 2810 3 1.6 56.225181084186794 16.39252350958108 30.557150113019055 0 0 0
5525 3360 1 -0.8 60.56422203895487 12.622915887033935 30.81587482542451 0 0 0
5522 9428 1 -0.8 58.160666170614476 13.285696810024346 30.080511913843196 0 0 0
5524 9429 1 -0.8 58.5102646805507 11.57138880444895 32.054710816440675 0 0 0
5519 9430 1 -0.8 56.14963690094458 14.994759814207656 29.7416608271036 0 0 0
5521 9474 1 -0.8 56.625424654803126 16.023066616475543 32.074228326458545 0 0 0
5530 3429 1 -0.8 2.2292173158366855 17.670413182124015 27.89993669853569 0 0 0
5526 3506 1 -0.8 60.71868985410911 22.374403532126394 28.017234155737356 -1 0 0
5531 126 3 1.6 2.7407056828119103 17.646474160828735 29.426267829303303 0 0 0
5533 155 3 1.6 3.022448695367953 20.576684491305564 30.1589950459607 0 0 0
5527 156 3 1.6 0.5243014210729801 22.156522038531275 29.51873518501347 0 0 0
5528 3433 1 -0.8 1.5105795266033843 17.411492679887854 30.439451973537622 0 0 0
5532 3435 1 -0.8 3.4260914047958124 19.069844090796106 29.755122953888307 0 0 0
5529 3507 1 -0.8 1.612028048803319 20.967564228030696 29.4876641698691 0 0 0
5536 3508 1 -0.8 4.106293820401021 21.64423837561845 29.640967406545244 0 0 0
5534 3509 1 -0.8 2.8503833013786584 20.664492541407835 31.763433809355078 0 0 0
4733 10005 2 0.4 10.433171964864705 21.57860759288031 27.71525232028616 0 0 0
5541 4834 1 -0.8 7.7377149316726355 18.23400355832915 28.284384800072957 0 0 0
5548 4894 1 -0.8 9.181787547905223 21.44451259487878 28.13021415469354 0 0 0
5538 496 3 1.6 5.665753287794769 22.06569841104936 29.60765415748823 0 0 0
5542 756 3 1.6 7.6624215447498205 17.707796529003794 29.80402913630653 0 0 0
5544 782 3 1.6 7.7863347203237785 20.421371172851263 31.149280690411917 0 0 0
5549 783 3 1.6 9.948826259538858 21.610236172217814 29.531125376262292 0 0 0
5539 4280 1 -0.8 6.15495872772753 17.266772629993262 30.214918847152475 0 0 0
5540 4311 1 -0.8 6.474754652069848 20.843061421490997 30.284040716081194 0 0 0
5543 4840 1 -0.8 8.158989810156205 18.88762246393045 30.78680418912982 0 0 0
5547 4895 1 -0.8 8.912075168809144 21.466822937352976 30.7441790004084 0 0 0
5545 4896 1 -0.8 7.50923348021701 20.56928395551051 32.721528980521555 0 0 0
5550 4838 1 -0.8 10.814797107979963 16.862051959303557 30.8486971829463 0 0 0
5551 4898 1 -0.8 10.821512982569693 20.261146839716226 29.681527939193288 0 0 0
4682 9985 1 -0.8 13.726645802962235 17.084861654359507 27.731254766538616 0 0 0
5552 5596 1 -0.8 11.572021233931668 16.70285703317523 28.48468926876815 0 0 0
4681 9985 2 0.4 12.777252318923084 16.935304621513843 28.018751573809638 0 0 0
5553 1103 3 1.6 12.16229937238123 16.931641003148282 29.999969681037204 0 0 0
5554 5599 1 -0.8 12.657260830512657 18.439461546568474 29.925627157332038 0 0 0
5556 5613 1 -0.8 11.551095381132654 19.44732069026109 31.879580923998255 0 0 0
5558 9993 1 -0.8 12.487070827453682 17.097806248249423 32.422489246974905 0 0 0
5560 9993 2 0.4 11.788452551200194 16.992086479575047 31.731039953005126 0 0 0
5555 10057 3 1.6 12.1232263100986 19.830132741132164 30.454399255950833 0 0 0
5559 10057 1 -0.8 13.122573192303625 21.042344376751235 30.443683059510093 0 0 0
5561 10057 2 0.4 11.233407341242968 19.81379661450247 30.43107633481681 0 0 0
5563 9933 1 -0.8 14.891818155263259 17.001119981215364 30.76937842800708 0 0 0
6575 9993 3 1.6 12.431253921837229 18.58690631638618 32.88879600008651 0 0 0
6577 9993 1 -0.8 13.842370828231369 19.210244931062853 32.75573443152853 0 0 0
6576 9993 2 0.4 12.9758170718601 18.84420891151541 32.50846103336308 0 0 0
5569 8314 1 -0.8 48.69737687034396 17.155629632223672 27.644859585037526 0 0 0
5570 2271 3 1.6 48.843383894784616 17.44732373103746 29.23673825215334 0 0 0
5568 7902 1 -0.8 47.424793080287166 17.229708156967522 29.953706239467827 0 0 0
5571 8320 1 -0.8 49.52988176870519 18.878052243083616 29.414384272492896 0 0 0
5572 10228 3 1.6 49.69325281850817 20.239958171338326 30.21199805815483 0 0 0
5567 10228 1 -0.8 48.37169443873073 20.616588585380946 30.947454821572624 0 0 0
5566 10228 2 0.4 49.31753617350705 20.363348380022167 31.21377480276902 0 0 0
5585 8986 1 -0.8 54.80119533921707 17.161194320202238 30.578807112826276 0 0 0
5580 8985 1 -0.8 54.53076844640112 17.669034186244485 28.079353501944542 0 0 0
5573 8379 1 -0.8 50.510698246076906 20.09434869181328 31.560035150799337 0 0 0
5581 2541 3 1.6 53.79208775120743 17.844177918571543 29.515310883957866 0 0 0
5583 2555 3 1.6 53.754394552251334 20.818966364915234 30.63531537007241 0 0 0
5578 8318 1 -0.8 52.392152863390606 17.02536306974945 29.50357225153007 0 0 0
5575 8378 1 -0.8 50.309304086131455 21.36004266630979 29.278023211187094 0 0 0
5579 8381 1 -0.8 52.602771949686755 21.90530827381325 30.3431205112637 0 0 0
5582 8987 1 -0.8 53.529834225357654 19.413748947036733 29.840457531251857 0 0 0
5584 9016 1 -0.8 53.83486870216429 20.469213451757856 32.21861834735255 0 0 0
5586 9015 1 -0.8 55.1489801973111 21.490853807689412 30.11902661437132 0 0 0
5591 9471 1 -0.8 59.410062541263116 17.161869546392996 28.246319804776768 0 0 0
5587 9517 1 -0.8 56.08601432207492 21.890680294064524 27.5950529180859 0 0 0
5592 2811 3 1.6 58.91084893938247 17.659135702076703 29.698851010904125 0 0 0
5594 2840 3 1.6 58.811988122405076 20.641160054760416 30.449103126132343 0 0 0
5596 3432 1 -0.8 59.71817536252334 16.838385463295854 30.82038624649035 0 0 0
5597 3510 1 -0.8 60.03355271997013 21.695692304600605 30.472584846145185 0 0 0
5589 9473 1 -0.8 57.335113221428344 17.375752359260147 29.90239705718349 0 0 0
5593 9475 1 -0.8 59.27195787922159 19.223801404983405 29.83573143347473 0 0 0
5590 9518 1 -0.8 57.65767448839045 21.22879461257487 29.508416787645555 0 0 0
5595 9519 1 -0.8 58.30190291871334 20.398898936504974 31.95497836867174 0 0 0
5588 2841 3 1.6 56.32955697099073 22.082431871623825 29.178555541876253 0 0 0
5599 180 3 1.6 0.8842009196751245 25.140827664005116 30.165998287240907 0 0 0
5603 181 3 1.6 3.3193396583802213 26.540755002531924 29.105225664990854 0 0 0
5598 3511 1 -0.8 1.1699574677501836 23.552300494544006 30.009804979733342 0 0 0
5601 3570 1 -0.8 1.7931026548138986 26.01462571556224 29.162347685967724 0 0 0
5600 3571 1 -0.8 1.2320957396037076 25.52572660938977 31.7005725983309 0 0 0
5604 3573 1 -0.8 4.145237074969752 25.471962163807188 30.011804372079812 0 0 0
5606 505 3 1.6 5.662831440776447 25.034908929854385 30.413865533643786 0 0 0
5605 4312 1 -0.8 5.847462463296562 23.43294231222762 30.439171222640773 0 0 0
5607 4330 1 -0.8 6.054749328654262 25.590074911471092 31.876197331413284 0 0 0
5537 4310 1 -0.8 6.0808620178577 22.332131006186117 28.070895356197862 0 0 0
5609 4934 1 -0.8 7.853432445666208 27.151830956420426 27.47242280734363 0 0 0
5610 801 3 1.6 7.871734774606278 26.4754964915645 28.93125157599958 0 0 0
5608 4329 1 -0.8 6.502551737380788 25.70033376861351 29.232698748396608 0 0 0
5612 4897 1 -0.8 10.428155227199943 23.1548350466102 29.604195944560384 0 0 0
5611 4935 1 -0.8 8.927589373987903 25.26936281639502 28.861514097822777 0 0 0
5614 4936 1 -0.8 8.813029140073407 24.61543513160241 31.04928764306148 0 0 0
5613 10011 3 1.6 9.94171374284697 24.650386290248694 29.91971385861967 0 0 0
5615 10011 1 -0.8 11.065006442087672 25.768952713783143 29.991074491729226 0 0 0
5616 10011 2 0.4 8.840563150770807 24.985474381431292 29.797558072139132 0 0 0
5650 4937 1 -0.8 7.939780372734499 27.643900461316296 30.067264870998237 0 0 0
6645 4938 1 -0.8 8.63801918196658 26.100250978018597 33.15899166910397 0 0 0
6644 9941 3 1.6 9.183046794975995 24.727350061815915 32.56930564399421 0 0 0
6647 9941 2 0.4 9.815413959836462 24.552347220768688 31.82575565342993 0 0 0
6646 9941 1 -0.8 10.699041993482279 24.491522021508917 32.30051171443799 0 0 0
6650 10233 1 -0.8 48.886843934628324 24.27490712582755 32.919145993311865 0 0 0
5577 2293 3 1.6 51.48327979031012 22.438375048031343 29.286385009731347 0 0 0
5576 8377 1 -0.8 52.21334282287432 22.54746587226078 27.860187562442313 0 0 0
5628 9045 1 -0.8 54.77810549526252 26.60568117924314 27.679726697899813 0 0 0
5622 10300 3 1.6 50.77308323601342 27.245078253866804 27.892890195503426 0 0 0
5620 10300 1 -0.8 52.28654933392465 27.596474860835517 27.741246957055345 0 0 0
5618 10300 2 0.4 52.58119569076336 26.799097605786077 28.21271341786334 0 0 0
5625 2305 3 1.6 51.48164648098135 25.36479986491615 29.842658688173135 0 0 0
5629 2571 3 1.6 54.02652099816967 26.49365278335332 29.086899677617975 0 0 0
5624 8380 1 -0.8 50.92299894682219 23.879976057055043 29.69440483591303 0 0 0
5623 8422 1 -0.8 50.53732632006662 26.509854671984623 29.296665256642704 0 0 0
5627 8423 1 -0.8 52.78236438839586 25.51781516287505 28.914081081410277 0 0 0
5626 8424 1 -0.8 51.92026734643573 25.62536054799187 31.363920101003902 0 0 0
5630 9047 1 -0.8 55.016241211743896 25.646319137343312 30.106484299213747 0 0 0
6657 8382 1 -0.8 51.21837387554474 23.480572919845823 32.692452685459976 0 0 0
5665 9046 1 -0.8 53.71898831250847 27.83823748803231 29.915005357843263 0 0 0
6659 2306 3 1.6 51.93962847143464 24.90167155561258 32.78454718298487 0 0 0
5635 9554 1 -0.8 58.303629485071035 26.1882454115099 27.933045448280957 0 0 0
5632 2865 3 1.6 56.37199537121572 24.892608385423692 30.506809026418907 0 0 0
5636 2866 3 1.6 58.78772927237563 26.395087774932623 29.458923892484137 0 0 0
5637 3569 1 -0.8 60.0535459458642 25.442732228589783 29.810653424861393 0 0 0
5631 9520 1 -0.8 56.6001094607474 23.64324822755036 29.504678457945758 0 0 0
5634 9555 1 -0.8 57.5783979541409 25.964115779995762 30.42257093163207 0 0 0
5633 9556 1 -0.8 56.35027202613729 24.3252190004183 32.01997667428107 0 0 0
5646 4361 1 -0.8 4.786501048100675 31.01595358624593 27.889718163602776 0 0 0
5643 205 3 1.6 2.7802926059503297 29.37017652812508 30.35646656469235 0 0 0
5639 206 3 1.6 0.5454636831125432 30.969379203450824 28.880102084369803 0 0 0
5642 3572 1 -0.8 3.431532585417135 28.021308602559465 29.744954036699166 0 0 0
5641 3632 1 -0.8 1.4641696459730609 29.803517470884255 29.527077471365896 0 0 0
5645 3633 1 -0.8 3.850462510623181 30.574847691091254 30.28632745154514 0 0 0
5644 3634 1 -0.8 2.413292694589382 29.096140031438864 31.899740715481755 0 0 0
5640 3635 1 -0.8 0.7023677324640102 32.36463503460359 29.679545234897926 0 0 0
5647 521 3 1.6 5.173684345864032 31.015416630144056 29.45755943385769 0 0 0
5651 810 3 1.6 7.571362581398563 29.188074539300317 30.442567880302274 0 0 0
5648 4362 1 -0.8 5.563713521502447 32.529823998124364 29.92824116609432 0 0 0
5649 4363 1 -0.8 6.259956711909747 29.820293991450136 29.679841938840088 0 0 0
5653 4973 1 -0.8 8.772951405398478 30.106296321054412 29.927883439290508 0 0 0
5652 4974 1 -0.8 7.256780197662891 29.475378891486308 31.995114416769827 0 0 0
5656 4975 1 -0.8 8.061492215052706 32.40291272604028 28.94534860508202 0 0 0
5655 10023 3 1.6 8.733754562444847 31.006109175920056 28.626880205782573 0 0 0
5658 10023 2 0.4 9.156029136930965 30.926040261767994 27.767868194865365 0 0 0
5657 10023 1 -0.8 10.081418098333456 31.283335896368012 27.911465018504163 0 0 0
5697 10031 1 -0.8 10.025065036143742 33.10818669746413 30.380914060398876 0 0 0
5617 10300 2 0.4 50.99725819428308 28.197892317197546 27.84567151558202 0 0 0
5619 10300 1 -0.8 50.133746403453586 28.647808719864393 27.955781804904216 0 0 0
5660 10261 1 -0.8 50.29580123921454 31.512354428194435 28.26043574899209 0 0 0
5659 10261 2 0.4 51.22432985804751 31.82658956169863 28.50459374735411 0 0 0
5666 2580 3 1.6 53.50534655948144 29.411794510880654 30.159489985423257 0 0 0
5663 8462 1 -0.8 52.31585667690687 32.379442495219436 28.88148137436477 0 0 0
5664 8463 1 -0.8 52.086598505452244 29.966644724860743 29.67513861871178 0 0 0
5668 9064 1 -0.8 54.65767881161674 30.22104887146537 29.328980157456172 0 0 0
5667 9065 1 -0.8 53.71521548955917 29.690265717312094 31.763320581352964 0 0 0
5662 10261 3 1.6 51.73048289694589 30.94846309874693 28.448528530421235 0 0 0
5674 2890 3 1.6 58.79372664458733 29.522559147713324 29.869629565073684 0 0 0
5670 2891 3 1.6 56.110637825056145 30.852774444843565 29.033183031345068 0 0 0
5676 3636 1 -0.8 59.730778880876386 30.45507106032039 28.93609069506346 0 0 0
5673 9557 1 -0.8 59.16445685260835 27.95766071534254 29.65308381368819 0 0 0
5672 9593 1 -0.8 57.235394446985275 29.804792935175442 29.57051289543806 0 0 0
5675 9594 1 -0.8 59.090018232014906 29.88381780298188 31.414402017580546 0 0 0
5671 9595 1 -0.8 56.28328803053335 32.295694337472845 29.764736490104617 0 0 0
6744 2892 3 1.6 58.79396508185797 29.417204727507354 32.929461564419206 0 0 0
6751 3715 1 -0.8 59.995312409985424 32.97577083082393 32.92149459364037 0 0 0
6741 9597 1 -0.8 57.37399160696798 28.636180062134688 32.98854113152984 0 0 0
5677 235 3 1.6 0.5001785100326703 33.958966102412745 29.869143796621124 0 0 0
5681 236 3 1.6 2.8376092836884754 35.52775983934091 28.71246134576262 0 0 0
5683 265 3 1.6 2.7852368852229428 38.47263601407584 29.657715127875182 0 0 0
5679 3708 1 -0.8 1.3814639451547088 34.83784466253417 28.84064350951034 0 0 0
5678 3709 1 -0.8 0.9467614208749655 34.304132897626154 31.3819755654208 0 0 0
5682 3710 1 -0.8 2.9421631311146146 36.86187731225961 29.61699177627493 0 0 0
5685 3711 1 -0.8 3.8819400497906034 34.40332804835332 29.209104918647906 0 0 0
5686 535 3 1.6 5.212210193459244 34.11862388410188 30.098335190900887 0 0 0
5687 4390 1 -0.8 4.8994458255433075 34.34456305406676 31.6729721499204 0 0 0
5733 3782 1 -0.8 1.279942602716882 38.88853980451152 29.246953171490823 0 0 0
6761 267 3 1.6 2.8634009547760404 38.38674617977045 32.68841979257367 0 0 0
6759 3788 1 -0.8 1.435532558661544 37.61675626577866 32.77336057382758 0 0 0
6763 3789 1 -0.8 4.058577373170555 37.38799682454385 33.098593517244446 0 0 0
5684 3784 1 -0.8 3.069748662261179 38.931371569991974 31.178921342659034 0 0 0
6752 238 3 1.6 0.4199834565390283 34.120112724788996 32.894077096166185 0 0 0
5690 826 3 1.6 7.418604844187279 35.879552005947694 28.608143705236763 0 0 0
5692 843 3 1.6 7.740926452534911 38.86809058506897 29.66272724396762 0 0 0
5688 4389 1 -0.8 6.242041818219723 35.27870206471311 29.57407589926049 0 0 0
5694 5018 1 -0.8 8.682849723308234 34.90475624765799 28.772295173818108 0 0 0
5696 5019 1 -0.8 8.109247228968496 34.100068148565335 31.08496301084823 0 0 0
5691 5020 1 -0.8 7.829741052358146 37.40612673747663 28.966140986979504 0 0 0
5693 5067 1 -0.8 8.260498965929624 38.86175153410103 31.185447757347507 0 0 0
5695 10031 3 1.6 8.719198672792984 33.622613962173745 29.708629409542052 0 0 0
5699 10031 2 0.4 9.128244777867419 33.546798152052965 30.61009743272547 0 0 0
6773 844 3 1.6 7.9802601202117796 38.82818932152062 32.770832719499126 0 0 0
6776 9986 3 1.6 9.017623314716541 34.683114145201706 32.245994471260204 0 0 0
6784 9986 1 -0.8 10.21134199478519 35.542679247328564 31.6800992822941 0 0 0
6771 4424 1 -0.8 6.604716678100899 37.983002217094196 32.97357129308725 0 0 0
5704 8498 1 -0.8 49.3256145188986 35.40433893476222 28.03575332727393 0 0 0
5708 8554 1 -0.8 49.41320857623046 38.84833746339301 31.154619078043204 0 0 0
5707 9902 3 1.6 49.300802892539814 37.939313846495914 29.85577098049646 0 0 0
5703 9902 1 -0.8 47.85701143635032 37.508685121133 29.491673982371896 0 0 0
5701 9902 2 0.4 48.79211057856641 37.295303167544105 29.713397396545627 0 0 0
5705 10241 3 1.6 49.32741156686769 35.173011651605954 29.614518306903904 0 0 0
5702 10241 1 -0.8 47.9690736791867 34.905942989153395 30.30067389551289 0 0 0
5700 10241 2 0.4 48.876183589723794 35.1249475298967 30.019220299903548 0 0 0
6790 10251 3 1.6 48.93932937897938 38.52539522631483 32.624548479921316 0 0 0
6788 10251 1 -0.8 47.477051266226646 38.04644705105642 32.44465728702824 0 0 0
6787 10251 2 0.4 48.40539035863293 38.286406977196336 32.254715498997214 0 0 0
4847 10303 1 -0.8 51.62124230409014 36.58138967764223 27.61397186963694 0 0 0
4845 10303 2 0.4 51.94041071173499 35.96049041301148 28.31290605825006 0 0 0
5706 8502 1 -0.8 49.93304650193055 36.52654600703947 30.17449042530431 0 0 0
5710 2318 3 1.6 51.729643798408986 33.608279558983696 29.708278080918973 0 0 0
5714 2596 3 1.6 53.604426227264824 35.408938577610144 28.457525011067556 0 0 0
5716 2610 3 1.6 53.69365568233154 38.267172564020605 29.627608449708806 0 0 0
5709 8499 1 -0.8 50.17412142655888 33.85759276047496 29.814770749141015 0 0 0
5712 8500 1 -0.8 52.26051759632206 35.010016571188785 29.172256503929177 0 0 0
5711 8501 1 -0.8 52.19741113929247 33.49855363790307 31.250109023644487 0 0 0
5715 9097 1 -0.8 54.07755263282102 36.852368226910976 28.983366842261947 0 0 0
5718 9098 1 -0.8 54.64819400815315 34.29994149386043 29.11224768075064 0 0 0
5717 9125 1 -0.8 54.06194045016158 38.27685101716315 31.214378924444894 0 0 0
5774 8553 1 -0.8 49.84773770833804 38.7462694456739 28.597635891708148 0 0 0
5781 8556 1 -0.8 52.189558957141095 38.74851464177864 29.452841184546372 0 0 0
6791 10271 1 -0.8 50.11269211246087 34.366958710624104 32.6755964295684 0 0 0
6789 10271 2 0.4 50.96357077531083 34.887318468562 32.61164350039509 0 0 0
6803 2611 3 1.6 53.814549907503434 38.35890463757771 32.8124831748325 0 0 0
6795 8503 1 -0.8 51.982413913554744 35.71846033598344 32.66923957520246 0 0 0
6794 10271 3 1.6 51.65283011795173 34.17738549403642 32.58087465748385 0 0 0
5719 2920 3 1.6 56.052953343636624 33.908091418180135 29.76300363934713 0 0 0
5723 2921 3 1.6 58.66806667968644 35.32812785090222 28.79246453900605 0 0 0
5725 2950 3 1.6 58.53936364577611 38.41253237307913 29.741377681624602 0 0 0
5727 3707 1 -0.8 59.67820225692919 34.3756002841202 29.62880861698344 0 0 0
5721 9638 1 -0.8 57.20522095087994 34.65745964765383 28.898662448937074 0 0 0
5720 9639 1 -0.8 56.11600131115103 34.40547843926444 31.304825805070188 0 0 0
5724 9640 1 -0.8 58.68940163282088 36.829409079110874 29.416349028203268 0 0 0
5726 9684 1 -0.8 58.95597780609288 38.67022707835077 31.282917683134254 0 0 0
5792 9683 1 -0.8 57.023850293084315 38.90846274641708 29.52115089766887 0 0 0
6815 2952 3 1.6 58.462025903132734 38.555258540567735 32.81665369450981 0 0 0
6813 9687 1 -0.8 57.27002071060495 37.46449672670487 32.91472415452586 0 0 0
6806 2923 3 1.6 56.12461189856449 33.86378456153956 32.82913007739922 0 0 0
5729 266 3 1.6 0.23312430074512713 39.9861670706295 28.687233355056765 0 0 0
5731 290 3 1.6 0.6827097816836678 42.93410772596145 29.706751899341494 0 0 0
5736 315 3 1.6 2.9196970156767557 44.48556083485253 28.359263016826386 0 0 0
5737 3783 1 -0.8 3.7979026657794224 39.215753459766894 28.638281558416363 0 0 0
5730 3785 1 -0.8 0.33727427679587957 41.35619753139701 29.550271728858558 0 0 0
5734 3845 1 -0.8 2.146520853538323 43.29940079380323 29.149145000379633 0 0 0
5732 3846 1 -0.8 0.577673432254317 43.323750493241256 31.26999316500271 0 0 0
5738 3908 1 -0.8 4.477061093655618 44.078634523799174 28.354832799159425 0 0 0
5740 551 3 1.6 5.175942770741119 40.06764447337754 28.607304799696596 0 0 0
5741 4422 1 -0.8 4.920111778451767 41.580736994625184 29.113909563797936 0 0 0
5743 4450 1 -0.8 4.807209977308259 43.56348721702544 30.834759390999217 0 0 0
6818 292 3 1.6 0.1786335299713023 42.792970321390136 32.74128193450015 0 0 0
6828 3848 1 -0.8 3.773928873780166 41.93340394509871 32.65383888387038 0 0 0
6829 566 3 1.6 4.957805151517783 42.97543109388472 32.31671566095206 0 0 0
5742 565 3 1.6 5.297112510344032 43.13127001478254 29.363315100190423 0 0 0
5698 10041 2 0.4 10.210075324298748 39.93921825800403 27.448615006552817 0 0 0
5753 860 3 1.6 10.488366843147235 43.245889398460676 29.08871595878756 0 0 0
5744 4423 1 -0.8 6.189409712941379 39.32058775883534 29.608534416265872 0 0 0
5745 4449 1 -0.8 6.870031510085184 43.40650077557113 29.201600327020916 0 0 0
5748 5066 1 -0.8 8.55221893969107 40.03105180509698 28.89404935756238 0 0 0
5752 5068 1 -0.8 10.066690794176472 42.02764441925369 28.09573933758795 0 0 0
5749 5109 1 -0.8 9.327087553052177 44.36490789239815 28.945848261067844 0 0 0
5754 5111 1 -0.8 10.536355780943042 42.76452576424207 30.65290339840585 0 0 0
5751 10041 3 1.6 9.69320287973583 40.477754720464546 27.871904211557975 0 0 0
5756 10041 1 -0.8 10.953869830993739 39.577003483215485 27.994437001937236 0 0 0
6840 862 3 1.6 10.386698427682497 43.2278364135785 32.212122677080856 0 0 0
6832 4452 1 -0.8 6.368090371797272 42.19415765819786 32.325684059460045 0 0 0
6839 5112 1 -0.8 8.90698301453088 42.7768693192088 32.75857403497234 0 0 0
5747 885 3 1.6 7.779995699563209 44.59724806399979 28.598965455631962 0 0 0
5755 5110 1 -0.8 11.878232558895842 43.940751105689046 28.668081099916424 0 0 0
5759 10067 1 -0.8 14.200767872200066 44.47987673251484 27.592576545215437 0 0 0
5762 10209 1 -0.8 43.71317070362632 44.7116889558299 30.41646428416578 0 0 0
5763 7595 1 -0.8 44.959438786589565 44.57752701349553 28.04708080797244 0 0 0
5765 10250 2 0.4 46.33865133676138 43.788557974067054 30.189865213458784 0 0 0
5771 7929 1 -0.8 47.985470844699236 44.002185555636885 29.21649906566664 0 0 0
5770 7930 1 -0.8 47.436087165776414 44.03283641565018 31.76170421159482 0 0 0
5766 9923 2 0.4 46.018106444955855 43.92106219126702 33.17965544881107 0 0 0
5769 10250 3 1.6 46.85398142349416 44.13606911960257 30.303459840574522 0 0 0
5767 10250 1 -0.8 45.91461431888097 42.91757409994595 30.09523266725517 0 0 0
6856 9923 1 -0.8 45.20275079100753 43.419142944785065 32.945179509460374 0 0 0
6868 8607 1 -0.8 49.74758049084808 42.06998674239876 32.542223792466224 0 0 0
5777 2331 3 1.6 51.21187395355044 39.54957490180883 28.448982307834257 0 0 0
5779 2347 3 1.6 51.513610880188715 42.603702016181 29.376284177539045 0 0 0
5784 2635 3 1.6 53.83680881332779 44.25567706215925 28.397929721128953 0 0 0
5778 8555 1 -0.8 51.07788003838698 41.08775388135123 29.013419868413443 0 0 0
5775 8604 1 -0.8 50.49430530042911 43.70222003715053 28.784737956257935 0 0 0
5782 8605 1 -0.8 52.96097038041441 42.948449355085316 28.734596083723837 0 0 0
5780 8606 1 -0.8 51.678496772892366 42.84245475001176 30.971661704283317 0 0 0
5785 9124 1 -0.8 54.56318592055614 39.385102100636 28.84480327016709 0 0 0
6869 2349 3 1.6 51.241457251494836 42.614318045047106 32.50562258361586 0 0 0
6879 9147 1 -0.8 54.57439772795383 42.26876326526342 32.57341623272359 0 0 0
6872 8610 1 -0.8 52.19861695414109 41.49252215371863 33.17252793900638 0 0 0
5786 9175 1 -0.8 55.38468242757474 43.83903989214739 28.64517126929017 0 0 0
5788 2951 3 1.6 56.05363540238383 39.95143320479688 28.756734699288344 0 0 0
5790 2975 3 1.6 56.4000294163846 42.96850432332823 29.56385823187098 0 0 0
5795 3000 3 1.6 58.88846247791637 44.37052627934637 28.60336565455486 0 0 0
5796 3786 1 -0.8 59.48667687406494 39.316563777170295 28.79160651118597 0 0 0
5797 3844 1 -0.8 60.386820963168105 43.845702783868866 28.846543917457712 0 0 0
5789 9685 1 -0.8 56.07412176132566 41.390896922441904 29.496610664996993 0 0 0
5793 9720 1 -0.8 57.89112655541304 43.18076104810507 29.00735680821718 0 0 0
5791 9721 1 -0.8 56.344858004614025 43.48625108559187 31.09931715268512 0 0 0
6880 2977 3 1.6 55.85242767420335 43.23084490342689 32.61629729194275 0 0 0
6890 3851 1 -0.8 59.43436578284357 42.11972211007799 32.70099351065388 0 0 0
5802 316 3 1.6 2.8607439560448236 47.452127972184655 29.597475630542775 0 0 0
5799 345 3 1.6 0.44028578887250386 48.87861761773213 28.59177137069724 0 0 0
5801 3907 1 -0.8 2.680462091425773 45.914331813619974 29.097124733595788 0 0 0
5800 3909 1 -0.8 1.9881298670898695 48.46151576483932 28.691705893542355 0 0 0
5804 3910 1 -0.8 4.392987393776137 47.92218449991718 29.474304668201654 0 0 0
5803 3911 1 -0.8 2.324620440268098 47.63877308303792 31.11394494424776 0 0 0
5872 3982 1 -0.8 0.09172423376903178 50.14406557258985 29.536410996906252 0 0 0
6898 317 3 1.6 2.6750564997591653 47.31273435527811 32.6519655840435 0 0 0
6901 3914 1 -0.8 4.162681469704176 46.68900141311512 32.662991136879846 0 0 0
5806 590 3 1.6 5.304956790061259 48.82266316468612 28.497693953186076 0 0 0
5809 886 3 1.6 7.704852544591765 47.50847196593226 29.71436734758984 0 0 0
5813 915 3 1.6 10.195163316279302 48.59818328635048 28.388913304396453 0 0 0
5807 4500 1 -0.8 6.852829940173992 48.532657961799195 28.81058773810713 0 0 0
5808 5158 1 -0.8 7.3157498271315 45.998328803768196 29.274448245758784 0 0 0
5811 5159 1 -0.8 9.265774726567376 47.775611206533554 29.42162682894831 0 0 0
5810 5160 1 -0.8 7.2925496776402055 47.800008728583975 31.249502500636467 0 0 0
5888 5217 1 -0.8 9.929338589049486 50.183924687163156 28.60538499187905 0 0 0
6841 5114 1 -0.8 10.529484936059372 44.83760500738517 32.28101618536851 0 0 0
6910 887 3 1.6 7.623965054462733 47.40991390944467 32.78292502026128 0 0 0
6913 5162 1 -0.8 9.129291487064574 46.89784876334887 32.79074771459109 0 0 0
5758 10067 3 1.6 12.865656886864539 45.09920680650333 28.13349198314559 0 0 0
5816 1113 3 1.6 12.799223962520932 47.72528200765533 29.72539846465666 0 0 0
5820 1135 3 1.6 15.381083591818387 49.15106272567382 28.872417207878378 0 0 0
5814 5218 1 -0.8 11.752821687248133 48.3499061254802 28.67159024707441 0 0 0
5815 5650 1 -0.8 13.067004572166994 46.21198185859115 29.26495842697479 0 0 0
5818 5651 1 -0.8 14.147772723727215 48.60281608237082 29.738857644055646 0 0 0
5817 5652 1 -0.8 12.157841069354493 47.84364292461514 31.199744442082146 0 0 0
6922 1114 3 1.6 12.682071445763382 47.68714921351903 32.720576237080316 0 0 0
6925 5654 1 -0.8 13.897383173953935 46.6819869503609 32.71182171204087 0 0 0
5827 6269 1 -0.8 19.54322143183324 49.5203265070397 27.74455732381191 0 0 0
5821 5708 1 -0.8 16.569453200171843 48.090594159601814 28.835053625185896 0 0 0
5826 5967 1 -0.8 18.729157831341936 48.84358351266628 30.08157863423878 0 0 0
5823 5968 1 -0.8 16.881823623021027 47.578116540373856 31.34140320125561 0 0 0
5822 9960 3 1.6 17.63043335282372 47.7175460054487 29.954189221516128 0 0 0
5825 9960 1 -0.8 18.491900995794605 46.50022237737883 29.562235146444852 0 0 0
5824 9960 2 0.4 18.29980702613476 47.43663565791579 29.789831767616295 0 0 0
5828 10110 3 1.6 20.006289653290096 49.185539893255815 29.220005629106225 0 0 0
5829 10110 1 -0.8 21.032286112812187 48.05700872854745 28.977850870202708 0 0 0
5830 10110 2 0.4 20.419663374995594 48.7949736988717 28.774425360221866 0 0 0
6935 9919 3 1.6 17.426914844905344 47.320314505837636 32.80307870763715 0 0 0
6938 9919 1 -0.8 18.217082149044135 45.99204742049967 32.7207865387379 0 0 0
6937 9919 2 0.4 17.67223329031965 46.790341835110816 32.59382710736833 0 0 0
5838 10291 3 1.6 37.865874783330035 50.22458148033192 27.795478711377605 0 0 0
5836 10291 1 -0.8 38.71216624266857 48.94311021026746 27.6357914827424 0 0 0
5835 10291 2 0.4 38.75221710958964 49.92704875167711 27.590266047489763 0 0 0
5847 7596 1 -0.8 44.07013113624811 46.801650028614915 28.91101798169908 0 0 0
5846 7598 1 -0.8 43.00084546025055 49.24369978092941 29.442120080256252 0 0 0
5934 7648 1 -0.8 40.648429429741405 50.263064642465196 29.627858350458972 0 0 0
5845 9964 2 0.4 43.91023253944022 47.64651362841892 31.22878720043241 0 0 0
5844 10181 3 1.6 41.53764789013341 49.24584366655889 28.783505144096594 0 0 0
5842 10181 1 -0.8 41.23956113236597 47.73449265433587 28.895772391087057 0 0 0
5841 10181 2 0.4 41.869561966781475 48.48324382283833 29.014593234973272 0 0 0
6962 9964 1 -0.8 43.00551641097727 47.277085329145116 31.494101776882683 0 0 0
5773 2370 3 1.6 49.193469338983604 44.636561823459004 28.413984397550173 0 0 0
4898 9994 1 -0.8 46.893258202901265 45.99880367477502 27.72225046526212 0 0 0
4897 9994 2 0.4 46.163011782667176 45.40129916145182 27.916823680497448 0 0 0
5764 10209 3 1.6 44.615919657201594 45.3955389916542 29.368054845119303 0 0 0
5761 10209 2 0.4 44.591656064878656 45.120243748021096 30.224717476079054 0 0 0
5768 7597 1 -0.8 45.96952332580341 45.42267454993445 30.168966793261806 0 0 0
5848 1948 3 1.6 44.274096768135536 48.27913086106158 29.437601502636358 0 0 0
5849 7600 1 -0.8 45.01863990222333 48.13832816293781 30.85938573026768 0 0 0
5852 2105 3 1.6 46.84428099274771 49.46147278647745 28.44417530029955 0 0 0
5855 2371 3 1.6 48.93845244590568 47.459527774439934 29.764993909397 0 0 0
5850 7599 1 -0.8 45.33183659634686 48.95720396995669 28.431670412580768 0 0 0
5853 7980 1 -0.8 47.88337446881899 48.338163710863725 28.926952576465105 0 0 0
5854 8653 1 -0.8 49.44734874939187 46.11252825831661 29.035225100249512 0 0 0
5856 8655 1 -0.8 48.39879069759492 47.176823176107604 31.26058811007779 0 0 0
6963 9964 3 1.6 44.401502294266486 47.46420427947063 32.15076660788286 0 0 0
6975 2372 3 1.6 48.68440245324997 47.23171453064397 32.84836028392634 0 0 0
6966 7602 1 -0.8 45.137743183567586 46.23487029082221 32.84365903152735 0 0 0
5859 2400 3 1.6 51.30229888655624 48.97402423691648 28.761647406791905 0 0 0
5862 2636 3 1.6 53.72002636885318 47.13637698105677 29.404777904548745 0 0 0
5857 8654 1 -0.8 50.285585029565425 48.38484251548254 29.857747556379067 0 0 0
5860 8713 1 -0.8 52.58814397182574 47.991352639938285 28.633378223790746 0 0 0
5861 9174 1 -0.8 53.4716063447517 45.53589950434789 29.336468614951038 0 0 0
5863 9177 1 -0.8 53.735199237391626 47.70206167143227 30.912843388180136 0 0 0
6987 2637 3 1.6 53.292528850468294 47.51308470620531 32.44212990530083 0 0 0
6978 8657 1 -0.8 49.70219954853068 46.03897827589676 33.240025973713394 0 0 0
5864 9176 1 -0.8 55.17499110922452 47.43174552551004 28.773389316444476 0 0 0
6985 8658 1 -0.8 52.191741065872414 46.34635301424318 32.50623818070229 0 0 0
6990 9179 1 -0.8 54.59790995955963 47.10186188201104 33.29159787371144 0 0 0
5869 3001 3 1.6 58.81636274575311 47.26648475246701 29.564507764012035 0 0 0
5866 3030 3 1.6 56.24958110882752 48.606851379030346 28.53161732195622 0 0 0
5871 3983 1 -0.8 60.29596103060049 47.599273428452875 29.045158319371794 0 0 0
5868 9758 1 -0.8 58.582102846205444 45.67185566760842 29.508955017031983 0 0 0
5867 9759 1 -0.8 57.74300087229381 48.01452179131044 28.634848542901942 0 0 0
5870 9760 1 -0.8 58.6693048949901 47.83011649047921 31.062954204511627 0 0 0
5958 9803 1 -0.8 56.02910388060787 49.78335328439367 29.613836355557293 0 0 0
6999 3002 3 1.6 58.53461870065375 47.21719939016393 32.540039611646534 0 0 0
7002 3915 1 -0.8 59.749416094326925 46.174130555273 32.74607443668035 0 0 0
5876 4054 1 -0.8 2.6605832396251765 53.438625733182455 27.461788086134067 0 0 0
5880 4499 1 -0.8 5.008369155909535 50.39401310456514 28.672377917344892 0 0 0
5873 346 3 1.6 0.2717179630985916 51.7209626603094 29.852025504052975 0 0 0
5877 375 3 1.6 2.839398188835811 53.273276212738466 29.059564088991895 0 0 0
5875 3985 1 -0.8 1.809471771475453 52.12748442472789 29.552560040809144 0 0 0
5878 4057 1 -0.8 2.5096015707544597 54.65113880751736 29.84460680774243 0 0 0
5879 4058 1 -0.8 4.367992927362674 52.84598708231739 29.364025800270745 0 0 0
5881 591 3 1.6 5.34657189282652 51.6012057922682 29.675767563393 0 0 0
5882 4502 1 -0.8 5.091179494430109 51.06926793593392 31.171709697016983 0 0 0
7019 592 3 1.6 5.364317097758838 51.4587704530352 32.70532935455463 0 0 0
7004 348 3 1.6 0.35869481034295075 51.69096538943049 32.90738278348672 0 0 0
7009 3987 1 -0.8 1.8706984593136666 51.115785948060264 32.89499554900525 0 0 0
7020 4503 1 -0.8 5.049533285028672 53.031273342154336 32.898928780077725 0 0 0
5889 916 3 1.6 10.407293372767668 51.418571477374414 29.534486618889883 0 0 0
5885 945 3 1.6 7.927389287618108 53.14993737993978 28.973742297928762 0 0 0
5883 4501 1 -0.8 6.895326750680037 52.04422298463848 29.545685067267456 0 0 0
5887 5219 1 -0.8 9.450923151315028 52.68835386706421 29.2371894380341 0 0 0
5890 5221 1 -0.8 10.286801831670473 51.027779327247096 31.100145339903932 0 0 0
5886 5278 1 -0.8 7.641989697113198 54.564202086271635 29.705032378545507 0 0 0
7034 918 3 1.6 10.417470877717403 51.4397037128505 32.6595134416261 0 0 0
7035 5224 1 -0.8 10.004666680160488 52.988145573065154 32.8872554868161 0 0 0
5896 5707 1 -0.8 15.963313486148403 50.500284102129086 29.53617330551546 0 0 0
5897 1136 3 1.6 15.674743755334958 51.98332320474478 30.070459705346117 0 0 0
5893 1165 3 1.6 12.935287950424028 53.02370459840859 28.837542435949043 0 0 0
5891 5220 1 -0.8 11.940314475762825 51.80707953860741 29.20172971684748 0 0 0
5895 5709 1 -0.8 14.464634689142772 52.62707738796139 29.19674624399049 0 0 0
5898 5711 1 -0.8 15.27467302904584 51.91526370557576 31.63149546647403 0 0 0
5894 5768 1 -0.8 12.519105956323827 54.32548005982776 29.69926841939776 0 0 0
5900 6013 1 -0.8 17.33769257162773 53.13371824325133 27.29499920164342 0 0 0
5904 6270 1 -0.8 20.773628425401146 50.44375987876865 29.806970168097386 0 0 0
5901 1280 3 1.6 18.07007048890364 53.267256476269985 28.72002752445035 0 0 0
5905 1385 3 1.6 20.688929869689677 52.01024431670239 29.552501915548888 0 0 0
5899 5710 1 -0.8 17.018202743552916 52.85858045483209 29.87371498788606 0 0 0
5903 6014 1 -0.8 19.364899983394228 52.32669150919935 28.693886482919183 0 0 0
5902 6015 1 -0.8 18.5576318282091 54.78531123842021 28.973738778615207 0 0 0
5906 6272 1 -0.8 20.45365174379882 52.73172902142333 30.97924783952045 0 0 0
5907 6271 1 -0.8 22.013753371843393 52.50206450478219 28.795319074592292 0 0 0
7064 1386 3 1.6 20.559118203411636 52.144803536331956 32.4792096671886 0 0 0
7061 5987 1 -0.8 19.560541644906817 50.89092881266752 32.640595539710944 0 0 0
5831 10130 1 -0.8 25.888985697965687 50.84798773692914 30.755297770848642 0 0 0
5832 10130 2 0.4 25.661520832969007 51.75640790260217 31.14112915390742 0 0 0
5909 1405 3 1.6 23.37680316020174 53.34874792873963 28.793353213055962 0 0 0
5910 6327 1 -0.8 23.26286259430774 54.41556215005254 29.987959123802373 0 0 0
5911 6328 1 -0.8 24.704088212645384 52.50134995673482 29.09039668155514 0 0 0
5914 6484 1 -0.8 27.1518951272849 53.025916756437184 29.929778727076148 0 0 0
5913 6485 1 -0.8 25.179176010432986 52.829260681845625 31.67097218821744 0 0 0
5912 10130 3 1.6 25.75133438332472 52.32787626579217 30.28457153683901 0 0 0
7069 6273 1 -0.8 22.122699695750107 51.931770058095324 32.715089167660366 0 0 0
5915 6770 1 -0.8 27.975058837625124 53.09958327365825 27.409445335497498 0 0 0
5834 10146 1 -0.8 31.257854409162505 50.509588366549 30.490266468705787 0 0 0
5833 10146 2 0.4 31.173362104714176 51.46134254223328 30.810113433729697 0 0 0
5916 1600 3 1.6 28.433296301614824 53.20556547896713 28.961231676248804 0 0 0
5918 6724 1 -0.8 29.58552917983865 52.12469952232256 29.241222554407848 0 0 0
5921 6725 1 -0.8 32.231711054615715 52.38905615278973 28.965681704832292 0 0 0
5920 6726 1 -0.8 31.0980480983158 52.6716360093038 31.292724116800894 0 0 0
5917 6773 1 -0.8 29.052150942049444 54.67815275579434 29.24687734010027 0 0 0
5919 10146 3 1.6 31.02758684345846 51.93403008133385 29.902650488109252 0 0 0
7094 1583 3 1.6 30.97567969027532 51.9349819554734 32.72033016782664 0 0 0
7091 6727 1 -0.8 29.587626326196215 51.13480497232783 32.744389534580996 0 0 0
7248 1602 3 1.6 28.550405544604036 55.861988219726506 32.9655038975794 0 0 0
5926 7218 1 -0.8 37.14938190439376 50.31141887118213 29.229946828066634 0 0 0
5922 6968 1 -0.8 34.08502906713113 53.41073345723044 27.490604464079887 0 0 0
5923 1690 3 1.6 33.75801757516247 52.90264764972939 28.982762316608493 0 0 0
5927 1788 3 1.6 36.398440374403926 51.62625293758325 29.742966546391123 0 0 0
5931 1810 3 1.6 38.46592322217808 53.498705704299326 28.869016415733196 0 0 0
5925 6969 1 -0.8 34.80124753142397 51.77951936620544 29.512647907883323 0 0 0
5924 6970 1 -0.8 33.8578024667656 54.20894939215164 29.93045580555066 0 0 0
5929 7219 1 -0.8 37.070813061709 52.726662479918886 28.764494137309462 0 0 0
5928 7220 1 -0.8 36.81232352590224 51.921351802140556 31.277927860672925 0 0 0
5932 7278 1 -0.8 38.01054446238066 54.827226812445815 29.691765228420586 0 0 0
6039 1691 3 1.6 33.73236978173456 55.797018059351004 30.162980780717966 0 0 0
7109 1789 3 1.6 36.36922116313079 52.44600803395887 32.73152299262673 0 0 0
7106 6942 1 -0.8 34.821554165051026 52.08497065180743 32.93115002939786 0 0 0
7110 7224 1 -0.8 36.42259434254049 54.060978402283716 32.78866574461396 0 0 0
5935 1960 3 1.6 40.88753091602686 51.818214376291685 29.888217379423516 0 0 0
5939 1985 3 1.6 43.54838578303621 52.980215410454015 28.771109563789572 0 0 0
5933 7277 1 -0.8 39.57795023499514 52.74541125545858 29.75768747406386 0 0 0
5937 7649 1 -0.8 42.07723353793661 52.3393270373694 28.91192574415926 0 0 0
5936 7650 1 -0.8 41.452028092923676 51.98326966735563 31.403299293662663 0 0 0
5940 7707 1 -0.8 43.46546424481417 54.52361592218247 29.287480136714738 0 0 0
7124 1962 3 1.6 41.18279318155379 51.48252946632459 32.910209044373566 0 0 0
7131 7713 1 -0.8 42.63165893704738 54.82864939214386 32.94718771093598 0 0 0
7284 1987 3 1.6 43.98003191297104 55.715614361377675 32.91764575610737 0 0 0
7123 7283 1 -0.8 39.981792105548 54.931795012403015 32.96219650227713 0 0 0
5942 7979 1 -0.8 46.91579152279089 50.70417274340193 29.47092672619339 0 0 0
5943 2106 3 1.6 46.33183927174808 52.15514279190555 29.83941829460882 0 0 0
5947 2430 3 1.6 48.64150305687858 53.44000734310884 28.317380603616837 0 0 0
5941 7708 1 -0.8 44.735273116753106 52.25188702418545 29.60186436580426 0 0 0
5945 7981 1 -0.8 47.173114846187325 53.220802201520534 28.963872275031086 0 0 0
5944 7982 1 -0.8 46.63069612148318 52.4163500384818 31.393338358688066 0 0 0
5948 8773 1 -0.8 49.141432595369416 54.9172855063503 28.78735299058641 0 0 0
7139 2107 3 1.6 46.35225575762425 51.68626424868502 32.798155065906364 0 0 0
7136 7652 1 -0.8 44.85064582835653 51.10211625569167 32.783839084504066 0 0 0
7146 8012 1 -0.8 47.64560966725533 55.055658535685865 32.95237128477064 0 0 0
7151 8717 1 -0.8 49.969700992625164 51.05399117750538 32.3791912980049 0 0 0
5950 8712 1 -0.8 51.68050651854311 50.49524663380929 29.166690199143687 0 0 0
5951 2401 3 1.6 51.27491614592421 52.06214976825187 29.280297687683287 0 0 0
5955 2665 3 1.6 53.905713225455656 53.27444772525025 28.50290474117467 0 0 0
5949 8714 1 -0.8 49.74556552143917 52.354720858953776 28.827431281196247 0 0 0
5953 8715 1 -0.8 52.328468792664374 52.92520510084335 28.41482554886585 0 0 0
5952 8716 1 -0.8 51.46261925971611 52.529530743875185 30.81101114313452 0 0 0
5957 9234 1 -0.8 54.71763663928484 51.969601549686494 28.991649229350553 0 0 0
5956 9235 1 -0.8 54.1457726195963 54.50385624906992 29.509510821012018 0 0 0
7154 2403 3 1.6 51.17523186748638 52.12393508023653 32.33784545133243 0 0 0
7166 9207 1 -0.8 54.881514833318164 50.359603587021105 33.2897563136908 0 0 0
5874 3986 1 -0.8 60.6533586182798 52.04456504835185 31.396452877567622 -1 0 0
5959 3031 3 1.6 55.99525054924559 51.391377202445895 29.781854406502188 0 0 0
5963 3060 3 1.6 58.44588773546595 53.11926451461852 28.75247944737055 0 0 0
5965 3984 1 -0.8 59.966296521614105 52.591858627228866 28.95640275081767 0 0 0
5961 9804 1 -0.8 57.38776386441048 51.972772148607326 29.18868151642172 0 0 0
5960 9805 1 -0.8 55.82103035586478 51.83824705958641 31.320788862921717 0 0 0
5964 9848 1 -0.8 58.16649607871786 54.44649782697288 29.63655140573858 0 0 0
7169 3033 3 1.6 56.07337846092821 51.3477258347564 32.831746096127105 0 0 0
7174 9806 1 -0.8 57.50738076729374 50.608939516396276 32.82200394436543 0 0 0
5966 4124 1 -0.8 0.009710726730309928 57.76168840166473 27.478317910000296 0 0 0
5973 376 3 1.6 2.8422013728204853 56.214004226566104 30.109620627842848 0 0 0
5967 405 3 1.6 0.2612076092625818 57.511634441701496 29.05349535782834 0 0 0
5969 406 3 1.6 0.2779947199382405 60.37517746083908 30.251216976158748 0 0 0
5972 3150 1 -0.8 1.8231277521979987 60.64729202483723 29.870751247396804 0 0 0
5976 3151 1 -0.8 4.326651855844748 0.04198088187032363 29.56035270759346 0 1 0
5971 4059 1 -0.8 1.8170604670063604 57.10990936765785 29.2401048791767 0 0 0
5975 4060 1 -0.8 4.377762197441008 56.51078280726032 29.702269382304806 0 0 0
5974 4061 1 -0.8 2.644083075905076 56.594294361358486 31.666012082951408 0 0 0
5970 4128 1 -0.8 0.059008595784835007 60.69892552706259 31.81850107661493 0 0 0
5981 4560 1 -0.8 5.000873679277172 59.859117359368106 31.55716734473057 0 0 0
5978 620 3 1.6 5.3724241722665065 57.393573552248874 28.7863991966637 0 0 0
5980 621 3 1.6 5.318873054261293 60.246095633917705 30.027600142314746 0 0 0
5984 946 3 1.6 7.921817966862793 56.12806939509437 30.006944961833636 0 0 0
5989 975 3 1.6 10.489134074895412 57.27329875447879 28.720799569283013 0 0 0
5991 976 3 1.6 10.413000462569485 60.11321654057188 29.88526199397882 0 0 0
5982 4557 1 -0.8 6.916458898867744 57.031203556503556 29.115407482580146 0 0 0
5979 4558 1 -0.8 5.11463081438115 58.964197872473044 29.069307878125983 0 0 0
5983 4559 1 -0.8 6.85196287734344 60.745917673643426 29.95813673610109 0 0 0
5986 5279 1 -0.8 9.460920324721048 56.48635735233291 29.679906969549396 0 0 0
5985 5280 1 -0.8 7.6692768326138925 56.41678332402668 31.570403091664243 0 0 0
5990 5330 1 -0.8 10.291879565469982 58.870951087306835 28.867541052604764 0 0 0
5992 5333 1 -0.8 10.052343062893183 59.581288629101294 31.360132866996157 0 0 0
5999 5819 1 -0.8 15.309540386181808 57.72465499848311 27.568659603449372 0 0 0
5995 1166 3 1.6 12.963291060172166 55.8567303203569 29.92867427670392 0 0 0
6000 1195 3 1.6 15.495923163108372 57.24023250399434 29.104180126691226 0 0 0
6002 1196 3 1.6 15.441932943254953 60.0340197098906 30.063912706674767 0 0 0
5993 5331 1 -0.8 12.008042741388277 56.85810116484322 29.08989335699251 0 0 0
5994 5332 1 -0.8 11.923291346956594 60.68485045064484 29.895579163766193 0 0 0
5998 5391 1 -0.8 14.430339574556672 60.892466464350406 29.144491092375006 0 0 0
5997 5769 1 -0.8 14.492572798153827 56.02450753111377 29.42579093968094 0 0 0
5996 5770 1 -0.8 12.856852679523481 56.21576500576165 31.49676767166801 0 0 0
6001 5820 1 -0.8 15.065886468938414 58.47517262222291 30.045532267006056 0 0 0
6003 5823 1 -0.8 15.356960829296366 60.590899856961485 31.56905595558059 0 0 0
6010 6380 1 -0.8 20.3141886228008 57.62338768665028 27.575557553379074 0 0 0
6006 1281 3 1.6 18.33080654712131 56.04941745996071 29.94378439872097 0 0 0
6011 1435 3 1.6 20.88061994889345 57.528877134113294 29.075613620473625 0 0 0
6013 1436 3 1.6 20.811059261379597 60.418471665260114 30.020890980618297 0 0 0
6004 5821 1 -0.8 17.042576258287436 56.85775654289131 29.384134676271795 0 0 0
6005 5822 1 -0.8 16.94867118431137 60.15738729679938 29.49889330935209 0 0 0
6009 5868 1 -0.8 19.514875092896883 60.865303051607974 29.175075748782046 0 0 0
6008 6016 1 -0.8 19.66688343069425 56.96625213628457 29.976705399159556 0 0 0
6007 6017 1 -0.8 18.07206511246475 55.572545401066634 31.462555836707836 0 0 0
6012 6381 1 -0.8 21.344607184363856 58.9987452926644 29.510004648515697 0 0 0
6014 6382 1 -0.8 20.351543946063348 60.23246830074442 31.54754016981175 0 0 0
6015 6329 1 -0.8 22.190076994787816 56.601686561100664 29.208301752927717 0 0 0
6021 6531 1 -0.8 25.322774435230258 57.765469631902626 27.71198984567395 0 0 0
6017 1406 3 1.6 23.283527467647332 55.991559020139114 30.23392684292359 0 0 0
6022 1505 3 1.6 25.887212467641717 57.41719641954349 29.18115516467425 0 0 0
6024 1506 3 1.6 25.801348585806224 60.36288313020581 30.154084445791952 0 0 0
6020 6091 1 -0.8 24.58076035987693 60.80193670820317 29.19248998433905 0 0 0
6019 6330 1 -0.8 24.78208319324156 56.53386274647813 29.953467411038645 0 0 0
6018 6331 1 -0.8 22.903240417405474 56.32253969507671 31.76549146652266 0 0 0
6026 6532 1 -0.8 27.301827565553445 56.63572890325607 29.045338517168645 0 0 0
6023 6533 1 -0.8 26.132951272631704 58.794445281326205 29.978209777230443 0 0 0
6027 6534 1 -0.8 27.158001591686034 61.20064414880274 29.88669983430977 0 0 0
6025 6535 1 -0.8 25.33495543776203 60.615709581419985 31.669388966164917 0 0 0
7247 6536 1 -0.8 27.362950148599523 59.586240224437326 32.97515238227726 0 0 0
6028 1601 3 1.6 28.66985708692972 56.148504828118455 29.779439992086132 0 0 0
6033 1630 3 1.6 31.40211062944315 57.649035979496254 29.096452315737572 0 0 0
6035 1631 3 1.6 31.189574937431402 60.52109866526754 29.98440298441128 0 0 0
6031 6586 1 -0.8 29.73749581708897 60.663552470997665 29.261265699191668 0 0 0
6030 6774 1 -0.8 29.893290403255577 57.171204139698055 29.46989079369176 0 0 0
6029 6775 1 -0.8 28.3849995252385 56.122795631733915 31.372647312558982 0 0 0
6034 6825 1 -0.8 31.73568337097854 58.99752202481213 29.92021636976831 0 0 0
6037 6826 1 -0.8 32.47524197103694 56.4665744873044 29.3735928897974 0 0 0
6038 6827 1 -0.8 32.2774393421877 0.1482332602023538 29.343023341774796 0 1 0
6036 6828 1 -0.8 30.969802355950968 60.85720796107735 31.53492670529059 0 0 0
7257 1633 3 1.6 30.94881335919221 60.39970356520358 33.07774299655978 0 0 0
6050 1811 3 1.6 38.48235977689588 56.303236875237516 30.039583965239324 0 0 0
6044 1840 3 1.6 35.99178000643891 57.739365102701555 29.054233593432834 0 0 0
6046 1841 3 1.6 36.15731344864995 60.659008362381414 30.152616341078456 0 0 0
6041 6971 1 -0.8 35.09582917659148 56.56174405479362 29.71894656909144 0 0 0
6040 6972 1 -0.8 33.472733591925014 55.99473923018711 31.736248387274912 0 0 0
6049 7046 1 -0.8 37.28852333203723 61.242497041231786 29.15732078226926 0 0 0
6048 7280 1 -0.8 37.561683198656574 57.355622475073446 29.215082336133637 0 0 0
6051 7281 1 -0.8 38.33358757702627 56.55239296443018 31.618788576754326 0 0 0
6045 7331 1 -0.8 35.71720413436814 59.15301013000453 29.77505398595373 0 0 0
6047 7332 1 -0.8 36.788377054024025 60.59537076349721 31.623662871759695 0 0 0
7267 6999 1 -0.8 34.93786740600278 59.24611902402409 32.87009807544863 0 0 0
6054 7760 1 -0.8 41.574174670698206 57.05658081108462 27.657833108498327 0 0 0
6061 1986 3 1.6 43.921215987317275 55.94373163888732 29.90635191918683 0 0 0
6055 2015 3 1.6 41.28692827782877 57.27770135218985 29.226103149526164 0 0 0
6057 2016 3 1.6 41.223076632095065 60.32908182186227 29.844782325478523 0 0 0
6053 7045 1 -0.8 39.88937297811958 61.236287462444295 29.748640411031126 0 0 0
6052 7279 1 -0.8 40.0517721930537 56.367817382413065 29.68141302958977 0 0 0
6060 7390 1 -0.8 42.372931256988196 60.81562136873788 28.831137053585163 0 0 0
6059 7709 1 -0.8 42.63116289563019 56.912568606059715 30.02917798891567 0 0 0
6056 7761 1 -0.8 40.85025701625421 58.80269014554325 29.516720836143556 0 0 0
6058 7762 1 -0.8 41.84851006467062 60.45353058180454 31.329476572334944 0 0 0
7281 2018 3 1.6 41.519614212659455 60.56547714276285 32.90056073311741 0 0 0
6073 8775 1 -0.8 49.446934933116395 56.01341919354649 31.263940382280445 0 0 0
6062 7711 1 -0.8 44.51554441669177 55.767274884908154 31.395362373996786 0 0 0
6066 2135 3 1.6 46.3907545584724 57.49788383605941 28.9299300346228 0 0 0
6068 2136 3 1.6 46.26114364657172 60.54105779392306 29.89074562819832 0 0 0
6072 2431 3 1.6 49.03547888966722 56.246877546575135 29.720515191668813 0 0 0
6064 7391 1 -0.8 44.815328939624564 61.26515859016203 29.8488553989975 0 0 0
6063 7710 1 -0.8 45.029388283184424 56.63056782704994 28.958922583098424 0 0 0
6070 8037 1 -0.8 47.51592029366447 56.78068102601349 29.814665362057323 0 0 0
6067 8038 1 -0.8 46.08024032705504 59.0078464733127 29.40896062995861 0 0 0
6071 8039 1 -0.8 47.34398525328893 61.34313956801033 29.00024807016495 0 0 0
6069 8040 1 -0.8 46.79327767606004 60.530572216738435 31.40368910019015 0 0 0
7293 2137 3 1.6 46.284132627206745 60.42958820018243 32.92259040937078 0 0 0
7296 2432 3 1.6 48.832062130181455 56.139333774907094 32.75903891882141 0 0 0
6077 2460 3 1.6 51.53365652993387 57.82079134468961 28.861985193621297 0 0 0
6079 2461 3 1.6 51.220687002434 60.50519033361986 30.25184861932028 0 0 0
6083 2666 3 1.6 53.68682766147217 55.9603396924672 30.027892488461955 0 0 0
6075 8091 1 -0.8 49.92576197164484 60.82890185501471 29.347792120946824 0 0 0
6074 8774 1 -0.8 49.99371525617046 57.380269042609704 29.078066015230906 0 0 0
6078 8825 1 -0.8 51.84344315543027 59.06868002484017 29.836497803104656 0 0 0
6081 8826 1 -0.8 52.480037718421606 56.54675271388632 29.146172964393536 0 0 0
6080 8828 1 -0.8 50.71858944835569 60.47394628001642 31.777512481894348 0 0 0
6085 9236 1 -0.8 54.960043620806175 56.954469525066614 29.941559961632084 0 0 0
6084 9237 1 -0.8 53.1461757780634 55.88100294232886 31.536111518562063 0 0 0
5968 4126 1 -0.8 60.638829292150405 58.836204123685185 29.91874218377743 -1 0 0
6094 3061 3 1.6 58.468587593150666 56.003295862618245 29.963354971826032 0 0 0
6088 3090 3 1.6 56.00812574626415 57.604919715648144 28.900552072036433 0 0 0
6090 3091 3 1.6 56.04517897679977 60.48134738257888 30.082749316731597 0 0 0
6096 4125 1 -0.8 60.00564464811428 56.326990643010255 29.56833945090669 0 0 0
6097 4127 1 -0.8 60.05080702503377 61.35052685483527 29.379555075750464 0 0 0
6093 9301 1 -0.8 57.51585139584899 61.15426033784041 30.10123760593194 0 0 0
6092 9849 1 -0.8 57.48041575344684 56.964121630168606 29.114058205672702 0 0 0
6095 9850 1 -0.8 58.21598610416708 56.30775412377896 31.532576183247194 0 0 0
6089 9886 1 -0.8 56.04535571767417 59.206701380620075 29.094095604782588 0 0 0
6091 9887 1 -0.8 55.69123907419391 60.00663900159395 31.577548538213144 0 0 0
6106 17 3 1.6 3.002830307737391 3.217406935834912 33.846474413632734 0 0 0
6099 18 3 1.6 0.5313941469359286 1.7108221470432878 34.58178849915698 0 0 0
6101 20 3 1.6 0.590226398091631 1.847145966515805 37.60465585889592 0 0 0
6107 3155 1 -0.8 2.617067342853415 4.506376230793625 34.73674862381163 0 0 0
6104 3156 1 -0.8 2.0955156160954886 1.964811410534635 34.29213287933846 0 0 0
6109 3157 1 -0.8 4.566196136102259 2.857334155774924 33.94985533238328 0 0 0
6098 3159 1 -0.8 0.19221648285056162 0.15567205168768364 34.32452774300693 0 0 0
6100 3160 1 -0.8 0.19754410139141593 2.1661265835304633 36.085320103571384 0 0 0
6103 3161 1 -0.8 2.1442745677074657 1.4064701289206623 37.63405201247156 0 0 0
6108 3162 1 -0.8 4.700782196591243 0.9110977406413336 38.32382349855074 0 0 0
6110 3244 1 -0.8 4.7875899704483755 5.206604018204197 37.73716061829942 0 0 0
6111 4170 1 -0.8 5.4135071973603095 0.42544084970677853 33.295162444406856 0 0 0
6113 4171 1 -0.8 5.290667164291037 1.2116270726407647 35.81944107180281 0 0 0
6112 426 3 1.6 5.596857738204085 1.6721842794937392 34.311174015208884 0 0 0
6114 427 3 1.6 5.856132336190987 1.4056252367265003 37.31518924578267 0 0 0
7338 443 3 1.6 5.955608650051047 4.3394677162729804 38.438152568748336 0 0 0
6119 647 3 1.6 8.07914113882439 3.054518931641818 33.24891874114666 0 0 0
6125 648 3 1.6 10.548625216666482 1.3771237080634204 34.03989400812251 0 0 0
6127 650 3 1.6 10.667148759297936 1.6730375010265237 37.077438047726815 0 0 0
7348 680 3 1.6 10.767342100152817 4.578857489364964 38.18333381388168 0 0 0
6117 4169 1 -0.8 7.106397699601129 2.236222798314668 34.239827640509446 0 0 0
6116 4172 1 -0.8 7.206897274773975 0.534470407966522 37.450780812741975 0 0 0
6115 4173 1 -0.8 6.195975122762723 2.9641095979604497 37.61550400915995 0 0 0
6118 4205 1 -0.8 7.303033573097482 5.232176331001259 38.46895473209748 0 0 0
6120 4614 1 -0.8 7.9893748436535565 4.6432837130924405 33.53422408043676 0 0 0
6122 4615 1 -0.8 9.591918550643982 2.5275005140862428 33.42488986269191 0 0 0
6126 4618 1 -0.8 10.186319536703195 1.207802331560247 35.604356033822384 0 0 0
6121 4619 1 -0.8 9.6955204671049 1.0164522635082647 38.18652948584926 0 0 0
6128 4622 1 -0.8 10.595356701386407 3.285089664457065 37.22446564243395 0 0 0
6278 4683 1 -0.8 7.791953484754851 5.695040526038153 35.95959815129238 0 0 0
6132 1007 3 1.6 12.975364862082344 3.0838422438996718 33.33678327374612 0 0 0
6138 1008 3 1.6 15.467869209321 1.6448042090797232 34.16630001192096 0 0 0
7352 1009 3 1.6 13.290691453644653 0.45524058245017157 38.22348906153291 0 0 0
6140 1010 3 1.6 15.888430627802972 1.7871943600800484 37.20409858558275 0 0 0
7358 1040 3 1.6 15.968781908812678 4.618068615451936 38.26932964510928 0 0 0
6130 4617 1 -0.8 12.075040429733734 1.863633959737814 33.88039979560303 0 0 0
6129 4623 1 -0.8 12.182655635595948 1.144116125243855 37.272204130728895 0 0 0
6131 4688 1 -0.8 12.299800189826255 5.077796800005549 38.13500307082653 0 0 0
6133 5394 1 -0.8 12.794177311664814 4.348479029645715 34.31208896144105 0 0 0
6135 5395 1 -0.8 14.514540310492446 2.6143919755136285 33.30975365454773 0 0 0
6139 5398 1 -0.8 15.341109504044931 2.0471887670427464 35.71581263065467 0 0 0
6134 5399 1 -0.8 14.668014062915335 1.296844547838482 38.13914423763486 0 0 0
6141 5402 1 -0.8 16.480631641595924 3.175422149980656 37.76324111247747 0 0 0
6136 5466 1 -0.8 14.805808295565926 5.199482103548288 37.31125424479321 0 0 0
6145 1222 3 1.6 18.02148391496094 2.904971188007068 33.13840369406357 0 0 0
7362 1223 3 1.6 18.215625723978626 61.34389794737657 38.01595524910793 0 -1 0
6151 1318 3 1.6 20.7642069838209 1.7561617339461257 34.01457354966594 0 0 0
6153 1320 3 1.6 20.48933835560298 1.765936157246105 37.033194845895814 0 0 0
7368 1350 3 1.6 20.63639474266614 4.581771172993548 38.12267776771277 0 0 0
6143 5397 1 -0.8 16.9879306972966 1.7864244709809445 33.652083082381395 0 0 0
6142 5403 1 -0.8 17.023768215252854 0.6413546222792408 37.17326351361153 0 0 0
6146 5871 1 -0.8 17.81189710806896 4.194071502746443 34.066518541049135 0 0 0
6148 5872 1 -0.8 19.537565405299873 2.358712247695887 33.16802380587031 0 0 0
6147 5873 1 -0.8 19.504539991452674 0.9282985244711114 37.99511039144117 0 0 0
6150 6098 1 -0.8 21.285665701172157 0.37312881478429616 33.39276357402993 0 0 0
6152 6099 1 -0.8 20.22301700205735 1.4125431195968978 35.490762150383325 0 0 0
6154 6104 1 -0.8 20.214425316736694 3.3465865270047814 37.18378043097679 0 0 0
6158 1317 3 1.6 23.243333152964162 3.211933973853516 33.033018153895966 0 0 0
7372 1319 3 1.6 23.161122711028565 0.42387599596801473 38.009171514607324 0 0 0
6164 1456 3 1.6 25.810686018280265 1.8161132795324388 33.92940021237258 0 0 0
6166 1457 3 1.6 25.777429777431035 1.6100461709792317 36.92610417118954 0 0 0
7378 1473 3 1.6 25.84473447852716 4.375976949707264 38.07735419877611 0 0 0
6159 6095 1 -0.8 23.818048916122205 4.646147925875394 33.46059782878695 0 0 0
6156 6096 1 -0.8 22.002091182151542 2.795703124535434 33.98801575034767 0 0 0
6161 6097 1 -0.8 24.430661900462905 2.129255532838282 33.15395335546298 0 0 0
6155 6100 1 -0.8 22.026839969324488 1.3847723492700366 37.37343574577012 0 0 0
6160 6101 1 -0.8 24.543741320742896 0.589678608117267 37.17369224539849 0 0 0
6157 6165 1 -0.8 22.21648325545307 4.828743923806983 37.918972823377246 0 0 0
6162 6167 1 -0.8 24.738425642124003 5.01345172214191 37.0916536074963 0 0 0
6169 6414 1 -0.8 27.048932882134554 2.568183712252278 33.19574379391751 0 0 0
6163 6415 1 -0.8 26.029718108732755 0.2143412200813924 33.97175168664273 0 0 0
6165 6416 1 -0.8 25.66103862744264 2.289019586929345 35.463312449193786 0 0 0
6168 6417 1 -0.8 27.210303720507216 0.8716275760215241 37.008555211458514 0 0 0
6167 6418 1 -0.8 25.700461591643883 2.7697659762169047 38.03589794271672 0 0 0
6170 6450 1 -0.8 27.341043014850182 4.750561394524428 37.60106180195692 0 0 0
6177 1533 3 1.6 30.857604050450625 1.7786982516214889 34.026876596263335 0 0 0
7382 1534 3 1.6 28.427620601230114 0.204067380897759 37.828169763597444 0 0 0
6179 1535 3 1.6 30.947628778029163 1.6634920842849095 37.02586538162534 0 0 0
7388 1565 3 1.6 30.79933457969976 4.489077728184936 37.869450393861996 0 0 0
6174 6590 1 -0.8 29.628862408502673 2.7937735650832183 33.79671748622924 0 0 0
6176 6591 1 -0.8 30.3419538238904 0.2671411116643048 33.871630599173336 0 0 0
6182 6592 1 -0.8 32.0371149840502 2.03984879790156 32.95361726364133 0 0 0
6178 6593 1 -0.8 31.45223110662885 1.8789534892053295 35.51606517352253 0 0 0
6173 6594 1 -0.8 29.848528682892823 0.4922102154383986 37.11971026287852 0 0 0
6180 6597 1 -0.8 30.245528916694795 3.0246663461664247 37.48795383464225 0 0 0
6181 6598 1 -0.8 32.19313014424765 1.3504961288360184 37.989248058849135 0 0 0
6183 6663 1 -0.8 32.323011452843225 4.589921435808787 37.342163110027585 0 0 0
6185 6876 1 -0.8 33.65488097894911 3.6950269053054963 34.07280418456859 0 0 0
6184 1657 3 1.6 33.561237955251634 2.559416747180224 32.948706331572254 0 0 0
7392 1658 3 1.6 33.68873506352148 0.7678885521815448 38.10477620329263 0 0 0
6190 1728 3 1.6 36.05810805317307 1.244958078515886 34.04842041009857 0 0 0
6192 1730 3 1.6 36.14865882223301 2.3098535826652586 37.06851677770102 0 0 0
7398 1760 3 1.6 36.24127358314946 5.037774412998483 38.19615524313698 0 0 0
6187 6877 1 -0.8 34.61900004772986 1.4136841713936616 33.3345188327554 0 0 0
6186 6878 1 -0.8 34.79764870746086 1.916041976079077 37.87095270931152 0 0 0
6198 7050 1 -0.8 38.32658110077419 4.1795991908858765 34.064800651346324 0 0 0
6195 7052 1 -0.8 37.199341536276194 1.9865614065085515 33.16773948146201 0 0 0
6191 7054 1 -0.8 36.03056235657581 1.8360326365932857 35.53890547989302 0 0 0
6194 7056 1 -0.8 37.41269050143603 1.6325194382574013 37.806188628718175 0 0 0
6193 7059 1 -0.8 36.39203530511236 3.8899065118182845 37.08778158515579 0 0 0
6349 1671 3 1.6 33.597505596636324 5.2990980479181 34.15067783094868 0 0 0
6350 6908 1 -0.8 33.99320999526851 5.698741206620034 35.64038967903288 0 0 0
7402 1729 3 1.6 38.64325497039881 0.6049379980538078 37.87121459933104 0 0 0
6203 1873 3 1.6 41.22477183203588 2.2335154411977514 33.57997509731831 0 0 0
7412 1874 3 1.6 43.95263324804115 1.1265345453889017 37.510253137644334 0 0 0
6205 1875 3 1.6 40.99466929016827 2.149862541774027 36.70134857553875 0 0 0
7408 1905 3 1.6 41.14481931240367 4.766744420111826 38.334233687112686 0 0 0
6199 7055 1 -0.8 39.82759474287463 1.0477024122205127 36.869591587734504 0 0 0
6202 7398 1 -0.8 41.70584982525444 0.6980757170723632 33.40981704133307 0 0 0
6204 7399 1 -0.8 41.076619844969244 2.5768767336578446 35.15000025305763 0 0 0
6207 7400 1 -0.8 42.416255817175234 1.5528506468760306 37.21633100715351 0 0 0
6206 7404 1 -0.8 40.604579313640215 3.4452875621752073 37.58267813020708 0 0 0
6209 7465 1 -0.8 42.62034227756147 5.132987904776071 37.75793349467303 0 0 0
6379 7463 1 -0.8 43.9901306429549 5.646485916183072 35.5752248459611 0 0 0
6216 2036 3 1.6 46.21135686462148 1.9376425270925353 33.80272451499332 0 0 0
6218 2037 3 1.6 46.55059669630001 2.479789853909563 36.76604276529638 0 0 0
7418 2053 3 1.6 46.55528965444448 5.086704018112325 38.154834468599084 0 0 0
7422 2164 3 1.6 48.86048898593291 0.7604448296542925 37.87129946355015 0 0 0
6213 7397 1 -0.8 44.93437917843748 2.917193613008224 33.74907134024368 0 0 0
6212 7401 1 -0.8 44.9815546848717 2.2784080239752535 37.08069890150191 0 0 0
6215 7795 1 -0.8 45.71686725200008 0.4636093749606573 33.40003504009486 0 0 0
6217 7796 1 -0.8 46.839182601671055 1.955372538154594 35.280766988008786 0 0 0
6220 7797 1 -0.8 47.50846386014644 1.638974018738602 37.75428835935505 0 0 0
6219 7798 1 -0.8 46.847853403688504 4.042281231392606 36.97002794515417 0 0 0
6224 8094 1 -0.8 48.60862072260052 4.461068967997516 33.98344176736811 0 0 0
6229 2163 3 1.6 51.39686825030152 1.8266801960088344 33.813843866856935 0 0 0
6231 2165 3 1.6 51.315808930048654 2.307902685495541 36.788764828150526 0 0 0
7428 2195 3 1.6 51.42420900884941 4.867231466573727 38.47265705760345 0 0 0
7432 2488 3 1.6 53.662648668632656 0.5910759740571935 38.11804367120897 0 0 0
6226 8095 1 -0.8 50.07570401163212 2.4030645785586104 33.064350513593986 0 0 0
6228 8096 1 -0.8 51.28231352913026 0.23037266897054562 34.04942994472402 0 0 0
6230 8098 1 -0.8 51.55365195612719 2.568745116785813 35.22623984481588 0 0 0
6225 8099 1 -0.8 50.05412896869067 1.3088732583556668 36.93324339160023 0 0 0
6232 8102 1 -0.8 50.94451507371451 3.7162807391457062 37.46375696152044 0 0 0
6233 8103 1 -0.8 52.669181459504976 1.6918249746489196 37.4491827940782 0 0 0
6235 8168 1 -0.8 52.9875369630237 5.205878212809199 38.246554399041884 0 0 0
6237 8876 1 -0.8 53.40379632545397 4.6755894900407515 33.33739039181916 0 0 0
6239 8877 1 -0.8 55.26816184076877 2.9002293842084867 33.70982631376209 0 0 0
6409 8908 1 -0.8 53.9515746181752 5.446382633086396 35.830196812104575 0 0 0
6238 8878 1 -0.8 55.18164019924824 1.1510812232771348 38.23917397178775 0 0 0
6249 2702 3 1.6 58.82457345348425 3.107137137069763 33.407439865766435 0 0 0
6242 2703 3 1.6 56.280664587836945 1.7880573830930058 34.286778363531326 0 0 0
6244 2705 3 1.6 56.33372009612282 1.7071791125229305 37.25883312221421 0 0 0
7438 2735 3 1.6 56.576147952279335 4.574728624535734 38.479792824186234 0 0 0
6252 3158 1 -0.8 60.34570840268049 2.6398683817735407 33.63402745636974 0 0 0
6251 3165 1 -0.8 60.35022806012191 0.6461596029413068 38.098184109701734 0 0 0
6250 9304 1 -0.8 58.69681711305078 4.709521051483576 33.588131205353484 0 0 0
6247 9305 1 -0.8 57.781706378332586 2.379389194105681 34.39308337108071 0 0 0
6241 9306 1 -0.8 56.26452683864409 0.4933799336493242 33.32789812022909 0 0 0
6243 9307 1 -0.8 55.8012108300625 1.418021829055675 35.76781946682002 0 0 0
6246 9308 1 -0.8 57.76451775174346 0.9782159477117681 37.41410413598396 0 0 0
6245 9311 1 -0.8 56.54185178279699 3.285862471118363 37.51369895333402 0 0 0
6248 9359 1 -0.8 58.05730319068614 5.204447329151115 38.59869576883223 0 0 0
6424 9357 1 -0.8 58.683466366848386 5.403000231036282 36.140015924993016 0 0 0
7442 2704 3 1.6 58.8091998343923 0.2778077815530744 38.417258759562024 0 0 0
6262 47 3 1.6 2.97551865879764 6.067434615408556 34.93022154141925 0 0 0
6254 48 3 1.6 0.5063888491681042 7.443405977711515 33.60328181342435 0 0 0
6264 49 3 1.6 3.369369783457739 5.954323417597234 37.91783817219084 0 0 0
6256 72 3 1.6 0.0773225119047744 10.353397482790905 34.553356666697276 0 0 0
6258 74 3 1.6 0.7775937050715568 10.217272024776259 37.609771509773694 0 0 0
6259 3237 1 -0.8 1.9829487241313006 7.043864314471641 34.116472706814925 0 0 0
6266 3238 1 -0.8 4.501410996867915 6.300479866539124 34.45362893084725 0 0 0
6263 3239 1 -0.8 2.834926718154789 6.422777079476951 36.482236283440464 0 0 0
6255 3240 1 -0.8 0.2928605268254858 9.05347848646053 33.611677405195536 0 0 0
6257 3301 1 -0.8 0.3649357790227205 9.918872309736086 36.07744426357791 0 0 0
6260 3302 1 -0.8 2.238246068275928 9.554143639011063 37.864795667734995 0 0 0
6272 4233 1 -0.8 5.43912056839793 9.96093580625289 36.31226136811334 0 0 0
6268 3366 1 -0.8 3.5413625584265724 10.89126983375354 34.78763068936549 0 0 0
6271 456 3 1.6 4.991790010759323 10.192181363260161 34.78115398214495 0 0 0
6123 4686 1 -0.8 9.76849508949904 5.7597251555948406 37.70588290189773 0 0 0
6269 442 3 1.6 5.401358022551518 7.295926928305929 33.55692988929685 0 0 0
6273 457 3 1.6 5.668227388258435 10.479133589456383 37.83008938541039 0 0 0
6277 677 3 1.6 8.076981332030767 6.00412018847882 34.404692701160165 0 0 0
6284 678 3 1.6 10.602946832886687 7.283437981267259 33.24791692892946 0 0 0
6279 679 3 1.6 8.209326125740892 6.114192990541929 37.46334743327109 0 0 0
6286 702 3 1.6 10.086564697989704 10.145053534705553 34.325597970451085 0 0 0
7459 703 3 1.6 8.195701290418363 9.003778566170043 38.607435335700345 0 0 0
6288 704 3 1.6 10.739920340032764 10.170587980720134 37.41052069349642 0 0 0
6270 4203 1 -0.8 4.974545227923247 8.809360844322235 33.94031821261931 0 0 0
6274 4204 1 -0.8 6.973662595903295 7.05732857452642 33.85534666541383 0 0 0
6275 4235 1 -0.8 7.224200971087034 10.213523851078236 38.16366011187512 0 0 0
6281 4682 1 -0.8 9.568739644596494 6.6178940212686275 34.29197992379671 0 0 0
6280 4687 1 -0.8 7.948202552300736 7.694792955071515 37.683020657565706 0 0 0
6287 4735 1 -0.8 10.174661032498186 9.870490412059572 35.9193527872842 0 0 0
6282 4736 1 -0.8 9.731763017977716 9.471220665437533 38.46675878014321 0 0 0
6276 4232 1 -0.8 6.01517024723422 11.197253307227902 34.04784855351796 0 0 0
6283 4733 1 -0.8 8.549848469521512 10.436461774867256 33.93113297988864 0 0 0
6285 4684 1 -0.8 10.603739833936642 8.879864305815136 33.46689427766882 0 0 0
6299 1038 3 1.6 15.630044968449209 7.178042641902847 33.21740142976778 0 0 0
6292 1037 3 1.6 13.100857377019043 5.924921461902871 34.430976843500105 0 0 0
6294 1039 3 1.6 13.404896617048577 6.003350457378839 37.41574008879695 0 0 0
6301 1062 3 1.6 15.044219888006944 10.141157067137039 34.4111200637609 0 0 0
7467 1063 3 1.6 13.286089319709244 8.901306997734038 38.57315711998222 0 0 0
6303 1064 3 1.6 15.576501771009985 10.610157348338507 37.50581878625669 0 0 0
6289 4685 1 -0.8 12.101826036530847 6.728459738371523 33.45867875401151 0 0 0
6290 4739 1 -0.8 12.219331999954477 9.52939535369643 37.53638941873952 0 0 0
6296 5462 1 -0.8 14.63950132139253 6.203909762019099 34.036916644763195 0 0 0
6293 5463 1 -0.8 12.872603940274628 6.389500842761674 35.94941208392959 0 0 0
6300 5464 1 -0.8 15.365683034606676 8.70356946420755 33.71037245179253 0 0 0
6295 5467 1 -0.8 13.630664757597996 7.361710916450962 38.243928084217885 0 0 0
6302 5515 1 -0.8 15.26795823815379 10.040338271518756 36.01397309485384 0 0 0
6297 5516 1 -0.8 14.661416303706517 9.74414070221294 38.52942242223606 0 0 0
6298 5513 1 -0.8 13.531777103504611 10.623974818097278 34.07893340193337 0 0 0
6144 5468 1 -0.8 17.218960538081188 5.638171422878012 38.315248121215014 0 0 0
6149 5904 1 -0.8 19.78784358043545 5.910396942455829 37.76242210096528 0 0 0
6307 1236 3 1.6 18.170597410585692 5.745046114772355 34.274480459301586 0 0 0
6309 1237 3 1.6 18.295110870489506 6.404163671093109 37.38285055663012 0 0 0
7475 1247 3 1.6 18.185763302342888 9.315206105060446 38.455710906651056 0 0 0
6314 1348 3 1.6 20.625710296199976 7.138105553996973 33.13281645454351 0 0 0
6316 1372 3 1.6 20.05201846272798 9.991926242358698 34.39888887912587 0 0 0
6318 1374 3 1.6 20.90781333403011 10.338865473737679 37.47881087721362 0 0 0
6304 5465 1 -0.8 17.16409914196168 6.720337624706393 33.4587143327442 0 0 0
6305 5519 1 -0.8 17.140479365060195 10.399857510843324 37.858230671151745 0 0 0
6311 5902 1 -0.8 19.684574521137527 5.973388774302692 33.76459527013932 0 0 0
6308 5903 1 -0.8 17.9987056413677 6.046010400292559 35.84340610602857 0 0 0
6310 5905 1 -0.8 18.10583530155756 7.990708856811737 37.53483414352018 0 0 0
6312 5923 1 -0.8 19.73745177060108 9.756241307887954 38.46486188942893 0 0 0
6315 6164 1 -0.8 20.361619062778377 8.431362674586039 34.06318078503189 0 0 0
6317 6210 1 -0.8 20.249475192141425 10.23910280220131 35.98970506380519 0 0 0
6319 6161 1 -0.8 22.168785887236485 6.686349131081666 33.157762290400434 0 0 0
6313 5949 1 -0.8 18.57643808328224 10.369075311005476 33.841173500668866 0 0 0
6322 1347 3 1.6 23.361001039931633 6.076731761338901 34.04642411705733 0 0 0
6324 1349 3 1.6 23.274182062816084 5.6878386301106705 37.05253176973564 0 0 0
7483 1373 3 1.6 23.243618123261303 8.519224636004484 38.51373953029261 0 0 0
6329 1472 3 1.6 25.68582633220534 7.850500194138403 33.10469035903432 0 0 0
6326 6162 1 -0.8 24.660937598482988 7.016209599914492 34.045046619027 0 0 0
6323 6163 1 -0.8 22.78195619698643 5.814591607090037 35.527556743485654 0 0 0
6325 6166 1 -0.8 23.32399013350386 7.155914170773186 37.66983915887452 0 0 0
6320 6211 1 -0.8 22.297693416195262 9.53316514366398 37.67133903845734 0 0 0
6327 6212 1 -0.8 24.76670237591482 8.95359535339936 38.74771512099479 0 0 0
6330 6448 1 -0.8 25.750893334968033 9.317281592009603 33.73224568612133 0 0 0
6334 6449 1 -0.8 27.142749133871014 7.146630915903544 33.14844629023273 0 0 0
6332 6472 1 -0.8 25.2652815183605 9.250653453700536 36.29429358631534 0 0 0
6335 6473 1 -0.8 27.23554256081056 9.592805526085613 37.99984983234806 0 0 0
6331 10124 3 1.6 24.84744756263903 9.898049875416808 34.91088664722722 0 0 0
6333 10125 3 1.6 25.683012801888065 9.772479831032504 37.75045529978779 0 0 0
6328 6237 1 -0.8 23.35390348358759 9.66494227888522 34.44261729149709 0 0 0
6484 10124 2 0.4 24.442546920769537 10.576442030907524 34.81791521509787 0 0 0
6485 10125 2 0.4 25.030689271352117 10.195775200864789 38.06127914100054 0 0 0
6479 10096 3 1.6 22.64120379746062 10.375083126321247 33.21922682142027 0 0 0
6342 1563 3 1.6 31.27071552818701 7.032520516291274 33.173357620155684 0 0 0
6175 6661 1 -0.8 29.827555695601976 5.5448894394973465 37.1461175960388 0 0 0
6336 1562 3 1.6 28.3066852540379 6.175354686319743 33.706296453997716 0 0 0
6338 1564 3 1.6 28.273546888622466 5.81602540680282 36.8031773272738 0 0 0
7492 1579 3 1.6 28.232283887336454 8.407241321368609 38.41842984112247 0 0 0
6340 6657 1 -0.8 29.735852074560125 6.926600950720718 33.68044675515082 0 0 0
6337 6658 1 -0.8 27.991035514543658 5.679712743240273 35.21529572073223 0 0 0
6343 6659 1 -0.8 31.987961081779247 8.343847935170794 33.74266685045015 0 0 0
6347 6660 1 -0.8 32.106331284683655 5.777735597317477 33.7695647914282 0 0 0
6339 6662 1 -0.8 27.86575787844827 7.267577223152616 37.32198415895023 0 0 0
6345 6698 1 -0.8 31.051154920091403 8.577791834906767 36.12805392914185 0 0 0
6341 6699 1 -0.8 29.82756714005767 8.521047703923433 38.421694222670126 0 0 0
6348 6701 1 -0.8 32.289039843259495 9.45144438227923 38.16333358074627 0 0 0
6346 10138 3 1.6 30.847482939771012 9.315673049513183 37.5207347675606 0 0 0
6344 10287 3 1.6 32.28260839395054 8.940265274871921 35.19569753640673 0 0 0
6352 6910 1 -0.8 32.78273859573533 7.070088341511024 37.5557351083182 0 0 0
6489 10138 1 -0.8 29.96307484441704 10.582734787747821 37.404596553394775 0 0 0
6487 10138 2 0.4 29.993149520474127 9.642120655443222 37.764786932757076 0 0 0
6488 10287 1 -0.8 32.162784642637334 10.481528383164424 35.29768475078772 0 0 0
6486 10287 2 0.4 31.95351091635892 9.580299185267709 35.63601363882238 0 0 0
6196 7121 1 -0.8 37.38429802176814 6.14075751147719 37.93720062813067 0 0 0
6188 6909 1 -0.8 34.71408061155595 5.515940550670298 38.135776579739364 0 0 0
6351 1672 3 1.6 33.46431607125939 5.718920101441016 37.14224391115779 0 0 0
7501 1679 3 1.6 33.41753353600833 8.332911407826208 38.29291974285646 0 0 0
6363 1757 3 1.6 38.49327955318668 5.762240230183234 34.32130783767096 0 0 0
6355 1758 3 1.6 35.9042518623202 6.891182344132903 33.05509186696028 0 0 0
7508 1777 3 1.6 38.552515551386385 9.395856277521466 38.32321851319016 0 0 0
6353 6907 1 -0.8 34.67640109102683 5.861299319875068 33.10092256001698 0 0 0
6354 6925 1 -0.8 34.972004296076655 8.50204889852862 37.99712100949722 0 0 0
6360 7117 1 -0.8 37.06165045511969 6.450052541673949 34.09194336139436 0 0 0
6356 7119 1 -0.8 35.37081992858422 8.32257280609096 33.46945983351977 0 0 0
6358 7162 1 -0.8 36.295795337261715 9.111383112042857 35.76440597457406 0 0 0
6361 7164 1 -0.8 37.117161474642195 10.01959624724227 37.987823750844356 0 0 0
6359 9956 3 1.6 35.780373124020855 9.584212688965904 37.193340122066786 0 0 0
6357 10155 3 1.6 36.074852972622544 9.495196275842241 34.25169553708117 0 0 0
6491 10287 1 -0.8 33.59994253071719 8.38458166432491 35.820651647160766 0 0 0
6490 10287 2 0.4 33.27302860980193 7.8247304053398725 36.56422668824363 0 0 0
6362 7161 1 -0.8 37.50248587456047 9.749712219683015 33.5495356910875 0 0 0
6495 9956 1 -0.8 34.6873596409069 10.679115873337974 37.17271769540447 0 0 0
6492 9956 2 0.4 34.83435890716306 9.723172156266012 37.39093288222692 0 0 0
6493 10155 2 0.4 35.53425562245258 9.84741180035028 34.33937525206099 0 0 0
6494 10155 1 -0.8 35.149625705821244 10.723188714512474 34.160790312318 0 0 0
6366 7122 1 -0.8 38.87476718373341 8.170437015718637 37.31432463567759 0 0 0
6201 7120 1 -0.8 40.06506072135176 5.961739304281851 38.16800792326369 0 0 0
6365 1759 3 1.6 38.81627209658687 6.571305251759716 37.31632782281899 0 0 0
6364 7118 1 -0.8 39.00290920388268 6.00084033099535 35.82445884454831 0 0 0
6378 1902 3 1.6 43.70695123795943 6.28426601000142 34.125585845076984 0 0 0
6370 1903 3 1.6 40.95914615758247 7.236262002322291 33.17883080765512 0 0 0
6380 1904 3 1.6 43.788972621301134 6.049784990796429 37.11781836824922 0 0 0
6372 1927 3 1.6 40.997234621208406 10.088473137726535 34.50388599289432 0 0 0
7516 1928 3 1.6 43.65787985910988 8.842082830746687 38.26109572195337 0 0 0
6374 1929 3 1.6 41.26592803604721 10.483002059365067 37.48401533735676 0 0 0
6367 7116 1 -0.8 39.62041702826489 6.339852173376145 33.308620990645956 0 0 0
6368 7163 1 -0.8 39.79606338402602 10.421566138682856 38.14880957243394 0 0 0
6375 7461 1 -0.8 42.14494016174038 6.655981670740117 34.10003296187552 0 0 0
6371 7464 1 -0.8 40.67432157465947 8.738464219200127 33.665632442403414 0 0 0
6381 7466 1 -0.8 43.3682734449687 7.596585645403553 37.27484363536018 0 0 0
6373 7510 1 -0.8 41.289900187649735 9.74874954670464 36.04309709823228 0 0 0
6376 7511 1 -0.8 42.31032681301772 9.695042213338038 38.422094969184656 0 0 0
6369 7184 1 -0.8 39.655066967447134 10.955735462487025 34.42643271495098 0 0 0
6377 7509 1 -0.8 42.26733828354912 10.841569733714902 33.839673218349105 0 0 0
6498 10170 3 1.6 38.52644608808454 10.933577472022721 33.30414849512638 0 0 0
6214 7467 1 -0.8 45.22374995312258 5.927952283765246 37.84663674282473 0 0 0
6222 7830 1 -0.8 47.85969270327668 6.013232650667936 38.338432543253084 0 0 0
6385 2052 3 1.6 46.260560377876665 7.751739380091006 33.59467946176035 0 0 0
6387 2066 3 1.6 46.38435358445962 10.693025370467089 34.6645855121703 0 0 0
6389 2067 3 1.6 46.221681319807196 10.63172947031225 37.6882242552211 0 0 0
6393 2192 3 1.6 48.60234268245792 5.990593790150654 34.525535842533436 0 0 0
6395 2194 3 1.6 49.12836051207486 6.6193802973817135 37.54880660404861 0 0 0
6382 7462 1 -0.8 44.691840136278934 7.5416785941336935 33.917885916671146 0 0 0
6383 7512 1 -0.8 44.88405806215158 9.719867481782046 37.68036883193815 0 0 0
6386 7828 1 -0.8 46.68420454191693 9.258890946013095 33.97027104352216 0 0 0
6390 7829 1 -0.8 47.132526684604535 6.666604463616846 34.43291757921568 0 0 0
6388 7858 1 -0.8 46.844942697270795 10.638944046379468 36.202330828286776 0 0 0
6394 8163 1 -0.8 49.13019471719259 6.043439023932576 36.045077480591715 0 0 0
6396 8167 1 -0.8 48.963165213426485 8.215699551495865 37.54728502726283 0 0 0
6399 8213 1 -0.8 49.574060533827684 10.877870312421209 34.55031385668329 0 0 0
6397 8162 1 -0.8 49.627476971514625 6.869547498019224 33.640007323212906 0 0 0
6384 7556 1 -0.8 44.803597890673984 10.989185926819962 34.66619762903849 0 0 0
6227 8166 1 -0.8 50.51678564094659 6.1822748780793 38.24724101916928 0 0 0
6400 2193 3 1.6 51.123359110918656 7.416947243587676 33.395026529600614 0 0 0
6402 2217 3 1.6 51.07129631067474 10.310300352557649 34.533969911251276 0 0 0
6404 2219 3 1.6 51.5290304896962 10.474834257035718 37.53931297617438 0 0 0
6408 2501 3 1.6 53.581243199820705 5.929912491493811 34.339741828520566 0 0 0
6410 2502 3 1.6 54.09059755082724 5.96975964841933 37.34802370337069 0 0 0
6401 8164 1 -0.8 51.16843844066602 9.019175028482628 33.57736649976828 0 0 0
6405 8165 1 -0.8 52.179681256287175 6.730574540555491 34.39456999416517 0 0 0
6403 8215 1 -0.8 51.528275738383044 9.930126098901862 36.027646409453816 0 0 0
6398 8216 1 -0.8 50.00701431311638 10.507838761689444 38.09756329156292 0 0 0
6406 8219 1 -0.8 52.446423412853015 9.524096491033225 38.453314557931165 0 0 0
6412 8907 1 -0.8 54.77385843904487 6.897960653671299 33.81655879216878 0 0 0
6411 8910 1 -0.8 53.853365513305256 7.5604976803197825 37.4685218054375 0 0 0
6413 8928 1 -0.8 55.132476297529415 9.710443626048642 38.357440144051004 0 0 0
6414 8960 1 -0.8 54.448794752373146 10.780544703322008 34.5663984574175 0 0 0
6240 8909 1 -0.8 55.58156561379398 5.686106578217279 37.877852609830796 0 0 0
6253 3245 1 -0.8 60.57681696648778 5.674409622379545 37.91704321750639 0 0 0
6423 2732 3 1.6 58.694410922356454 5.939912435828773 34.6308180863597 0 0 0
6415 2733 3 1.6 56.25215240248547 7.460853636087605 33.45756131963188 0 0 0
6425 2734 3 1.6 59.03450730329606 5.993108970974797 37.5955186216272 0 0 0
6417 2757 3 1.6 55.98477825130984 10.320985680004771 34.55889214712038 0 0 0
6419 2759 3 1.6 56.35757780820463 10.40855700837311 37.5519558342155 0 0 0
6427 3241 1 -0.8 60.05749195598663 6.801185984966764 34.50228680931049 0 0 0
6420 9356 1 -0.8 57.38127915576333 6.861163370983089 34.43493625706175 0 0 0
6416 9358 1 -0.8 56.23134859027137 9.0775427910204 33.56117226333495 0 0 0
6426 9360 1 -0.8 58.76190842046506 7.590202245822652 37.694420503608356 0 0 0
6418 9394 1 -0.8 56.37114170254818 9.863350223710855 36.04413651272076 0 0 0
6421 9395 1 -0.8 57.80277795424404 10.051499924810765 38.185399533367345 0 0 0
6436 97 3 1.6 2.8463380191914336 14.597061292390602 34.875723420262396 0 0 0
6434 98 3 1.6 2.6475478510121855 11.754924450165133 33.76677618628212 0 0 0
6438 99 3 1.6 3.2095547273230163 14.730780499261417 37.84254981367948 0 0 0
6431 127 3 1.6 0.4966812313848352 16.25228104186176 33.96980779386411 0 0 0
6261 3300 1 -0.8 1.1001566558452331 11.505574433754617 34.09946047895024 0 0 0
6430 3305 1 -0.8 0.7520363028478744 11.825393027437872 37.89427192828804 0 0 0
6435 3362 1 -0.8 2.9452562337139825 13.330755952803354 33.88772991979102 0 0 0
6433 3363 1 -0.8 1.377322012399702 15.262059849025539 34.88953052105799 0 0 0
6441 3364 1 -0.8 3.878692154089418 15.71567641581899 34.368516223391076 0 0 0
6437 3365 1 -0.8 3.22898390965953 14.1160489839379 36.35730702329627 0 0 0
6439 3367 1 -0.8 2.785706399094922 16.278232496891512 37.72439086402179 0 0 0
6440 3369 1 -0.8 4.632487714087126 14.547236845363303 38.545478981429575 0 0 0
6443 481 3 1.6 5.2241807513328675 15.87319169563084 33.50338845452212 0 0 0
6442 4234 1 -0.8 5.335082902914949 12.042596748121845 38.06303139056094 0 0 0
6448 727 3 1.6 7.484858116062278 14.356707707255106 35.0459285644682 0 0 0
6446 728 3 1.6 7.521917172602843 11.657755961137134 33.72237606547892 0 0 0
6450 729 3 1.6 7.851054600994669 14.65506164017859 38.001674692096216 0 0 0
7561 730 3 1.6 10.439509072151012 13.063541916440514 38.637181141791025 0 0 0
6455 757 3 1.6 9.76598352423061 15.87703021690031 33.71945565810564 0 0 0
6445 4283 1 -0.8 6.290425570004594 14.778339048762234 34.034522238479546 0 0 0
6454 4738 1 -0.8 10.788571154116262 11.762864817859253 37.72080880825769 0 0 0
6447 4782 1 -0.8 7.905650345650935 12.835177399463808 34.744113361082505 0 0 0
6453 4783 1 -0.8 8.752853393055924 15.305742346233934 34.83572655165408 0 0 0
6449 4784 1 -0.8 7.06969284356704 14.501636032657032 36.59025165363167 0 0 0
6451 4785 1 -0.8 7.887514075477978 16.218090628587984 38.39043043836221 0 0 0
6452 4786 1 -0.8 9.299673727498769 13.958384156868062 37.917124632626134 0 0 0
6460 1087 3 1.6 12.426533498398603 14.693733950791747 34.811595314099435 0 0 0
6458 1088 3 1.6 12.547843893381312 11.8524998616508 33.66200377733286 0 0 0
6462 1089 3 1.6 12.578583661704345 14.993147041973875 37.828853339497066 0 0 0
7569 1090 3 1.6 15.157778226569633 13.482500429425166 38.60038331501832 0 0 0
6291 4734 1 -0.8 11.017436742719195 11.41125321244379 33.96848258559246 0 0 0
6457 4842 1 -0.8 11.173819232059627 15.119979562384602 33.901040052178004 0 0 0
6466 5518 1 -0.8 15.115952486432349 12.143552085954335 37.680494233190835 0 0 0
6459 5562 1 -0.8 12.882879711295338 13.165217511079817 34.51107945085097 0 0 0
6465 5563 1 -0.8 13.711837396906745 15.606111231407032 34.61423936476771 0 0 0
6461 5564 1 -0.8 11.995057849427395 14.718052595014369 36.355768155717676 0 0 0
6463 5565 1 -0.8 12.359450682940475 16.553748900615044 38.11392893926558 0 0 0
6464 5566 1 -0.8 14.120226044509671 14.557052473400317 37.99717653260377 0 0 0
6467 9970 3 1.6 15.036080818952497 15.312704796275751 33.79207951567583 0 0 0
6469 5600 1 -0.8 15.909158127495447 14.226871268227049 34.60767566018634 0 0 0
6578 9970 2 0.4 15.229679315706685 15.863199745143767 33.27430007450624 0 0 0
6306 5514 1 -0.8 16.077643917333653 11.211949303144717 33.81429532110783 0 0 0
6470 1256 3 1.6 17.564265188955048 11.491909684107204 33.23848915683779 0 0 0
6468 5567 1 -0.8 16.64308583706285 14.057901349022165 38.54499917331025 0 0 0
6471 5947 1 -0.8 17.99322472162239 12.924551434715694 33.78958776205958 0 0 0
6473 5948 1 -0.8 17.676587132909635 13.206294323570042 36.352974096296755 0 0 0
6478 6214 1 -0.8 21.11132163878615 11.853008538148018 37.93804876352247 0 0 0
6472 10077 3 1.6 17.428810204687878 13.889463701347463 34.925450775588494 0 0 0
6475 10077 1 -0.8 18.131976228064637 15.260255943256183 34.82659790109714 0 0 0
6474 10078 3 1.6 18.012411593648352 13.721417559221589 37.822899237047054 0 0 0
6476 10078 1 -0.8 18.79050197299046 15.037839440696182 37.60128051281499 0 0 0
6321 6209 1 -0.8 21.172558537439016 10.812968118742425 33.622048304124434 0 0 0
6580 10077 2 0.4 17.462523908385695 14.55125815950034 34.83183266090961 0 0 0
6581 10078 2 0.4 18.28099075584739 14.209426864251013 37.554555764384496 0 0 0
6482 10124 1 -0.8 24.87059347074107 11.438380872794669 35.02735360026348 0 0 0
6483 10125 1 -0.8 25.08108728946739 11.17894059361037 38.00217919523164 0 0 0
6497 10170 1 -0.8 37.716814886853726 12.245737185772635 33.3589580040229 0 0 0
6496 10170 2 0.4 38.147092023537425 11.37407636431104 33.30542648679692 0 0 0
6503 1941 3 1.6 43.65933659278366 11.670399010561328 33.75021934562983 0 0 0
6499 7514 1 -0.8 41.85775909623537 11.958968359032616 37.259470277872126 0 0 0
6504 7553 1 -0.8 43.47433115798647 13.189747391654313 34.22601380415271 0 0 0
6500 7557 1 -0.8 42.929389111835896 14.364563911973233 37.81552358389117 0 0 0
7597 10171 3 1.6 42.11553249327764 13.114439111679761 38.324436776270446 0 0 0
6501 10192 1 -0.8 43.05232049602908 15.559932277736129 35.2555218337692 0 0 0
6582 10192 2 0.4 43.862307227534586 15.033958498734963 35.551257741288495 0 0 0
6505 10192 3 1.6 44.13731186219761 14.590354554380406 34.697353816922686 0 0 0
6507 10193 3 1.6 44.33586147484976 15.049085593628318 37.463146359893315 0 0 0
6502 10193 1 -0.8 44.35540742298386 16.574402903271807 37.72891605170213 0 0 0
6506 7555 1 -0.8 44.85004717664979 14.398160710427875 36.09423707268579 0 0 0
6511 2083 3 1.6 46.41538813289891 15.822215842685084 33.20932284275254 0 0 0
6516 2242 3 1.6 48.951216708390994 15.068466432866888 34.612208241864955 0 0 0
6514 2243 3 1.6 48.83480190986168 12.104659844877531 33.797427090233455 0 0 0
6518 2244 3 1.6 49.090386804148054 14.792039692082518 37.50779571308229 0 0 0
6509 7554 1 -0.8 44.9885524286802 15.162912453373156 33.4861043362141 0 0 0
6392 7857 1 -0.8 47.2509814068584 11.822744063286434 33.898870558964965 0 0 0
6510 7859 1 -0.8 45.91123110394488 12.132399810521717 38.144913785694236 0 0 0
6512 7878 1 -0.8 47.70048143814071 14.000821534361586 37.498492501949464 0 0 0
6513 7905 1 -0.8 47.41016333472924 15.198768696921366 34.302896142135474 0 0 0
6515 8262 1 -0.8 49.28774307856571 13.48282598213657 34.48451669441197 0 0 0
6517 8264 1 -0.8 49.32843418823432 15.506390138996156 36.1012887959897 0 0 0
6583 10193 2 0.4 44.77201572283929 15.689181617498003 37.81245563465735 0 0 0
7611 2245 3 1.6 51.6272735081265 13.256766856926422 38.41919752400087 0 0 0
6523 2272 3 1.6 51.34788478944361 16.09753003353446 33.19612825353332 0 0 0
6528 2526 3 1.6 53.69375128672334 14.689640212898382 34.4539510890774 0 0 0
6526 2527 3 1.6 53.569132598374 11.714215660211861 33.59915768000904 0 0 0
6530 2528 3 1.6 53.99550783284318 15.044079524152222 37.57681668734638 0 0 0
6407 8214 1 -0.8 52.02812799338539 11.478957137391596 33.96290711792104 0 0 0
6522 8218 1 -0.8 52.144868296366504 11.956748076123468 37.62370259675282 0 0 0
6521 8263 1 -0.8 49.79649713430126 15.886547119329371 33.520677196962815 0 0 0
6520 8266 1 -0.8 50.26626633183667 13.717903795646606 37.719417260865185 0 0 0
6524 8267 1 -0.8 52.71882039431325 14.434940064559598 38.35147661199031 0 0 0
6525 8322 1 -0.8 52.173195867735124 15.122039390063906 34.187933542606594 0 0 0
6527 8957 1 -0.8 53.978290319470474 13.266844712627384 33.74608790545677 0 0 0
6533 8958 1 -0.8 54.64370290984428 15.828741098052696 33.81533869786911 0 0 0
6529 8959 1 -0.8 53.96929406445512 14.560551405716565 36.036926571640294 0 0 0
6531 8961 1 -0.8 53.93340037760383 16.650781717883522 37.6833815356735 0 0 0
6532 8962 1 -0.8 55.34361676777033 14.476127425195989 38.2597604795066 0 0 0
6422 9393 1 -0.8 56.852345264639744 11.60383973599959 34.10055545273878 0 0 0
6540 2782 3 1.6 58.564863419320275 14.859521076105558 34.71443658452712 0 0 0
6538 2783 3 1.6 58.34305179118609 11.951171346162722 33.608186184805426 0 0 0
6542 2784 3 1.6 58.909332303601666 14.725368544944986 37.81101855662221 0 0 0
6535 2812 3 1.6 56.15153513818129 16.342573430397973 33.58259485502111 0 0 0
6429 3299 1 -0.8 59.32037076278298 10.98621010976485 34.45936631049225 0 0 0
6544 3370 1 -0.8 60.39284597151746 14.291578036522331 38.27169352517365 0 0 0
6545 3438 1 -0.8 59.66036281715117 15.979505714710363 34.3001464132387 0 0 0
6534 9397 1 -0.8 56.16617539140706 12.018466250084666 37.56263740030764 0 0 0
6539 9431 1 -0.8 58.67682830142424 13.529147558631724 33.79100865333532 0 0 0
6537 9432 1 -0.8 57.109057020803526 15.539083860774213 34.59755867146761 0 0 0
6541 9433 1 -0.8 58.78817726539894 14.392743672705839 36.23759605505423 0 0 0
6543 9434 1 -0.8 58.60420792031965 16.305774832253697 38.061662978025865 0 0 0
6553 158 3 1.6 3.3845228817778876 20.706103762248222 33.2858833879634 0 0 0
6547 128 3 1.6 0.7809299125347691 19.422035201213593 34.460274306138594 0 0 0
7632 129 3 1.6 2.3648635939513207 17.624090713442563 38.50274252658676 0 0 0
6549 130 3 1.6 0.013605724766280946 19.352187291385654 37.541694043908855 0 0 0
7627 160 3 1.6 0.7290909930786569 22.276875700623787 38.51731495421548 0 0 0
6546 3437 1 -0.8 0.8934829135954898 17.81989287488924 34.18083011762144 0 0 0
6552 3440 1 -0.8 2.207581214343123 20.166887850112374 34.26457966189796 0 0 0
6548 3441 1 -0.8 0.25972030032364013 19.64196055325461 35.975706774965865 0 0 0
6551 3442 1 -0.8 0.9073007611423343 18.10154073053109 38.03433785514107 0 0 0
6555 3443 1 -0.8 3.3871613858560177 18.811020285949528 38.14334562631629 0 0 0
6554 3514 1 -0.8 3.799036277980891 22.23146113878453 33.64216982165497 0 0 0
6556 3516 1 -0.8 4.6598354167899005 19.726750244467862 33.44690871889759 0 0 0
6560 483 3 1.6 4.791358338077246 18.959965103432783 37.379205036490866 0 0 0
6559 4285 1 -0.8 4.600992875767041 18.64001805003766 35.8097024323937 0 0 0
6561 4286 1 -0.8 5.33996310096336 20.466443987498124 37.60678529118232 0 0 0
6550 3445 1 -0.8 0.39503080419754716 20.698837053307397 38.352633825394186 0 0 0
6558 482 3 1.6 5.474884586903694 18.766396513052552 34.461859958308175 0 0 0
7639 497 3 1.6 5.687535418110126 21.810614917882486 38.45318945484221 0 0 0
6569 758 3 1.6 10.2972636142515 18.695250120563312 34.83416978176772 0 0 0
7644 759 3 1.6 7.211363752226886 17.661106435309765 38.69590913187944 0 0 0
6571 760 3 1.6 9.762583837743053 18.930944039166928 37.902010069262175 0 0 0
6564 785 3 1.6 7.877504725214544 20.496939776236065 34.290169484203965 0 0 0
6557 4282 1 -0.8 5.783193612096356 17.35555711619991 33.754973655854705 0 0 0
6563 4284 1 -0.8 6.8898067719545475 19.381840274522048 34.90184252956104 0 0 0
6562 4287 1 -0.8 5.787199484373642 17.835285942295336 37.96930528239454 0 0 0
6568 4841 1 -0.8 9.742283652260786 17.471729277081266 33.92503618882159 0 0 0
6567 4843 1 -0.8 9.401585417447377 20.02118686572071 34.529809654044044 0 0 0
6570 4845 1 -0.8 10.161099915401543 18.37400785913657 36.42411112886838 0 0 0
6566 4846 1 -0.8 8.171868768553328 18.80907931061218 38.1150975818018 0 0 0
6572 4848 1 -0.8 10.184919487386136 20.46264833598396 38.043678058838154 0 0 0
6565 4900 1 -0.8 7.462663054547113 21.901939700413006 34.96836289078416 0 0 0
6574 4844 1 -0.8 11.815278689832779 18.803865700734608 34.35004239890112 0 0 0
6579 9970 1 -0.8 15.835598942955215 16.597515803745605 33.50428017493131 0 0 0
6584 10203 2 0.4 47.69148226835972 19.294877028601217 33.66943882069814 0 0 0
6588 7904 1 -0.8 46.67106417194993 17.401312459797246 33.059427225385384 0 0 0
6593 7906 1 -0.8 48.87000542143077 18.86777528606889 33.066844767722344 0 0 0
6590 7907 1 -0.8 47.88015849595105 17.909270254115608 35.28558836454103 0 0 0
6592 7908 1 -0.8 47.39557820499599 16.848950188094765 37.632180633586046 0 0 0
6595 8383 1 -0.8 49.32347104618866 21.692305219688784 33.27792545499606 0 0 0
6591 9992 3 1.6 46.7659591887896 17.670178843939485 36.41847554286645 0 0 0
6587 9992 1 -0.8 45.78461808620197 16.902527952714347 35.48394154240508 0 0 0
6585 9992 2 0.4 46.72041520292454 17.17039419345363 35.37281890844531 0 0 0
7671 9992 1 -0.8 46.28907332333767 19.067505278162958 36.990236751172645 0 0 0
7669 9992 2 0.4 48.20962491574276 16.427768073033555 37.99560018120347 0 0 0
6589 10203 3 1.6 47.55733847000611 18.45989194959254 33.8286801885782 0 0 0
6586 10203 1 -0.8 46.92010057712871 19.870054509284 33.911513135974715 0 0 0
6596 8326 1 -0.8 49.475231868488315 18.363270083525357 37.96470316801379 0 0 0
6594 2294 3 1.6 49.786476385068326 20.187827890474264 32.989942227822205 0 0 0
6599 2273 3 1.6 51.82982586662363 18.771721351969394 34.61659221622113 0 0 0
6601 2275 3 1.6 50.949792130955444 18.802404109889856 37.502668688371394 0 0 0
7682 2295 3 1.6 51.015438256063206 21.90234483552644 38.048759499689034 0 0 0
6605 2557 3 1.6 54.03595535471989 20.629645226563024 33.816258098439164 0 0 0
6598 8321 1 -0.8 51.79759627310329 17.608229251040232 33.49923354272862 0 0 0
6597 8323 1 -0.8 50.86307310708896 19.950292522313543 34.16472043083469 0 0 0
6604 8324 1 -0.8 53.29894810389792 19.437905932728782 34.62888499264133 0 0 0
6600 8325 1 -0.8 51.37405814112707 18.20605911519169 36.055141610263114 0 0 0
6602 8328 1 -0.8 51.15138108330716 20.406095870308242 37.428230828061466 0 0 0
6607 8988 1 -0.8 54.462714410611945 19.14658384930098 38.24241279773474 0 0 0
6606 9018 1 -0.8 53.523993353359465 22.073817902218288 34.28717492702357 0 0 0
6608 9020 1 -0.8 55.597957635955815 20.464536842675802 34.17472125548184 0 0 0
6610 2813 3 1.6 56.52965231004399 19.258502354086993 34.693309748006364 0 0 0
7699 2814 3 1.6 58.4076969590661 17.790409376852537 38.69893844424048 0 0 0
6612 2815 3 1.6 55.99581760890379 19.319893696196605 37.78242071477496 0 0 0
6616 2843 3 1.6 58.881851769961756 20.630066221141117 33.4436726044468 0 0 0
6619 3439 1 -0.8 60.42003030804881 20.12345226446015 33.47859381337709 0 0 0
6618 3446 1 -0.8 59.21932545454321 18.895486338587535 37.83765055837277 0 0 0
6609 9476 1 -0.8 56.258819869889805 17.937448618264174 33.80056240702157 0 0 0
6615 9477 1 -0.8 58.053967180740415 19.73500957169994 34.498965505370165 0 0 0
6611 9478 1 -0.8 56.181654448935085 18.91969072830723 36.22868395022519 0 0 0
6614 9479 1 -0.8 56.87217881358589 18.273930739687177 38.65722884855164 0 0 0
6613 9481 1 -0.8 56.515872607721725 20.83513624005209 37.993784817613275 0 0 0
6617 9522 1 -0.8 58.72388003743471 22.205671740103092 33.785626749239455 0 0 0
6625 157 3 1.6 3.3797306311942896 23.68947281591449 34.21153142644544 0 0 0
6627 159 3 1.6 3.2938226276321148 23.606147465400685 37.380667356980624 0 0 0
6620 182 3 1.6 0.8629673758163259 25.093442000646874 33.2120454008967 0 0 0
6623 3512 1 -0.8 1.8362631325165015 23.980834338667336 33.87254278647804 0 0 0
6630 3513 1 -0.8 4.147760393368897 24.906631139250475 33.48390004973625 0 0 0
6626 3515 1 -0.8 3.6698883396213517 23.70588742928293 35.80803761458156 0 0 0
6628 3517 1 -0.8 3.043830080439851 25.10777989628308 37.94528203712887 0 0 0
6622 3518 1 -0.8 1.9369976830296918 22.729625338706533 37.54278326964172 0 0 0
6629 3519 1 -0.8 4.495385665686714 22.89674280789865 38.215552204935605 0 0 0
6621 3575 1 -0.8 0.8301623247797897 26.418759250115677 34.144810288823415 0 0 0
6624 3576 1 -0.8 1.8129952931884108 27.415816136801745 37.521838451267904 0 0 0
6632 506 3 1.6 5.667196456526039 25.46815523719777 33.4343894391236 0 0 0
6633 4332 1 -0.8 5.72819724806798 26.899308193756553 34.15689896498259 0 0 0
6637 784 3 1.6 7.713889892534275 23.486747723026205 34.78435402422277 0 0 0
6639 786 3 1.6 8.183809036797218 23.61478695724746 37.75874764785603 0 0 0
6634 4313 1 -0.8 7.087485467678903 22.43363831059564 37.95712614164324 0 0 0
6635 4331 1 -0.8 6.442812230838182 24.337244567322447 34.28575633160339 0 0 0
6636 4367 1 -0.8 6.530251278053403 26.990774782533297 37.887565590830306 0 0 0
6642 4899 1 -0.8 8.726841110795547 23.588804593374682 33.56413208381877 0 0 0
6638 4901 1 -0.8 8.184316056956776 24.070689155034234 36.20697538321895 0 0 0
6641 4903 1 -0.8 9.623985163066642 23.02576686109537 38.134269804626435 0 0 0
6643 4939 1 -0.8 9.069133302715159 26.902897670058746 37.81761467907655 0 0 0
6714 4978 1 -0.8 8.432375536471952 27.16015267132969 35.3772059075309 0 0 0
6713 9975 3 1.6 9.345794957247046 27.16092823617726 34.088738005521414 0 0 0
6719 9975 2 0.4 8.546084783592764 26.61973605777231 33.96911690662831 0 0 0
6715 9922 3 1.6 8.911341537794543 27.968443611120726 36.65185387337026 0 0 0
7772 9922 2 0.4 9.28860579625577 28.10644399989515 35.73207433927228 0 0 0
6717 9975 1 -0.8 10.782009047873318 26.57728229049503 34.366260433608964 0 0 0
6651 9920 1 -0.8 48.36566495921379 24.226209677256904 35.72808087016631 0 0 0
7729 10237 1 -0.8 48.98042838029614 25.451647895185367 38.006603266857006 0 0 0
6654 9920 3 1.6 49.817389124371616 23.873082827080914 36.21803288591781 0 0 0
6649 9920 2 0.4 50.653297647022995 23.874752564456415 35.7308462523432 0 0 0
6652 10233 3 1.6 49.8768478277218 23.167635692377562 33.469069085958104 0 0 0
6648 10233 2 0.4 50.91510564235415 23.479051208772354 33.616762289830106 0 0 0
7726 10237 2 0.4 49.86192881351727 25.2001300533123 37.58859917333165 0 0 0
6653 8384 1 -0.8 50.54965282344794 23.374946672612467 34.906422495349304 0 0 0
6655 8385 1 -0.8 50.83203908190772 24.922825967443917 36.8087629326837 0 0 0
7732 10237 3 1.6 50.51108474738824 25.681987105054407 38.15311126920477 0 0 0
6664 2556 3 1.6 53.897035760603096 23.621970159479215 34.4904620194642 0 0 0
6666 2558 3 1.6 53.53382786083871 23.72567363153405 37.4317155178538 0 0 0
7739 2572 3 1.6 54.42169035995139 26.451743559779036 38.49560102710532 0 0 0
6656 8386 1 -0.8 49.87191259993292 22.68005078328755 37.27465249526546 0 0 0
6661 8387 1 -0.8 52.41917004892379 22.683033030601628 37.9010374693741 0 0 0
6660 8425 1 -0.8 51.3893259664274 25.90180102849467 33.912580547963145 0 0 0
6662 8426 1 -0.8 53.40276967270801 24.516804875778032 33.266834920115606 0 0 0
6658 8427 1 -0.8 50.999042677907376 27.16803499871004 38.031991431542735 0 0 0
6663 8467 1 -0.8 53.41271671294848 27.67198740334763 38.34845669698794 0 0 0
6665 9019 1 -0.8 53.330503237641324 24.105564763089284 35.89355223515518 0 0 0
6667 9021 1 -0.8 53.64629565131505 25.055564684233012 38.322164041460645 0 0 0
6668 9022 1 -0.8 54.986603016953694 22.95012236608901 37.53832643900285 0 0 0
6723 8465 1 -0.8 52.5787260708771 27.16773793710258 35.950721423431226 0 0 0
6722 10262 3 1.6 51.66908735865688 27.286248782772837 34.65538657725241 0 0 0
6720 10262 2 0.4 51.67794207209483 27.421377683896438 35.72040136360199 0 0 0
7694 2845 3 1.6 56.41898974140752 22.451820296884218 38.09680484438221 0 0 0
6669 9017 1 -0.8 55.48270292961444 23.885981438939645 34.46302459077134 0 0 0
6670 9048 1 -0.8 55.51731806768222 26.70654091590434 37.34389543060649 0 0 0
6676 2842 3 1.6 59.108633366561975 23.722981612414994 34.1910402070693 0 0 0
6678 2844 3 1.6 59.08919347393219 23.863937248580168 37.19296202855694 0 0 0
6671 2867 3 1.6 56.380374266443425 24.854217294831294 33.54705932042469 0 0 0
7746 2868 3 1.6 58.81578721067383 26.713979749744038 38.50868265936376 0 0 0
6680 3520 1 -0.8 60.12067537965863 23.164459120779547 38.22535143644613 0 0 0
6681 3574 1 -0.8 60.158056599111156 24.354385397083917 33.15765832438992 0 0 0
6674 9521 1 -0.8 57.861026039026804 24.73556325515665 34.14877559853435 0 0 0
6677 9523 1 -0.8 59.680767923163174 23.693446679004683 35.698748431659496 0 0 0
6679 9524 1 -0.8 58.93627038944123 25.447501353843002 37.50532154012871 0 0 0
6673 9525 1 -0.8 57.64028933985038 23.13563026509293 37.27221594329978 0 0 0
6672 9558 1 -0.8 55.93290794600463 26.41442815417165 33.540052538511596 0 0 0
6675 9559 1 -0.8 57.71594138884517 27.775424197453628 37.986071348133635 0 0 0
6737 2893 3 1.6 56.27650582270641 27.93871309995526 33.95684333677767 0 0 0
6738 9598 1 -0.8 56.9053275188337 27.89944538925968 35.446693526903346 0 0 0
6690 207 3 1.6 2.7590110002166024 29.592924220695156 33.396567793923325 0 0 0
6683 208 3 1.6 0.372440433065561 27.94286132571348 34.46099916052028 0 0 0
6685 209 3 1.6 0.42760879431935317 28.233074878070823 37.4415843498953 0 0 0
7750 210 3 1.6 0.13758734913608922 31.25739539703333 38.27943820401833 0 0 0
6692 237 3 1.6 2.7848647271594595 32.59039714155266 34.277287799215344 0 0 0
6694 239 3 1.6 2.8117629228890864 32.44553204283776 37.41108686989994 0 0 0
6691 3637 1 -0.8 2.6869218698211452 31.217465177914022 33.41907608430692 0 0 0
6687 3638 1 -0.8 1.6428160487142585 28.948343380089682 34.37102732110728 0 0 0
6695 3639 1 -0.8 4.238499627330764 29.07705075233591 33.81790948487646 0 0 0
6686 3642 1 -0.8 0.6160010218912015 29.81428144016518 37.712508525656425 0 0 0
6688 3645 1 -0.8 1.3828952930537124 32.28360699532544 38.15933992664979 0 0 0
6693 3714 1 -0.8 2.605025112044932 32.16977582044561 35.83089013331954 0 0 0
6696 3718 1 -0.8 3.8601825927498172 31.391700810308947 38.029535909925045 0 0 0
6698 522 3 1.6 5.436413767540853 28.38984241984573 34.69620022555094 0 0 0
6700 523 3 1.6 5.388135379013852 28.123892568498363 37.79369856609071 0 0 0
7758 524 3 1.6 5.412364364706916 31.162053669995032 38.500307245131644 0 0 0
6699 4365 1 -0.8 4.977690259460423 28.343566434972082 36.243533137243226 0 0 0
6697 3713 1 -0.8 4.205559008246791 33.32014842924133 34.04160285499372 0 0 0
6704 4391 1 -0.8 6.641440600567704 33.07519282466212 33.20447556332578 0 0 0
6701 4366 1 -0.8 5.648399987787121 29.560809239978663 38.479314022225786 0 0 0
6705 811 3 1.6 7.924258167060092 29.63656319921408 33.461289455710514 0 0 0
6707 827 3 1.6 8.01390526595605 32.71699849471217 33.9884736327936 0 0 0
6709 828 3 1.6 7.7146258287822835 32.75852964537957 37.03425818399966 0 0 0
6702 4364 1 -0.8 6.771467360033334 29.253390991408978 34.52096275361304 0 0 0
6703 4368 1 -0.8 6.310985686457129 32.00337068043604 37.434281208516495 0 0 0
6706 4976 1 -0.8 8.344861167280577 31.146370955577666 33.829344832910046 0 0 0
6710 4977 1 -0.8 9.129455517341942 28.586807200551455 33.4209645700278 0 0 0
6716 4979 1 -0.8 7.998650116372807 29.15739850891795 37.16977580393647 0 0 0
6711 4980 1 -0.8 8.808592337578027 31.596907256335374 37.13017140920193 0 0 0
6712 5021 1 -0.8 9.19406114357687 33.519167311325354 33.28899595177639 0 0 0
6708 5022 1 -0.8 7.732410052102338 33.23339271783858 35.49470357043175 0 0 0
7766 10024 3 1.6 8.669555097273081 30.298054871480474 38.01921915973631 0 0 0
7770 10024 1 -0.8 9.845512543053555 29.39170872220875 38.48468900382295 0 0 0
7773 10024 2 0.4 8.982842859754692 29.321692880683432 37.94581636491418 0 0 0
6718 9922 1 -0.8 10.089091347584798 28.672863157135623 35.9137167840885 0 0 0
6721 10262 1 -0.8 50.37448587234445 27.838830239376218 35.34063752289859 0 0 0
7777 10263 1 -0.8 50.03681222615935 30.755922370306788 37.89758119606967 0 0 0
7775 10263 2 0.4 51.00015914117346 30.777403861532903 38.056492169242745 0 0 0
6724 2314 3 1.6 52.20531835758583 27.90676490163638 37.32838474969314 0 0 0
6729 2581 3 1.6 53.55152308196872 29.46778711718939 33.370411308589354 0 0 0
6731 2597 3 1.6 53.607571138177704 32.55135812321159 34.172487816303004 0 0 0
6733 2598 3 1.6 53.577918380733344 32.79997630408137 37.17955780842425 0 0 0
6726 8464 1 -0.8 52.371056466241726 28.39260104177261 33.683631695773215 0 0 0
6725 8466 1 -0.8 52.07660061186839 29.461678729238837 37.054147635220296 0 0 0
6727 8468 1 -0.8 52.19028541703932 32.02674500302814 37.08062700872783 0 0 0
6728 8504 1 -0.8 52.27593808252708 33.37651198580479 33.82023816244264 0 0 0
6730 9066 1 -0.8 53.35403880943005 30.940571747793495 34.05695257465385 0 0 0
6734 9067 1 -0.8 54.93097535211166 28.83505938443804 33.96464384925397 0 0 0
6736 9099 1 -0.8 54.77288115620518 33.0342108051698 33.1432272138811 0 0 0
6732 9100 1 -0.8 54.09896581105928 32.97021461469784 35.653456635742 0 0 0
6735 9102 1 -0.8 54.69416401168 31.84216995296169 37.90457358723485 0 0 0
7779 10263 3 1.6 51.57569309890706 30.768228551248008 37.81365130240696 0 0 0
6684 3641 1 -0.8 60.521342426760455 28.034589308428668 35.96645102550258 -1 0 0
6739 2894 3 1.6 56.463105730774764 27.968753808499415 36.99039109511174 0 0 0
7787 2895 3 1.6 56.039065098664295 30.94317552723559 37.74899319321966 0 0 0
6746 2922 3 1.6 58.735314016777764 32.38307729238399 33.74199617690858 0 0 0
6748 2924 3 1.6 58.38000076053347 32.67231261009474 36.762314028188726 0 0 0
6749 3640 1 -0.8 59.95923955524435 28.40381811323356 33.408834854997814 0 0 0
6750 3644 1 -0.8 59.598513301169504 31.83932576059267 37.441361799105984 0 0 0
6745 9596 1 -0.8 58.78369946502562 30.761482913820615 33.8353421906516 0 0 0
6740 9599 1 -0.8 55.778134568103674 29.427103274328154 37.229230650232914 0 0 0
6742 9600 1 -0.8 57.05711734965077 31.73587908468342 36.76373555474501 0 0 0
6743 9641 1 -0.8 57.3731921616905 32.84633074168406 33.01404398537429 0 0 0
6747 9642 1 -0.8 58.779669671343505 32.99371163831933 35.233209074844275 0 0 0
6764 536 3 1.6 5.379977038792877 34.073933119644764 33.19666661624815 0 0 0
6689 3712 1 -0.8 1.6168999845778287 33.639152847915504 33.869210535193965 0 0 0
7797 240 3 1.6 3.0068830145518217 35.50373453094905 37.7991368669741 0 0 0
6754 268 3 1.6 0.27673729509726536 37.067859156466454 33.76081883332994 0 0 0
6756 269 3 1.6 0.43525449793745896 36.789728360249605 36.787862034047606 0 0 0
6760 3717 1 -0.8 3.370213261763911 33.948449707475056 37.58710490016845 0 0 0
6758 3719 1 -0.8 1.450159601574087 35.749781986068655 37.47890179719587 0 0 0
6762 3720 1 -0.8 3.879133382002822 36.45881350523434 36.85260421890679 0 0 0
6755 3791 1 -0.8 0.8646044315215132 37.0412498141823 35.2587599806377 0 0 0
6757 3793 1 -0.8 0.462195835001402 38.21799308944162 37.55651651989236 0 0 0
6768 553 3 1.6 5.3324530583895555 37.17302937175689 36.80358511437866 0 0 0
6767 4425 1 -0.8 5.5074306766536445 37.6845109061684 35.29300068108193 0 0 0
6769 4427 1 -0.8 5.349051388396017 38.49126832995322 37.72732443116787 0 0 0
6766 552 3 1.6 5.5108020645345315 37.12036853505129 33.79250529395799 0 0 0
6777 5023 1 -0.8 8.238860909392523 35.650367192040044 33.236280109062896 0 0 0
6786 9986 2 0.4 8.536790696762592 34.728530296914656 33.153663580931834 0 0 0
7805 829 3 1.6 7.642559980577451 35.59712756372837 38.266778421304906 0 0 0
6765 4392 1 -0.8 5.664626151684094 35.50993015557481 33.879449900689444 0 0 0
6770 4426 1 -0.8 6.389432831844039 36.06960947944523 37.3310062219779 0 0 0
6772 5024 1 -0.8 7.897947524160463 34.01524784866418 38.03350753527749 0 0 0
6774 5025 1 -0.8 8.890860279400721 36.503034384226396 37.83285421025134 0 0 0
6775 5070 1 -0.8 9.133613154955624 38.01175152984384 33.49684110011284 0 0 0
6779 5071 1 -0.8 8.222894358183444 37.183523820401376 35.47701173148001 0 0 0
6781 5072 1 -0.8 8.37098271489443 39.01634415110146 37.435345958225554 0 0 0
6778 9907 3 1.6 9.011511829715923 36.6209079959507 34.23121398031621 0 0 0
6780 9955 3 1.6 8.958838027035084 37.70428939420014 36.79821220742729 0 0 0
6785 9907 2 0.4 8.516882441046382 37.38154610368718 34.571414468922235 0 0 0
7813 9955 2 0.4 9.133355974078937 38.65270949777718 36.96024987872451 0 0 0
6782 9907 1 -0.8 10.291925555326983 35.871715291230835 34.75237536966327 0 0 0
6783 9955 1 -0.8 10.330332068391199 38.33304112219616 36.39639229155122 0 0 0
6796 2332 3 1.6 51.308971177952664 36.89876409905182 33.525901635328545 0 0 0
6798 2333 3 1.6 51.12927432270814 36.98664920229672 36.67436325298864 0 0 0
7832 2599 3 1.6 53.64247353434519 35.801670726893356 38.02938635972536 0 0 0
6792 8505 1 -0.8 50.1346609064771 36.02988509373696 37.49377387061807 0 0 0
6793 8558 1 -0.8 49.82235924774071 37.31514741361492 33.1522159757192 0 0 0
6801 8559 1 -0.8 52.2759223112523 38.161231084551105 33.22367743769592 0 0 0
6797 8560 1 -0.8 51.332050631129405 36.553476873338525 35.11803373602319 0 0 0
6799 8561 1 -0.8 50.62778939364005 38.531573889134634 36.81049014621725 0 0 0
6800 8562 1 -0.8 52.56910516429808 36.829995884833416 37.39215122232088 0 0 0
6802 9101 1 -0.8 53.3631438644869 34.22276905929728 37.89818285772497 0 0 0
6804 9103 1 -0.8 54.96145464338065 36.075708198647014 37.09142080460688 0 0 0
6805 9127 1 -0.8 54.71655279128598 37.22673980413687 33.539265053765696 0 0 0
6753 3716 1 -0.8 60.56013203599265 35.55746491650328 33.36696869094668 -1 0 0
7840 2925 3 1.6 58.574244610314864 35.59546494332301 37.87946423794807 0 0 0
6808 2953 3 1.6 56.21168824596494 36.75999021072507 33.92075092724828 0 0 0
6810 2954 3 1.6 56.116839470705585 37.178997092618175 36.97002553403527 0 0 0
6817 3790 1 -0.8 59.712924890516945 38.053508154714685 33.71282967593184 0 0 0
6816 3792 1 -0.8 59.685639202568424 36.1214528033299 36.83211331848779 0 0 0
6807 9643 1 -0.8 56.307529717416045 35.14426770046629 33.81295186523429 0 0 0
6814 9644 1 -0.8 58.112279498245485 34.07792009127767 37.53204751141195 0 0 0
6812 9645 1 -0.8 57.36148343749973 36.65410508225101 37.84586694912236 0 0 0
6809 9688 1 -0.8 56.55647323235134 37.278690288086686 35.4168086712592 0 0 0
6811 9689 1 -0.8 55.61522652529823 38.619284006750085 37.52876745535193 0 0 0
7846 270 3 1.6 0.20369690541986946 39.814931861386064 37.64399286436645 0 0 0
6823 291 3 1.6 2.7233911329860003 41.27047840520326 33.68124356699682 0 0 0
6825 293 3 1.6 2.537224932273332 41.46962040185703 36.68148678067641 0 0 0
7853 319 3 1.6 2.7736030003449 44.44249375528237 37.675799810740905 0 0 0
6822 3787 1 -0.8 2.8619283593853417 39.66206458020526 33.67759843510964 0 0 0
6820 3795 1 -0.8 1.1215381733866272 40.68308334132029 36.63592001898828 0 0 0
6821 3847 1 -0.8 1.229021690113583 41.669556641452104 33.22135313738473 0 0 0
6824 3849 1 -0.8 2.986321911544674 41.81503503994541 35.17375391798137 0 0 0
6819 3850 1 -0.8 0.19576893192314557 44.05527601157531 33.753682180834495 0 0 0
6826 3852 1 -0.8 2.4493863862428724 42.858582656201705 37.518500436423544 0 0 0
6827 3853 1 -0.8 3.5811319538375743 40.440189606088296 37.35670794674031 0 0 0
7858 554 3 1.6 5.128719625780822 40.08879262055249 37.69153065701841 0 0 0
6830 4451 1 -0.8 4.914370793756137 44.21734367669285 33.34501566198535 0 0 0
7870 845 3 1.6 9.14940348813934 40.41744208673106 37.65687176398967 0 0 0
6834 861 3 1.6 7.628491519438268 41.9343417192232 33.30051205683852 0 0 0
6836 863 3 1.6 7.136506769128172 41.95438131194983 36.26124341192279 0 0 0
7865 889 3 1.6 7.637892575346444 44.59512670804848 37.65339040686057 0 0 0
6831 4428 1 -0.8 6.005942748514009 40.840445494854336 36.56486520721738 0 0 0
6833 5069 1 -0.8 7.88021592407735 40.32967464155086 33.37861614604291 0 0 0
6838 5073 1 -0.8 8.559324746261801 41.29508768915822 36.46453915588767 0 0 0
6835 5113 1 -0.8 7.116535483827367 42.47340051754315 34.741721372858834 0 0 0
6837 5116 1 -0.8 7.008577731115265 43.15088344304585 37.32881987306675 0 0 0
6842 5074 1 -0.8 10.700519623386024 40.85221006520559 37.639408765344555 0 0 0
6843 5115 1 -0.8 11.477023421546285 42.640995017800975 33.23812845067143 0 0 0
7877 1115 3 1.6 12.496667683415703 44.64857561833089 37.84365329274786 0 0 0
6845 5622 1 -0.8 11.37233004211621 42.725516031920854 35.858811848054415 0 0 0
6847 5623 1 -0.8 11.816954209368438 43.230260050967445 38.08372662072668 0 0 0
6846 10063 3 1.6 11.784194219429724 41.93026484679594 37.18075132413181 0 0 0
6850 10063 1 -0.8 13.210320844179236 41.257761020185356 37.13890640557969 0 0 0
6853 10063 2 0.4 11.62126050299196 43.048674952508804 37.14373735480023 0 0 0
6844 10280 3 1.6 12.144688717892485 43.256610269006316 34.570914423119994 0 0 0
6849 10280 1 -0.8 13.66046726462474 43.02666425128258 34.75749005216255 0 0 0
6852 10280 2 0.4 12.916146151284387 43.663652864460104 34.761712475970896 0 0 0
6848 10280 1 -0.8 12.087051019662862 44.797808705616056 34.41583442274786 0 0 0
6931 10068 1 -0.8 15.306999571777114 44.82917903848992 33.111323852030296 0 0 0
6924 5657 1 -0.8 13.945977336393497 44.61649189456618 37.206087143950036 0 0 0
6863 2348 3 1.6 48.821067768297524 41.39936887165214 33.68139055898899 0 0 0
7896 2374 3 1.6 48.63685261723532 44.660297008905346 37.44390831768085 0 0 0
6858 7931 1 -0.8 46.873549022263454 44.598741996214905 34.12758510768347 0 0 0
6861 7932 1 -0.8 47.36932840578407 42.03046434595537 33.45693542886546 0 0 0
6862 8557 1 -0.8 49.00106166250916 39.80825908673869 33.573395222650404 0 0 0
6864 8608 1 -0.8 49.41200752855303 41.934070040701805 35.07621841456871 0 0 0
6866 8611 1 -0.8 48.19208400538478 43.187413022732386 37.0075862480263 0 0 0
6865 9906 3 1.6 48.72085526196242 41.78076012390648 36.489939574571025 0 0 0
6860 9906 1 -0.8 47.60798436382034 40.826458819063355 35.956116203683564 0 0 0
6859 9906 2 0.4 48.40891436653526 41.33755255638506 35.59287418496205 0 0 0
6857 9923 3 1.6 46.749971128856906 43.43735490181555 33.06250960763987 0 0 0
6867 8563 1 -0.8 49.68853206535196 41.00050803037349 37.496530054566605 0 0 0
7901 2334 3 1.6 50.94192722672203 39.986573209505075 37.448807881166836 0 0 0
6874 2621 3 1.6 53.7432106465568 41.31635034488287 33.567532292487876 0 0 0
6876 2622 3 1.6 53.345304430617844 41.66134957670434 36.58390964718183 0 0 0
7908 2638 3 1.6 53.57694594393319 44.5402377657556 37.620491471992004 0 0 0
6871 8564 1 -0.8 52.06739471487767 40.692580338896114 36.52594676920767 0 0 0
6870 8609 1 -0.8 51.39577641165892 43.990201586486315 33.363839922379874 0 0 0
6873 9126 1 -0.8 54.26540233337074 39.80805579205471 33.367738898202546 0 0 0
6875 9148 1 -0.8 53.967293610090465 41.78416294814522 35.09823698167551 0 0 0
6878 9149 1 -0.8 54.42527424897161 40.99895687345274 37.58021905842792 0 0 0
6877 9150 1 -0.8 52.96272218693495 43.1195399082094 37.16222946589974 0 0 0
7913 2955 3 1.6 55.8032182674116 40.20372729761807 37.80751148344965 0 0 0
6885 2976 3 1.6 58.28501594862435 41.55189925567749 33.68051219384641 0 0 0
6887 2978 3 1.6 58.426380138330074 41.30099490721245 36.74102876062902 0 0 0
7920 3004 3 1.6 58.620553623682504 44.23927981512678 37.74928964888295 0 0 0
6889 3794 1 -0.8 59.38037502064025 40.12997636593073 37.30896714965715 0 0 0
6884 9686 1 -0.8 57.948595156687595 40.00898490743676 33.31986831896727 0 0 0
6882 9690 1 -0.8 56.903694457571525 40.785469313639304 36.785135621392364 0 0 0
6883 9722 1 -0.8 56.9920333169184 42.501181713691516 33.501874571858046 0 0 0
6886 9723 1 -0.8 58.81166114780673 41.6384405306613 35.20899479696179 0 0 0
6888 9725 1 -0.8 58.58294866208524 42.62364138986967 37.66079626736457 0 0 0
6891 318 3 1.6 0.21170555048089068 45.673735812184155 33.720691638055456 0 0 0
6893 320 3 1.6 0.3108150765946497 45.944241402301266 36.71708133945921 0 0 0
7925 350 3 1.6 0.3908947177857054 48.85890968083881 37.853223528540056 0 0 0
6899 3912 1 -0.8 2.578906212537021 48.64876754225397 33.57446046965493 0 0 0
6896 3913 1 -0.8 1.6525371373919944 46.1856572811957 33.200974556735254 0 0 0
6892 3916 1 -0.8 60.66763572388753 46.28209859861862 35.1882274576898 -1 0 0
6895 3917 1 -0.8 1.8086035531262052 45.34448505746667 36.75032947121084 0 0 0
6900 3918 1 -0.8 4.297408249417532 44.777533992710644 37.267813467209805 0 0 0
6894 3921 1 -0.8 0.17416212890575988 47.264817558329774 37.64263412374985 0 0 0
6897 3992 1 -0.8 1.9180115151490693 49.25367159642441 37.51907011668076 0 0 0
6902 3994 1 -0.8 4.395234226869606 49.886298816653394 36.86865346660038 0 0 0
6903 576 3 1.6 5.144730681104852 45.79716081348943 33.57866014046526 0 0 0
6905 577 3 1.6 5.189390891298404 45.97701805965692 36.64876265286821 0 0 0
7932 593 3 1.6 5.284913805133379 48.87741121949552 37.746248527150954 0 0 0
6904 4473 1 -0.8 4.802208821408799 46.16060288375578 35.104609857317975 0 0 0
6906 4475 1 -0.8 4.886439585047989 47.35701624919079 37.4098103884366 0 0 0
6912 5165 1 -0.8 9.158532563398424 44.679990279497495 37.16571307198755 0 0 0
6915 888 3 1.6 10.357107809785147 46.004468522819 33.388426214426524 0 0 0
6917 890 3 1.6 10.115489991645486 45.64937966427856 36.30558588339003 0 0 0
7027 917 3 1.6 7.894181640429745 50.2476401856777 33.97454972535796 0 0 0
7939 920 3 1.6 10.254343609307396 48.386454924730195 37.6079997088911 0 0 0
6908 4472 1 -0.8 6.663844361424934 46.20511136913315 33.25491544810784 0 0 0
6907 4474 1 -0.8 6.750298806016703 45.650164141236566 36.81578909007053 0 0 0
6909 4505 1 -0.8 6.851838029828224 49.20218507637752 37.524318943887586 0 0 0
6911 5161 1 -0.8 7.474198114609656 48.69893810025432 33.752442996935535 0 0 0
6916 5164 1 -0.8 9.83898704557657 45.37752366186904 34.76374654084178 0 0 0
6918 5167 1 -0.8 9.752982142119574 47.21279544228864 36.62084846234711 0 0 0
6914 5226 1 -0.8 9.42514570680492 49.74129492079434 37.27303520639754 0 0 0
6851 10280 2 0.4 11.160128176714798 45.10195971354585 34.51784622574067 0 0 0
6854 10068 2 0.4 14.830809298344123 45.68433600234254 33.20808395309976 0 0 0
6932 10072 1 -0.8 16.19776397622844 45.07682333418475 35.80253424239123 0 0 0
6855 10072 2 0.4 15.370001997274056 45.621425144451756 35.63810144937564 0 0 0
7044 1139 3 1.6 12.9553005196827 49.759722403946554 36.97554889940385 0 0 0
7946 1140 3 1.6 15.736477942184937 48.402380695913415 37.41786808308089 0 0 0
6920 5163 1 -0.8 11.468260446330559 47.15052039827267 33.60004305878055 0 0 0
6919 5168 1 -0.8 11.585549789601009 45.497099074607625 36.86075818812604 0 0 0
6921 5228 1 -0.8 11.83826967904373 48.70551069770303 37.478920081356485 0 0 0
6923 5653 1 -0.8 13.240599659240168 49.08319110862649 33.3023395154663 0 0 0
6928 5656 1 -0.8 14.30640971139576 46.262598694526396 35.21369090460387 0 0 0
6930 5659 1 -0.8 15.39674372295348 46.830498580125074 37.49124967784185 0 0 0
6926 5716 1 -0.8 14.415939887802136 49.10991430802683 36.80193880761823 0 0 0
6927 10068 3 1.6 14.952481074887528 46.17841110561182 33.77626690960461 0 0 0
6929 10072 3 1.6 14.929886935989636 45.63593487840868 36.509199806370155 0 0 0
6933 5655 1 -0.8 16.189993320497333 47.1915701290271 33.77217108597936 0 0 0
7057 1266 3 1.6 18.4997565564394 50.05625093389625 33.527124755843985 0 0 0
7059 1267 3 1.6 18.297820426914143 49.853766192355785 36.56983452509293 0 0 0
6934 5718 1 -0.8 17.02662526791215 48.848884042757376 36.538612303724086 0 0 0
6936 5969 1 -0.8 18.43234733369279 48.4954157685695 33.188092082153695 0 0 0
6939 5989 1 -0.8 19.436359894783127 49.250413294632594 37.505813419635146 0 0 0
7954 10112 3 1.6 20.399729452935464 50.059957102205765 38.454827696748225 0 0 0
7058 5988 1 -0.8 18.83950925792941 50.21742645892562 35.098319229372706 0 0 0
6941 10111 1 -0.8 22.083363493000757 49.73934998994709 33.40749330964652 0 0 0
6942 10119 1 -0.8 22.650926235881816 49.19167221883251 36.28730502390448 0 0 0
6947 10141 1 -0.8 27.68426306788626 49.87057311007958 34.27654050483338 0 0 0
6959 9917 1 -0.8 37.4583518628503 49.68020560433584 33.65862410961492 0 0 0
7966 9939 1 -0.8 37.38922897258808 49.529873512780114 38.152944764339004 0 0 0
6955 9939 2 0.4 37.39029597683435 50.896677144638474 37.72965218744699 0 0 0
6954 10147 1 -0.8 32.92070489359426 49.805794909761026 36.60865816874433 0 0 0
6953 10159 1 -0.8 34.365389829708164 49.88149990872221 34.126851500966424 0 0 0
7132 1961 3 1.6 43.8759803814574 50.10423474275919 33.6065386438814 0 0 0
6961 7655 1 -0.8 42.3167612987831 50.170239352292704 37.02242585390871 0 0 0
7977 10219 3 1.6 41.34532759555902 49.70316290129241 38.19394872810008 0 0 0
7975 10219 1 -0.8 40.85083822995059 48.22745644147519 37.972910564703874 0 0 0
7973 10219 2 0.4 41.06722653554393 50.50760115786531 37.70626090337597 0 0 0
6976 8656 1 -0.8 49.337431583196135 48.665518496467165 33.245509354167694 0 0 0
6964 7601 1 -0.8 44.28338940475069 48.59734138945353 33.28093401028703 0 0 0
6968 2091 3 1.6 46.176052733131435 46.038747320260704 34.05411747882911 0 0 0
6970 2092 3 1.6 46.17585881133712 46.42713169216355 37.01137747079988 0 0 0
7984 2108 3 1.6 46.36510818908067 49.54591885502819 37.74853698674589 0 0 0
6965 7603 1 -0.8 45.49062968208564 45.473236543168554 38.10028946162396 0 0 0
6973 7952 1 -0.8 47.34864109960477 47.10287017748073 33.72456936665726 0 0 0
6969 7953 1 -0.8 45.56079184596758 46.34871958301152 35.51805170892957 0 0 0
6972 7954 1 -0.8 47.68181329197108 45.85145083800301 36.920289868119355 0 0 0
6971 7955 1 -0.8 46.12794966760136 47.96000494578028 37.543568041279435 0 0 0
6974 7985 1 -0.8 47.42899377276402 50.036116554128995 36.62231659184636 0 0 0
6980 2373 3 1.6 51.215011998174774 45.58720750148518 33.53943637290062 0 0 0
6982 2375 3 1.6 51.16373353878629 46.04164937603197 36.58111834734821 0 0 0
7991 2405 3 1.6 50.921925159423346 48.82599353997666 37.823137408897686 0 0 0
7164 2652 3 1.6 53.563467271402864 50.06669743572476 36.814121375120436 0 0 0
6981 8659 1 -0.8 51.624259579105335 46.09208935099418 35.02930649924154 0 0 0
6977 8660 1 -0.8 50.07534372848325 44.87766952424451 36.71188064225059 0 0 0
6983 8662 1 -0.8 50.53415659902115 47.45009290225516 37.0720477710747 0 0 0
6984 8663 1 -0.8 52.44118245631845 45.67537157973983 37.502705727494835 0 0 0
6979 8721 1 -0.8 50.03197639975722 50.06014402884032 37.26527677567045 0 0 0
6986 8723 1 -0.8 52.48967533284338 49.07675703515208 37.49598726897975 0 0 0
6988 9178 1 -0.8 52.727828334096685 48.89182309534078 33.06258702616879 0 0 0
6989 9180 1 -0.8 54.805034163400705 44.916935871731816 36.64268290153508 0 0 0
6991 9209 1 -0.8 55.03895403162727 49.397367127992055 36.88102726895736 0 0 0
6881 9724 1 -0.8 55.439291563965696 44.617326837617405 33.32940898231611 0 0 0
6992 3003 3 1.6 55.857751291219685 46.15105441985551 33.58046521057405 0 0 0
6994 3005 3 1.6 56.1516589731552 45.799237273212384 36.58032080371797 0 0 0
7177 3032 3 1.6 58.619147767843515 49.98738467811602 33.8047870099693 0 0 0
7998 3035 3 1.6 56.11762169497285 48.63002748376119 37.81657983892215 0 0 0
7001 3920 1 -0.8 60.04732354631591 44.77012395283722 37.224534158782674 0 0 0
7003 3995 1 -0.8 60.114766606207 49.69783825470468 36.9028912354425 0 0 0
7000 9761 1 -0.8 58.609550418948565 48.38345001412923 33.6489366038403 0 0 0
6997 9762 1 -0.8 57.10699574439823 46.47948933476892 32.62277961270892 0 0 0
6993 9763 1 -0.8 56.31916702765614 46.398869254741214 35.10027515934037 0 0 0
6996 9764 1 -0.8 57.430998948942936 44.85617961729549 36.8580649535636 0 0 0
6995 9766 1 -0.8 56.021516658168004 47.02305422889444 37.628873137922476 0 0 0
6998 9809 1 -0.8 57.62007090474628 49.08869339557249 37.44869960322308 0 0 0
7179 3034 3 1.6 58.58960667932724 50.22296962502832 36.837656326452084 0 0 0
7012 347 3 1.6 2.816107480314766 50.232178917351156 33.861126173693734 0 0 0
7014 349 3 1.6 2.869899339321595 50.40283905599916 36.89724953587456 0 0 0
7013 3989 1 -0.8 2.416986929611379 50.64629628678137 35.37260864818044 0 0 0
7006 378 3 1.6 0.4560978755790767 54.607106965214854 33.99886944613478 0 0 0
8008 379 3 1.6 3.0579785247393954 53.316742599894845 38.05792981098482 0 0 0
7008 380 3 1.6 0.5447847828617546 54.64458925552741 37.03824452819341 0 0 0
7016 3988 1 -0.8 4.371537805541562 50.58574651006763 33.62553503982521 0 0 0
7005 3990 1 -0.8 0.2402202250837274 53.01004899765333 33.83776154153756 0 0 0
7015 3993 1 -0.8 2.7820458604993044 51.74091846258453 37.801291703738585 0 0 0
7011 4063 1 -0.8 1.9753389524919263 54.97465192925075 33.598852304143826 0 0 0
7018 4064 1 -0.8 4.511701410513734 55.599519940701526 33.23342486725111 0 0 0
7007 4066 1 -0.8 0.19684461743767515 55.06363681339798 35.524704967665656 0 0 0
7010 4067 1 -0.8 2.079501050435481 54.15561288467399 37.09395877429641 0 0 0
7017 4068 1 -0.8 4.60002517440806 53.690591336826 37.76636827057145 0 0 0
7022 4533 1 -0.8 5.222973826951212 54.1170346676452 35.286205017944205 0 0 0
7021 606 3 1.6 5.443966455518773 54.36679057296777 33.70955324764374 0 0 0
7029 919 3 1.6 7.933627062642387 50.32581306233166 37.079828889541304 0 0 0
7028 5223 1 -0.8 7.706039040325732 50.6760077710208 35.52015313575322 0 0 0
7023 607 3 1.6 5.599193421826404 54.5162676328021 36.803406578163035 0 0 0
7036 948 3 1.6 10.463202393137475 54.29588081411873 33.724188014913565 0 0 0
8016 949 3 1.6 8.070068944112611 53.26293365275009 38.13163759826285 0 0 0
7038 950 3 1.6 10.820993132146564 54.112380758763074 36.852654403393025 0 0 0
7024 4504 1 -0.8 6.9073481040222235 51.16213342807737 33.07455003814578 0 0 0
7026 4532 1 -0.8 6.995915804702476 54.72149755646651 33.455346481298854 0 0 0
7025 4534 1 -0.8 7.128998491759846 54.111193250067636 37.12861291340002 0 0 0
7031 5222 1 -0.8 9.430974394335536 50.49377439635543 33.52806956877321 0 0 0
7030 5227 1 -0.8 7.754165789994502 51.68027390920666 37.95351418601673 0 0 0
7033 5282 1 -0.8 9.507436193031708 55.53055298677183 33.288642422877196 0 0 0
7037 5284 1 -0.8 10.30704731549921 54.023478037635314 35.31607824680386 0 0 0
7032 5285 1 -0.8 9.63136222568726 53.5671665517343 37.81026588414515 0 0 0
7043 5713 1 -0.8 12.510405300004082 50.33269097746771 35.527283360730856 0 0 0
7042 1137 3 1.6 13.055443186637536 50.50512242892884 34.0170494090697 0 0 0
7049 1138 3 1.6 15.774442045373 51.70984780226791 33.16138889155642 0 0 0
7051 1168 3 1.6 15.846208785961114 54.647763207785644 34.05830148713727 0 0 0
8024 1169 3 1.6 13.264768583759821 52.60788877262388 38.07405128427763 0 0 0
7053 1170 3 1.6 15.694092025338543 54.30591989183308 37.08370028464302 0 0 0
7039 5225 1 -0.8 11.952893225470794 51.314621682939936 33.15050759568582 0 0 0
7041 5283 1 -0.8 12.018250818695389 54.622960952611 33.41196617509276 0 0 0
7040 5288 1 -0.8 12.155157885075669 53.229130505113204 37.06895769219795 0 0 0
7046 5712 1 -0.8 14.48515385987734 51.27123470794223 34.04139534214009 0 0 0
7050 5714 1 -0.8 16.29417936299082 53.1402657258848 33.70449407801593 0 0 0
7045 5717 1 -0.8 13.103300695488585 51.0014263765862 38.01537884642451 0 0 0
7048 5772 1 -0.8 14.635632760636257 55.111558786529635 33.084651402951444 0 0 0
7052 5774 1 -0.8 15.289055688702566 54.69530602929814 35.572368909180554 0 0 0
7047 5775 1 -0.8 14.737616242156706 53.101375992464476 37.6042815212278 0 0 0
7208 5287 1 -0.8 11.195968494714382 55.64176764137339 37.23489570969786 0 0 0
7212 1167 3 1.6 13.134776807382742 55.719153445451255 33.00888081095567 0 0 0
7220 5777 1 -0.8 15.533767429838063 55.62969269533777 38.01398391095829 0 0 0
7959 10112 2 0.4 20.26821538711664 50.35311999992919 37.50320020777459 0 0 0
6940 6277 1 -0.8 20.996362195453923 50.96251248860707 37.28619350872507 0 0 0
8032 1283 3 1.6 18.17416132308317 52.73342162701011 37.85353103210734 0 0 0
7066 1408 3 1.6 20.693952018134844 54.59926580246099 34.173111850604535 0 0 0
7068 1410 3 1.6 20.875400735798138 54.18923204434248 37.26375339374264 0 0 0
7054 5715 1 -0.8 16.987760793175998 50.64570615217393 33.23971041835653 0 0 0
7056 5773 1 -0.8 17.13926433067477 55.60645577730519 33.90930850787187 0 0 0
7055 5778 1 -0.8 17.231580191481676 53.80915469819384 37.072175707343 0 0 0
7060 5990 1 -0.8 17.8747658707512 51.27494602071005 37.24114746721353 0 0 0
7063 6019 1 -0.8 19.79283126857256 55.76820863431419 33.494029495734424 0 0 0
7062 6020 1 -0.8 19.712075545788846 53.19860829682446 37.76403341340365 0 0 0
7065 6276 1 -0.8 20.119186036619446 53.22359727790175 33.58930211031676 0 0 0
7067 6335 1 -0.8 20.50790381519834 54.65563560202217 35.764499205182005 0 0 0
7232 6339 1 -0.8 20.85090121757157 55.49368059805303 38.21578963386045 0 0 0
6943 10111 2 0.4 22.08000912901572 50.725840756575266 33.23701136338638 0 0 0
7071 6333 1 -0.8 22.259057930307254 54.7897116006149 33.79526488394361 0 0 0
7073 6275 1 -0.8 22.503452204236364 51.52526747547223 35.21789913805055 0 0 0
7072 10111 3 1.6 22.89540420661688 51.02377512679024 33.74452986133136 0 0 0
7074 10119 3 1.6 22.394126736539633 50.71524246158458 36.56978713237717 0 0 0
6944 10119 2 0.4 22.588613385678993 51.474868052845615 36.17821654550636 0 0 0
8040 1409 3 1.6 23.674654732861846 52.909729718415846 37.930651771359635 0 0 0
7079 1483 3 1.6 25.567065060477564 52.106768925896304 33.052277034922014 0 0 0
7081 1491 3 1.6 26.00936327435305 54.692483855278894 34.1649363083443 0 0 0
7083 1492 3 1.6 26.072557552398237 54.756156478176194 37.20614316398142 0 0 0
7076 6274 1 -0.8 24.4651651676387 51.00641370802767 33.442998566639766 0 0 0
7075 6278 1 -0.8 23.510805755150965 51.399019773088575 37.46037522480181 0 0 0
7078 6334 1 -0.8 24.875124061484737 55.49214628568137 33.318537449953205 0 0 0
7070 6336 1 -0.8 22.39311288944421 53.64890936348084 37.2691442505066 0 0 0
7077 6337 1 -0.8 25.073102857778554 53.5087120422536 37.39129211043633 0 0 0
7080 6486 1 -0.8 25.48856002865042 53.191021561409066 34.231267661220116 0 0 0
7084 6487 1 -0.8 27.150135501642637 51.89891297565321 32.917141657519764 0 0 0
7086 6507 1 -0.8 27.45556678503387 54.78624273439483 33.45031324767859 0 0 0
7082 6508 1 -0.8 26.091405790509008 55.247755443609165 35.66819350934452 0 0 0
7099 6730 1 -0.8 32.3331071798143 51.171428378837724 33.07266016831649 0 0 0
6946 9998 1 -0.8 30.12989839082446 50.619532565703345 35.34898969746324 0 0 0
7085 6509 1 -0.8 27.588671762065093 54.41010057313305 37.67252788568651 0 0 0
7088 6728 1 -0.8 28.619866863439913 52.301974436351806 34.82157404573236 0 0 0
7089 9998 3 1.6 29.723387442552546 52.00270093788916 35.9397325252382 0 0 0
6945 9998 2 0.4 29.653834668388964 51.440323952374584 35.07949043313649 0 0 0
6949 9998 1 -0.8 31.04327291272178 52.80270234549703 36.21774583812907 0 0 0
6950 9998 2 0.4 30.92231222347413 53.75998358167413 36.04355618356096 0 0 0
7087 10141 3 1.6 28.320331364928016 51.20404963301631 33.70954569713517 0 0 0
6948 10141 2 0.4 27.783547153842896 52.06651776924323 33.62896337925842 0 0 0
7096 1603 3 1.6 31.052153204382666 54.61112157704775 34.28243746335086 0 0 0
8047 1604 3 1.6 28.772817687158003 53.45203151721912 38.26355500999844 0 0 0
7098 1605 3 1.6 31.319450715182626 54.88791816803207 37.247073353302945 0 0 0
7095 6729 1 -0.8 30.832600043983735 53.12978046891022 33.767597320932616 0 0 0
7090 6731 1 -0.8 28.913462406431773 52.1648010121251 37.320147342425024 0 0 0
7093 6777 1 -0.8 30.076587372232346 55.48399842121817 33.30249687207923 0 0 0
7101 6778 1 -0.8 32.60152252183168 55.008981846962186 34.03432159473781 0 0 0
7097 6779 1 -0.8 30.67101743481206 55.04682900329813 35.77867911312614 0 0 0
7092 6780 1 -0.8 30.176403160211187 54.28142829933056 38.24445176605664 0 0 0
7100 6783 1 -0.8 32.831436966983645 54.318775051007464 37.247655145760305 0 0 0
6958 7226 1 -0.8 37.68561630166252 51.74447388890197 37.38380700696261 0 0 0
7968 9939 3 1.6 36.51896049432942 50.79020082398935 37.83405640434651 0 0 0
6952 10147 2 0.4 33.35848207326624 50.668834309015296 36.745282288248376 0 0 0
6951 10159 2 0.4 34.12221206958357 50.77977086667328 34.463314606345584 0 0 0
7103 6943 1 -0.8 33.710189411422476 51.85493046455531 35.23832261849754 0 0 0
6956 6944 1 -0.8 35.445064322625754 50.62813402221118 36.694499256542805 0 0 0
7117 9917 3 1.6 38.448977031708736 50.800122229451375 34.06448933139536 0 0 0
6957 9917 2 0.4 37.537614712170935 50.67788631034549 33.75683267865536 0 0 0
7104 10147 3 1.6 33.90242281857758 50.99270090885314 36.55347378763016 0 0 0
7102 10159 3 1.6 33.751571528937085 51.267928629385395 33.78522790921886 0 0 0
8054 1693 3 1.6 33.79075210714605 53.388471343608714 38.14581738717315 0 0 0
7111 1813 3 1.6 36.35064626144967 55.07317793621486 34.02704617517538 0 0 0
7113 1815 3 1.6 36.27242353264401 54.68739333500281 36.97465143643198 0 0 0
7105 6945 1 -0.8 33.50738654872906 51.87521513454627 37.80134962348027 0 0 0
7107 6975 1 -0.8 35.33483145033614 53.72113763266071 37.81473384411099 0 0 0
7114 7222 1 -0.8 37.41117840466077 51.98230296581636 33.87152071094804 0 0 0
7116 7284 1 -0.8 37.7586270441214 55.85943058060119 34.07045085135065 0 0 0
7112 7285 1 -0.8 36.20333732737811 54.29649223717677 35.421677852980814 0 0 0
7115 7287 1 -0.8 37.81899377511772 54.73088810229981 37.474862493013674 0 0 0
7120 7227 1 -0.8 39.72146383256457 52.957231814560494 36.78414592844168 0 0 0
7119 1790 3 1.6 39.1899367368493 51.44592622621238 36.92959175501784 0 0 0
7118 7223 1 -0.8 39.0938088826115 50.68870489939916 35.53015806065983 0 0 0
7134 1963 3 1.6 43.73804166486228 50.79689109326741 36.63277519362007 0 0 0
6960 7225 1 -0.8 40.17967465702064 50.76418329713036 37.99943677560884 0 0 0
8062 1814 3 1.6 39.262551331066476 54.09907842187947 37.82470651992411 0 0 0
7126 1988 3 1.6 41.293972293530146 54.38496765693426 33.739347623229094 0 0 0
8070 1989 3 1.6 43.893832190154576 53.630719581043834 37.56927158087658 0 0 0
7128 1990 3 1.6 41.61998423239049 55.57521355059137 36.691980011828726 0 0 0
7121 7221 1 -0.8 39.67660535147944 50.93529070149264 33.034716583020675 0 0 0
7122 7286 1 -0.8 40.422572106572275 55.20955011590632 37.71330631277854 0 0 0
7129 7651 1 -0.8 42.318242945344416 50.410745074057914 33.320037278648826 0 0 0
7125 7654 1 -0.8 41.286572378541436 52.78530814883927 33.86748389783849 0 0 0
7135 7656 1 -0.8 43.53662044671312 52.394632304299705 36.62023203951242 0 0 0
7127 7715 1 -0.8 41.289444874400395 55.079151748850585 35.19786861027092 0 0 0
7130 7716 1 -0.8 43.00663585007354 54.92245310259232 37.19379420109763 0 0 0
7133 7653 1 -0.8 44.19640107143061 50.34808125016945 35.166292639088084 0 0 0
7147 2402 3 1.6 48.99835923398921 50.2357744076527 33.37898487866831 0 0 0
7149 2404 3 1.6 48.84265285387405 50.79765146064226 36.446615082071325 0 0 0
6967 7657 1 -0.8 44.95385811546002 50.36011962937583 37.62830510617071 0 0 0
7148 8718 1 -0.8 49.26464684463803 50.784644378971166 34.88213783712352 0 0 0
7141 2121 3 1.6 46.60530631523988 54.43415846703498 34.023723378395445 0 0 0
7143 2122 3 1.6 46.63141729910936 55.02407233051807 37.003276711483906 0 0 0
8078 2434 3 1.6 48.88434133239138 53.42356714925143 38.175991551351984 0 0 0
7138 7714 1 -0.8 45.11686505696724 55.040346621660355 33.83787937926377 0 0 0
7137 7717 1 -0.8 45.462240406213525 53.97277408699785 37.37088399624189 0 0 0
7140 7983 1 -0.8 46.52781197986411 52.82660048023643 33.926488086065575 0 0 0
7144 7984 1 -0.8 47.44725915942494 50.51913337049905 33.018075837348164 0 0 0
7142 8013 1 -0.8 47.11043925495553 54.86490302342741 35.48118403288708 0 0 0
7145 8014 1 -0.8 47.91117224468121 54.68682116032058 37.91569208620525 0 0 0
7150 8722 1 -0.8 48.66180555998121 52.30031595982348 37.03453526759477 0 0 0
7155 8719 1 -0.8 50.73157097213413 53.43820364911395 33.15251805958399 0 0 0
7162 2651 3 1.6 53.30775963056361 50.269619282449526 33.66568623309836 0 0 0
7163 9208 1 -0.8 53.134827653337595 50.325635170715714 35.27303857693748 0 0 0
7156 2433 3 1.6 51.06512281567804 54.67186111743053 34.12823839623649 0 0 0
7158 2435 3 1.6 51.3920451822989 54.63334443503144 37.102486351303774 0 0 0
8086 2668 3 1.6 53.797395811647625 52.99707019766587 38.049494085244405 0 0 0
7159 8720 1 -0.8 52.51969051740374 51.51645610849144 33.00234662536453 0 0 0
7161 8778 1 -0.8 52.60344739487891 55.13859497493233 33.973000396362444 0 0 0
7157 8779 1 -0.8 50.82248530112047 54.25177947517801 35.65055634921667 0 0 0
7152 8780 1 -0.8 50.4127980270095 53.93835243365714 38.16421935640618 0 0 0
7160 8783 1 -0.8 52.875964835267595 54.027492755901655 37.22021445456399 0 0 0
7165 9210 1 -0.8 53.512957448796925 51.46504124548541 37.62971383424963 0 0 0
7168 9239 1 -0.8 55.05305064355514 54.870454264861785 32.981005014267005 0 0 0
7178 9807 1 -0.8 58.213092302578644 50.444751332293706 35.29328916503373 0 0 0
7167 9240 1 -0.8 55.33547699584008 53.35001925463783 37.717868494457576 0 0 0
7171 3063 3 1.6 56.14630690972307 54.210223120765825 33.95929367415644 0 0 0
8094 3064 3 1.6 58.73564908664971 53.17004424606482 37.88067989494988 0 0 0
7173 3065 3 1.6 56.18284578069522 54.528384723566205 37.00762941125844 0 0 0
7181 3991 1 -0.8 60.09782943941121 50.534324408344695 33.46312626785748 0 0 0
7183 4065 1 -0.8 60.122255631208105 55.40894758467715 33.076495071824105 0 0 0
7182 4070 1 -0.8 60.27078781535688 53.45157373601712 37.47873204108593 0 0 0
7170 9808 1 -0.8 56.09060715583915 52.603354007906 33.846585198941284 0 0 0
7180 9810 1 -0.8 58.40343169609568 51.604199525085235 37.65350528016363 0 0 0
7176 9852 1 -0.8 57.6294711641541 54.710552933004394 33.55886078744633 0 0 0
7172 9853 1 -0.8 55.769930430445235 54.67978111377192 35.45823610744774 0 0 0
7175 9854 1 -0.8 57.74399710218267 54.1163801323634 37.02948871091473 0 0 0
7197 622 3 1.6 5.489409749451389 60.21476564180847 33.05241860409474 0 0 0
7184 4071 1 -0.8 0.35383973491120474 55.892930518926164 38.04036656755182 0 0 0
7188 377 3 1.6 2.994681671424343 56.15511378348382 33.1778545945275 0 0 0
7190 407 3 1.6 2.98365045981974 59.01743039431193 34.37905635342224 0 0 0
7185 408 3 1.6 0.4236700423127883 60.28649863112891 33.33491246290461 0 0 0
7192 409 3 1.6 3.059525852399304 59.0657773028757 37.41270126098181 0 0 0
8099 410 3 1.6 0.5865321341510651 57.47162113824032 38.27810659219295 0 0 0
7193 3163 1 -0.8 2.891152137127798 60.3720907660009 38.341788907080186 0 0 0
7189 4062 1 -0.8 2.827953394643148 57.41884598911141 34.17244225630117 0 0 0
7187 4129 1 -0.8 1.9616258840950915 59.79905433782858 33.40382078229159 0 0 0
7195 4130 1 -0.8 4.5064572686981075 59.45640256210272 34.08056819076668 0 0 0
7191 4131 1 -0.8 2.6272112326731882 59.411531779344735 35.90083391608665 0 0 0
7186 4133 1 -0.8 2.11485666146591 57.86878734294285 37.94811104682833 0 0 0
7194 4134 1 -0.8 4.602250738920378 58.58905109049434 37.42831913145861 0 0 0
7196 4535 1 -0.8 5.409932024834598 56.10825722599644 37.026517151667484 0 0 0
7342 649 3 1.6 8.440985204008799 0.018249334897291976 38.352792150053816 0 0 0
8109 623 3 1.6 5.577829960938347 57.41937207136383 37.95931454259322 0 0 0
7200 947 3 1.6 7.958802992258285 55.959935275178374 33.09046125237063 0 0 0
7202 977 3 1.6 7.941401552007135 58.77349388218024 34.20393301706791 0 0 0
7209 978 3 1.6 10.505376785089496 59.80234200984731 32.889318389120454 0 0 0
7204 979 3 1.6 8.297370824345524 58.64650373977759 37.14235362373753 0 0 0
8119 980 3 1.6 10.77205780849554 57.0999578846817 37.773953538789875 0 0 0
7199 4561 1 -0.8 7.004968367677881 59.69554713984007 33.270133881739454 0 0 0
7198 4562 1 -0.8 7.116694165568863 57.914062801370456 37.95792118930051 0 0 0
7205 4620 1 -0.8 8.872875334109136 59.92370425496211 37.92319760272396 0 0 0
7201 5281 1 -0.8 7.589887938472833 57.21163197453428 34.031366917916905 0 0 0
7207 5334 1 -0.8 9.503483911058142 58.98752040186725 33.84865957312622 0 0 0
7203 5335 1 -0.8 7.7083809305888344 59.15311314943102 35.740369372294566 0 0 0
7206 5337 1 -0.8 9.528184269210948 57.633061679004044 36.901489343707915 0 0 0
6124 4616 1 -0.8 10.36110483846444 61.37899024534599 33.23684711301581 0 -1 0
6137 5396 1 -0.8 15.014061874806623 0.11534299288385848 33.99035614914362 0 0 0
7214 1197 3 1.6 13.1466606281687 58.5980364248124 34.00507988462227 0 0 0
7221 1198 3 1.6 15.537593184824987 60.25171503877309 33.132629810255864 0 0 0
7216 1199 3 1.6 13.277727879908307 58.89669336602827 37.039883881121014 0 0 0
8129 1200 3 1.6 15.626262010221222 57.246908825457616 38.12932722866709 0 0 0
7211 5336 1 -0.8 12.029465430821558 59.28671772322264 33.0583752659148 0 0 0
7210 5338 1 -0.8 12.025458352762005 58.12834678811264 37.719435332428006 0 0 0
7217 5400 1 -0.8 13.566588051634152 60.30641344977136 37.790559747267565 0 0 0
7213 5771 1 -0.8 12.992877637770661 56.991909868732094 33.99414373018295 0 0 0
7219 5824 1 -0.8 14.63949435847231 58.9674164732581 33.5054894436044 0 0 0
7215 5825 1 -0.8 12.921940708443096 59.169843427729354 35.49494426995587 0 0 0
7218 5827 1 -0.8 14.595169299029408 57.95401425287058 37.10354888633136 0 0 0
7224 1282 3 1.6 18.319628573739145 56.1503946759504 32.94648606002394 0 0 0
7226 1296 3 1.6 18.241867670278264 58.98962698464156 33.93075160442468 0 0 0
7228 1297 3 1.6 18.308356051724022 58.40046575847319 36.93564104572035 0 0 0
7233 1438 3 1.6 20.899914260389906 60.240808648665514 33.05626555449563 0 0 0
8139 1440 3 1.6 20.84576940017946 57.09507526683134 38.12174042055815 0 0 0
7223 5826 1 -0.8 17.1006774752437 60.02005223795879 33.45862962888311 0 0 0
7222 5828 1 -0.8 17.13890973147744 57.7450107345184 37.83914193907933 0 0 0
7229 5874 1 -0.8 18.609986947491418 59.92589749127617 37.3668996003007 0 0 0
7225 6018 1 -0.8 18.247431696386307 57.76092599599549 32.892289367516824 0 0 0
7231 6044 1 -0.8 19.708504779038737 59.67873728927802 33.996208493547904 0 0 0
7227 6045 1 -0.8 17.859752551230482 58.41164710265096 35.38942396618398 0 0 0
7230 6046 1 -0.8 19.669455085911718 57.55946596251242 37.124063469928615 0 0 0
7234 6386 1 -0.8 22.259445141079475 57.65512555511811 37.582453303927956 0 0 0
7236 1407 3 1.6 23.310242168559924 55.89961586427103 33.27598766410095 0 0 0
7238 1437 3 1.6 23.360422098796654 58.774337759361316 34.22188409650094 0 0 0
7240 1439 3 1.6 23.205716083118666 58.92185649369057 37.28161183312557 0 0 0
7245 1507 3 1.6 25.893849295307273 60.24072723080857 33.12685104936011 0 0 0
8149 1508 3 1.6 25.8983732211166 57.53603223109958 38.22185924024636 0 0 0
7241 6102 1 -0.8 22.713459697740916 60.260273634426696 38.03808075518849 0 0 0
7237 6332 1 -0.8 23.17543469782865 57.18023540545459 34.243837712415555 0 0 0
7235 6383 1 -0.8 22.25269062868825 59.371882102419356 33.20760401173775 0 0 0
7243 6384 1 -0.8 24.868270075520833 59.18254410383373 33.794191491681715 0 0 0
7239 6385 1 -0.8 23.118082677967344 59.308844094841334 35.7160627494418 0 0 0
7242 6387 1 -0.8 24.713995000584415 58.54029769099188 37.74749610784535 0 0 0
7244 6510 1 -0.8 25.482380128724877 55.987713648501554 38.0859169193296 0 0 0
7246 6537 1 -0.8 27.17698831331007 57.74679714379798 37.25407162495598 0 0 0
7255 6829 1 -0.8 29.963641142179732 59.14764484141889 33.305199521682596 0 0 0
7250 1632 3 1.6 28.477317741732197 58.81068239727637 33.84640001187612 0 0 0
7252 1634 3 1.6 28.374953116269626 58.75807404420588 36.91402718138704 0 0 0
8159 1635 3 1.6 31.264886392277628 57.965423636263324 37.87044937135816 0 0 0
7253 6595 1 -0.8 28.200338366677094 60.0123239124777 37.897266828825586 0 0 0
7249 6776 1 -0.8 28.208015718751454 57.2328781442517 33.75226638757663 0 0 0
7256 6782 1 -0.8 31.617588802194867 56.40820430656255 37.808014425863675 0 0 0
7251 6830 1 -0.8 28.305595319967146 59.26898191957912 35.384737140666 0 0 0
7259 6831 1 -0.8 32.46810098485612 60.11714835022405 33.57005049084773 0 0 0
7254 6832 1 -0.8 29.823411829885117 58.11319568392002 37.16249115124087 0 0 0
7258 6833 1 -0.8 32.375471234987856 58.86646648952452 37.111683278369256 0 0 0
7261 6973 1 -0.8 32.98315809306416 57.582685980517894 33.666574770531604 0 0 0
7265 6879 1 -0.8 33.90187441000694 61.00676392442891 37.010144697887156 0 0 0
6189 7053 1 -0.8 36.373254516314624 61.06833891733932 34.12889744134903 0 -1 0
7108 6974 1 -0.8 35.07333082729223 56.035676626981996 33.83009541800377 0 0 0
7260 1692 3 1.6 33.53430300619897 56.10857880185595 33.33859088981624 0 0 0
7262 1706 3 1.6 33.640990696087805 59.033043854482386 33.81699800759355 0 0 0
7264 1707 3 1.6 33.87284011681569 59.40986134387612 36.82299447081156 0 0 0
7269 1843 3 1.6 36.41139905610424 59.90354834116697 33.02602938265163 0 0 0
8169 1845 3 1.6 36.16152903087152 57.58281162968981 37.82857119053898 0 0 0
7263 7000 1 -0.8 34.23893562444383 59.10333634688933 35.30173061401692 0 0 0
7266 7001 1 -0.8 34.98147023559346 58.6886171840858 37.74416722284864 0 0 0
7277 7057 1 -0.8 38.10711758683815 60.54566052869912 37.4515812520876 0 0 0
7268 7289 1 -0.8 35.701552568952685 56.20406921461588 37.14716936781176 0 0 0
7271 7334 1 -0.8 37.600254588417755 58.91896389576746 33.454484534657524 0 0 0
7270 7337 1 -0.8 37.53512642284041 58.04983217750128 37.10548191603931 0 0 0
7276 1844 3 1.6 38.715345287000716 59.13668006514344 36.98726940046084 0 0 0
7272 1812 3 1.6 38.96550894642309 56.17741265391931 33.055167510673186 0 0 0
7274 1842 3 1.6 39.15399794978274 58.94834005586716 33.90598950485861 0 0 0
7273 7282 1 -0.8 39.743048629015846 57.489885159984894 33.57453623556921 0 0 0
7275 7335 1 -0.8 39.251752447726616 59.25745504042016 35.47551682675686 0 0 0
7286 2017 3 1.6 43.87926867525679 58.728277722728905 33.91388255720315 0 0 0
7288 2019 3 1.6 44.12377214384642 59.59475403105578 36.88193294192345 0 0 0
8179 2020 3 1.6 41.552101378151704 58.29994283420683 37.837949200412034 0 0 0
7279 7333 1 -0.8 39.99471959906999 60.07836168020497 33.1222734217094 0 0 0
7278 7336 1 -0.8 40.016095398635365 58.80084831693149 37.88822860553063 0 0 0
7285 7712 1 -0.8 43.6247616171936 57.19719084006126 33.46306414314381 0 0 0
7280 7719 1 -0.8 41.72355568254838 57.175783664020855 36.70600956815111 0 0 0
7283 7763 1 -0.8 42.52748113931478 59.597961675799695 33.71641019146268 0 0 0
7282 7766 1 -0.8 42.6300955529089 59.44164688293255 37.49177406236092 0 0 0
7289 7402 1 -0.8 44.34645489893931 61.178515062859844 36.69217653926138 0 0 0
7287 7765 1 -0.8 44.2856302246512 58.82423229127389 35.47403582779547 0 0 0
8189 2138 3 1.6 46.21380724486048 57.74112508760537 38.26160938791016 0 0 0
7298 2462 3 1.6 48.555748151870915 58.83006996562415 34.17455112964976 0 0 0
7300 2464 3 1.6 48.71843433189827 59.02799950896319 37.2095134140852 0 0 0
7291 7764 1 -0.8 45.10524993571466 59.32745519601719 33.03943101972482 0 0 0
7290 7767 1 -0.8 45.21161016310196 58.9591593964166 37.897010186137955 0 0 0
7292 8015 1 -0.8 46.08071334805277 56.517059423242024 37.23197697024924 0 0 0
7295 8041 1 -0.8 47.5618884114137 60.04558582948295 33.821327386640704 0 0 0
7294 8042 1 -0.8 47.73837406372083 58.27911036093642 38.244844542190386 0 0 0
7301 8100 1 -0.8 48.521504935711754 60.6275446717951 37.411078643570185 0 0 0
7297 8776 1 -0.8 48.261073785647554 57.6053679521848 33.15154763573234 0 0 0
7299 8830 1 -0.8 48.3038144039673 58.50072213593789 35.732823006597044 0 0 0
7153 8777 1 -0.8 50.05599500621934 55.86668183222151 33.76996035564143 0 0 0
7305 2463 3 1.6 51.18938203991719 60.19988084199493 33.28970388108789 0 0 0
8199 2465 3 1.6 51.31630460775162 57.638464409424905 38.103067288255474 0 0 0
7308 2667 3 1.6 53.72899989689724 55.79224054727964 33.024635405853175 0 0 0
7310 2681 3 1.6 53.776076931890735 58.74244252876136 34.09239742728345 0 0 0
7312 2682 3 1.6 53.768548573181285 59.017904010385145 37.0724815986032 0 0 0
7304 8782 1 -0.8 51.38015541431327 56.24153247504354 37.28812641591904 0 0 0
7303 8829 1 -0.8 50.104522619356516 59.256958934863 34.01191434847896 0 0 0
7307 8831 1 -0.8 52.631416544591396 59.47180009499368 33.22325473706254 0 0 0
7302 8832 1 -0.8 50.27070176816366 58.66557572714255 37.432772181723635 0 0 0
7306 8833 1 -0.8 52.78777995802412 58.30553231259864 38.13101379573126 0 0 0
7313 8879 1 -0.8 53.694842323981426 60.62347495035721 37.24226798881518 0 0 0
7309 9238 1 -0.8 54.12611032168147 57.272912946130184 33.52950760872093 0 0 0
7315 9264 1 -0.8 55.12141301422262 59.63740368442178 34.09348144743941 0 0 0
7311 9265 1 -0.8 53.24394164423067 58.62595327180463 35.60172360251942 0 0 0
7314 9266 1 -0.8 55.273560381932455 58.4453331118755 37.22419394853022 0 0 0
7320 3062 3 1.6 58.585214396792814 55.912776963661464 33.05420536479767 0 0 0
7322 3092 3 1.6 58.65123924986669 58.77107121448677 34.22827885881831 0 0 0
7317 3093 3 1.6 56.191616527959084 60.290432845590516 33.08454176030668 0 0 0
7324 3094 3 1.6 58.77910026840845 58.82266966959437 37.28679694476601 0 0 0
8209 3095 3 1.6 56.194532813521484 57.44925811412224 38.10628666015064 0 0 0
7327 4132 1 -0.8 60.177018037302474 59.080906412665136 33.7997921530326 0 0 0
7326 4135 1 -0.8 60.299184606555315 58.29338747459459 37.327350494831364 0 0 0
7325 9309 1 -0.8 58.614097770733856 60.07515360563455 38.289613108163564 0 0 0
7321 9851 1 -0.8 58.37658692515184 57.18885803624936 34.03013102055763 0 0 0
7316 9856 1 -0.8 55.85875401919428 55.89981807102936 37.80339927975823 0 0 0
7319 9888 1 -0.8 57.64678950174191 59.62237908469347 33.29339183903129 0 0 0
7323 9889 1 -0.8 58.42499315368979 59.22094211522171 35.76322894991559 0 0 0
7318 9890 1 -0.8 57.754739948691785 57.677168169430146 37.769823632990246 0 0 0
7332 19 3 1.6 3.14474098791642 0.5643371561648861 38.57067252760211 0 0 0
6102 3166 1 -0.8 0.3538032696936966 3.1490713161210664 38.526201448952826 0 0 0
6105 3242 1 -0.8 2.3086063275155224 4.9279438766968 38.563776906063495 0 0 0
7328 50 3 1.6 0.7373255093403683 4.687230523625706 38.83352923057004 0 0 0
7334 21 3 1.6 3.097578436822404 0.24298207230929617 41.511959154077175 0 0 0
7336 22 3 1.6 3.226237783879721 2.998964119601662 42.7317322986059 0 0 0
7330 51 3 1.6 0.9966774901736016 4.784705464272812 41.840534351392584 0 0 0
7333 3164 1 -0.8 2.7757191745666607 0.9213260686402414 40.09273809839604 0 0 0
7335 3167 1 -0.8 3.1470985194103664 1.3941683533066276 42.630322156235984 0 0 0
7331 3170 1 -0.8 2.1648768149151634 3.685176138344229 41.736529950810684 0 0 0
7337 3171 1 -0.8 4.7053514179971305 3.5483236832048144 42.39913814946181 0 0 0
7329 3246 1 -0.8 0.4216190033120061 5.04072918263394 40.36519226111939 0 0 0
7339 4206 1 -0.8 5.511074462848437 4.017621820037528 39.95358826264022 0 0 0
7340 444 3 1.6 5.609995351564957 4.524836112166551 41.48111035315509 0 0 0
7344 651 3 1.6 8.165986226997159 0.47131825946874983 41.36692468260946 0 0 0
7346 652 3 1.6 8.229929867587144 3.3189966262150112 42.36895137090809 0 0 0
7350 681 3 1.6 10.673357088459861 4.756483008361807 41.22605773748688 0 0 0
7341 4207 1 -0.8 7.137050993220306 4.439263110522623 41.99670900816838 0 0 0
7345 4624 1 -0.8 8.0094770430943 2.0701700705505997 41.37894996654214 0 0 0
7347 4626 1 -0.8 9.717524308182288 3.918953012805236 42.22253254929778 0 0 0
8231 4627 1 -0.8 7.994860378256477 2.775195014929416 43.86545340649577 0 0 0
7349 4689 1 -0.8 10.42871299848487 4.225184694117588 39.72195293192391 0 0 0
8118 4625 1 -0.8 9.658622356842136 0.09431250383079894 41.84635168440246 0 1 0
7354 1011 3 1.6 13.15524185600905 0.5754841010483117 41.296303369366235 0 0 0
7356 1012 3 1.6 13.159819936052411 3.5223978562968057 42.46581221658793 0 0 0
7360 1041 3 1.6 15.889324161462376 4.373236362754462 41.26005781461247 0 0 0
7351 4691 1 -0.8 12.219578706788234 4.555221173934121 41.653472873870484 0 0 0
7353 5401 1 -0.8 12.748804041049818 0.5169369461658122 39.739056320351224 0 0 0
7355 5404 1 -0.8 12.861330646230227 2.041316003360464 41.89654210766571 0 0 0
7357 5406 1 -0.8 14.725773901398803 3.845818283801877 42.246948124993025 0 0 0
8239 5407 1 -0.8 12.780835510762394 3.587193731523485 44.03712637589011 0 0 0
7359 5469 1 -0.8 15.346185402057179 4.440913563507977 39.74663097692225 0 0 0
8128 5405 1 -0.8 14.706566968663662 0.1729382148024601 41.47261386710808 0 1 0
7366 1225 3 1.6 18.379565071335794 2.691347615020299 42.0869610412679 0 0 0
7370 1351 3 1.6 20.855896661625096 4.223110849170446 41.155070771721405 0 0 0
7361 5471 1 -0.8 17.1813250606485 3.4091959361353 41.28376140411111 0 0 0
7363 5875 1 -0.8 17.7422001619209 61.09645505415623 39.5363057918819 0 -1 0
7365 5876 1 -0.8 18.742998791232843 1.31077458078601 41.350743927287276 0 0 0
7367 5878 1 -0.8 19.71157342741481 3.6099190401088666 42.11991262419756 0 0 0
8247 5879 1 -0.8 17.876185682271043 2.3795097478616207 43.5841696942956 0 0 0
7369 6168 1 -0.8 20.324311022967326 4.142373139961257 39.6385367408401 0 0 0
7371 6108 1 -0.8 22.266260301206575 3.4424402887261207 41.271571033654105 0 0 0
7374 1321 3 1.6 23.557992811098877 0.31967225974430735 41.05383214423636 0 0 0
7376 1322 3 1.6 23.536589765868925 3.072576601452566 42.20241203399654 0 0 0
7380 1474 3 1.6 26.015407321435173 4.671374553568455 41.10040197688517 0 0 0
7373 6103 1 -0.8 23.41738352412013 0.8258765816963196 39.53676738215304 0 0 0
7375 6105 1 -0.8 24.05825969144928 1.594379813022096 41.88666129437165 0 0 0
7377 6109 1 -0.8 24.772244148465948 4.088196614290787 41.973292301742596 0 0 0
8255 6110 1 -0.8 23.011240886389405 3.037188097700759 43.7202937587262 0 0 0
7379 6451 1 -0.8 25.55676957395899 4.891069519630328 39.57409829077526 0 0 0
7381 6452 1 -0.8 27.31427300411938 3.7042753215436592 41.11764394141304 0 0 0
7384 1536 3 1.6 28.632161757823834 0.5057254550400508 40.91737369733731 0 0 0
7386 1537 3 1.6 28.60577620491436 3.3017963898307237 42.004721034999925 0 0 0
7390 1566 3 1.6 30.998424985865107 5.036764473608316 41.011922356148325 0 0 0
7383 6596 1 -0.8 28.45476827813461 0.7484082598717134 39.33700440562493 0 0 0
7385 6599 1 -0.8 29.18778119927241 1.8908782136307083 41.51419094743935 0 0 0
7387 6601 1 -0.8 29.79837701920564 4.397365644352888 41.92093548501616 0 0 0
8263 6602 1 -0.8 28.088572547794303 3.0541495257682643 43.51132750736463 0 0 0
7389 6664 1 -0.8 30.761564060741875 4.585064185407267 39.48079594250186 0 0 0
7391 6666 1 -0.8 32.464984709464225 4.541166975350863 41.52735798767227 0 0 0
8165 6837 1 -0.8 32.241181918099855 0.13472724318247475 41.73170920512255 0 1 0
8271 6884 1 -0.8 33.32900103387386 2.945735494507149 43.46813548841783 0 0 0
7394 1659 3 1.6 33.64047566836042 0.5989816907364747 41.07196790342985 0 0 0
7396 1660 3 1.6 33.61755538093667 3.490933237433281 41.97175041211219 0 0 0
7400 1761 3 1.6 36.32032621546768 4.85898906692732 41.18514388445997 0 0 0
7393 6880 1 -0.8 33.813363483562135 0.0837648321253265 39.55993652452845 0 0 0
7395 6881 1 -0.8 33.619354483854664 2.2108545558906854 40.9990487361888 0 0 0
7397 6883 1 -0.8 35.11268364829755 4.102239806014539 41.944144009067045 0 0 0
7401 7064 1 -0.8 37.731595183730725 4.612353267007895 41.93810306890808 0 0 0
7399 7123 1 -0.8 36.46987609578515 4.379842274503822 39.65978669579748 0 0 0
8168 6882 1 -0.8 34.90714828534324 0.05758077249815393 41.91472195222651 0 1 0
8175 7062 1 -0.8 37.415097697396874 0.6371191092599889 41.3072476482409 0 1 0
8279 7065 1 -0.8 38.76899609159556 2.8668711542659517 43.614647943418085 0 0 0
7404 1731 3 1.6 38.938514350802016 0.981939656795234 40.89680992463018 0 0 0
7406 1732 3 1.6 39.00027126590658 3.661253914192053 42.22855793425141 0 0 0
7403 7058 1 -0.8 39.220342447780624 0.5481152835964077 39.373296130156064 0 0 0
7405 7060 1 -0.8 39.146073951997444 2.56449184351674 41.065185848186175 0 0 0
7414 1876 3 1.6 43.735014090051756 0.8974160444648795 40.63571238275792 0 0 0
7416 1877 3 1.6 43.89762843474631 3.552734549963403 42.15991118814449 0 0 0
7410 1906 3 1.6 41.48514243852881 5.162648721442576 41.3407756852007 0 0 0
7407 7063 1 -0.8 40.35609412915843 4.536143392315479 42.31429842953444 0 0 0
7415 7405 1 -0.8 43.46525475356105 2.4204239630568662 41.08970504774056 0 0 0
7411 7408 1 -0.8 42.964668979589376 4.843799368699661 41.90378694950527 0 0 0
8287 7410 1 -0.8 43.662134955361715 3.0088626488484707 43.66030592942508 0 0 0
7409 7468 1 -0.8 41.32261448218379 4.467651221240971 39.9013427323719 0 0 0
8178 7061 1 -0.8 39.98122458797921 0.1828171219225115 41.83703623970377 0 1 0
7413 7403 1 -0.8 44.17810354436745 0.8350390640770912 39.08665783358828 0 0 0
7420 2054 3 1.6 46.61711249802229 4.580393440312581 41.08398999609162 0 0 0
7424 2166 3 1.6 48.977525843022306 0.450838191453851 40.89378033231856 0 0 0
7426 2167 3 1.6 49.020887449552184 3.197163111655723 42.448505032912365 0 0 0
7417 7409 1 -0.8 45.46467303052425 3.9135831005883364 41.99465475603779 0 0 0
7419 7831 1 -0.8 46.29079131700182 4.300346572237455 39.535415758237534 0 0 0
7421 7832 1 -0.8 48.06764659708012 3.953215123714828 41.39428698367633 0 0 0
7423 8101 1 -0.8 49.380743894480496 0.8980676306872974 39.3985336181518 0 0 0
7425 8104 1 -0.8 49.09088988644256 1.6346629472481753 42.00709618839068 0 0 0
8295 8107 1 -0.8 48.407753356384504 3.4431253293487565 43.925023526179174 0 0 0
8195 8046 1 -0.8 47.44775818125376 61.321462313502664 40.81358205208339 0 0 0
8188 7407 1 -0.8 44.933217084919356 0.3510280386216046 41.57382658463869 0 1 0
7430 2196 3 1.6 51.42700526190608 4.7710919718767055 41.47457852746495 0 0 0
7434 2489 3 1.6 53.63798731005434 0.5507114667873456 41.127304092615354 0 0 0
7436 2490 3 1.6 53.966179692433926 3.3939665482613073 42.355758034375725 0 0 0
7427 8106 1 -0.8 50.49494830299449 3.84831189492321 42.40858986550205 0 0 0
7429 8169 1 -0.8 51.22203943572133 4.302238128344526 39.95861430965046 0 0 0
7431 8171 1 -0.8 52.97803016884745 4.575143077859217 41.87205014821608 0 0 0
7435 8881 1 -0.8 53.854415863494054 2.135957955008007 41.350335886410704 0 0 0
8303 8884 1 -0.8 53.52759070149998 2.9500722949410085 43.831752966981455 0 0 0
7433 8880 1 -0.8 53.160307039050586 0.27385496310697155 39.61010454058908 0 0 0
7437 8883 1 -0.8 55.48683132696591 3.924473145469873 42.43887054830167 0 0 0
7444 2706 3 1.6 58.90360588237081 0.5835852601888598 41.416573080303706 0 0 0
7446 2707 3 1.6 59.15754316238912 3.362407267382542 42.653254972339305 0 0 0
7440 2736 3 1.6 56.56336084737937 4.600990787597989 41.457401301406065 0 0 0
7447 3247 1 -0.8 60.49826098504527 4.252865446880867 42.7501921519184 0 0 0
7443 9310 1 -0.8 58.46918558478207 0.8237936986279326 39.889545018631594 0 0 0
7445 9312 1 -0.8 59.54247138521514 1.9193093520668265 42.04836106496014 0 0 0
7441 9314 1 -0.8 58.06054235783305 4.061365441005959 41.70560237063056 0 0 0
7439 9361 1 -0.8 56.1094625242654 4.201305765735107 39.964532433331264 0 0 0
8215 9313 1 -0.8 57.56576063514595 0.19394903506597228 42.23024650734229 0 1 0
6265 3243 1 -0.8 3.5052912487756163 7.297048451229969 38.792009530730326 0 0 0
7451 73 3 1.6 3.2608763439693487 8.889351069142474 38.93094509338632 0 0 0
6267 3303 1 -0.8 4.6989710518244046 9.625752899483544 38.805916498823784 0 0 0
7449 52 3 1.6 0.9088174911483181 7.5716819597984 42.86360717746926 0 0 0
7453 75 3 1.6 3.102550538404301 9.36543355739556 41.88195589816014 0 0 0
7448 3248 1 -0.8 1.5615537409555076 6.160522968643725 42.45331356229577 0 0 0
7450 3250 1 -0.8 2.0336552381051747 8.72147717998565 42.89153832678196 0 0 0
7452 3304 1 -0.8 2.6058338383745636 9.118179889896698 40.37676243143546 0 0 0
7454 3307 1 -0.8 3.2370423623544213 10.95007113281818 42.07052495070866 0 0 0
7455 3308 1 -0.8 4.5203492587244956 8.623300704951793 42.0675393800983 0 0 0
7456 4208 1 -0.8 5.1449561808869415 6.066476262585584 41.59987438950938 0 0 0
8326 4210 1 -0.8 5.082860904795232 6.979858669656752 44.049435512950765 0 0 0
7457 445 3 1.6 5.415468550786642 7.362795342773283 42.52205640263562 0 0 0
7465 682 3 1.6 10.457183065205363 7.506373053351134 42.44180823332592 0 0 0
7461 705 3 1.6 7.898817054621172 8.931515843093871 41.707835633840695 0 0 0
7458 4209 1 -0.8 6.95609655213686 7.852275547273582 42.45374824115232 0 0 0
7464 4690 1 -0.8 10.319719259226273 6.329374126657968 41.34455171509636 0 0 0
7463 4692 1 -0.8 9.429008333330467 8.703727703133064 42.14608913670338 0 0 0
8337 4694 1 -0.8 10.137022244812272 6.9144707573114355 43.904554302974226 0 0 0
7460 4737 1 -0.8 7.807001041266039 8.640807978983824 40.12601229837548 0 0 0
7462 4740 1 -0.8 7.456827359944534 10.44495864035819 42.07686113064505 0 0 0
7473 1042 3 1.6 15.664638992221114 7.17884813386094 42.34861150689103 0 0 0
7469 1065 3 1.6 13.148337182548381 8.69137301244324 41.54567341264434 0 0 0
7466 4693 1 -0.8 11.963135201206988 8.076177507562097 42.439125185081274 0 0 0
7472 5470 1 -0.8 16.313873563418536 5.853575058960972 41.714012820135125 0 0 0
7471 5472 1 -0.8 14.385469924805681 7.657340631357395 41.4988230893903 0 0 0
8348 5474 1 -0.8 15.194282451170832 6.8468575724546845 43.85115459648794 0 0 0
7468 5517 1 -0.8 12.640241030266788 8.95882091002358 40.044965297215555 0 0 0
7470 5520 1 -0.8 13.6250516857173 10.097768770916835 42.1562128657333 0 0 0
7477 1248 3 1.6 18.08824767585811 8.78943467489844 41.505950975209515 0 0 0
7481 1352 3 1.6 20.560602072510783 7.046098680786948 42.35079664006865 0 0 0
7474 5473 1 -0.8 16.784363546654212 8.334365549299577 42.34657806090611 0 0 0
7476 5924 1 -0.8 17.702157856749167 8.916802045635052 39.94422329318202 0 0 0
7479 5925 1 -0.8 19.235162884450638 7.6602598105366795 41.668622871364 0 0 0
7478 5926 1 -0.8 18.559157037409022 10.22565921719192 42.03364560601947 0 0 0
7480 6169 1 -0.8 21.087072632968752 5.772195081638325 41.515428849138665 0 0 0
8359 6171 1 -0.8 20.277461049429984 6.589901912854751 43.86197321472822 0 0 0
7482 6170 1 -0.8 21.735996663723725 8.129909804550909 42.39097174509312 0 0 0
7485 1375 3 1.6 23.04239082168441 8.431244947708642 41.49907829321946 0 0 0
7489 1475 3 1.6 25.768839988776747 7.3370453064538355 42.47807037975132 0 0 0
7484 6213 1 -0.8 22.620440565930373 8.225657229708665 39.96176351634814 0 0 0
7486 6215 1 -0.8 23.465301167428155 9.93121950461757 41.770293822860104 0 0 0
7487 6216 1 -0.8 24.24757172146081 7.455819985649948 41.951120101004776 0 0 0
7488 6453 1 -0.8 26.451298637906387 6.0617739924859455 41.758559311777205 0 0 0
7490 6454 1 -0.8 26.65509919873763 8.607265854902046 42.069341142369794 0 0 0
8370 6455 1 -0.8 25.828168625412324 7.015744722837511 44.060195311968975 0 0 0
7585 10098 3 1.6 23.150527455389742 10.896394465356902 42.98491872261763 0 0 0
7498 1567 3 1.6 30.818214900905637 7.9047015781360175 42.06695804698915 0 0 0
7497 6665 1 -0.8 30.906157560738922 6.632215427524147 41.08289548413703 0 0 0
7496 6667 1 -0.8 29.278792500546295 8.364031861894878 42.095219411060846 0 0 0
7499 6668 1 -0.8 31.897979532026753 8.993179537352608 41.586258059633515 0 0 0
8379 6669 1 -0.8 31.249481702241585 7.405955182771403 43.55170674122721 0 0 0
7493 6700 1 -0.8 27.864681204806196 7.874669367492926 39.88370419684352 0 0 0
7494 9944 3 1.6 27.996467603092317 8.73180262580886 41.20854563724943 0 0 0
7495 9944 1 -0.8 28.261811005862754 10.065679725543404 40.455709790306244 0 0 0
7491 9944 2 0.4 28.113100031109973 9.093004030281227 40.22415875483712 0 0 0
7506 1762 3 1.6 35.82615187291293 7.565974715709991 42.32433026691564 0 0 0
7510 1778 3 1.6 38.36358003779965 9.173675888993104 41.3537551776081 0 0 0
7502 6926 1 -0.8 33.3926879454417 7.874801414840395 39.84254572720076 0 0 0
7504 6927 1 -0.8 34.39643551742305 8.276291465076017 42.180008799285744 0 0 0
7505 7124 1 -0.8 35.97655691528138 6.424620687554029 41.20029272505603 0 0 0
7507 7125 1 -0.8 37.09630389937239 8.547771568809054 42.137846046011305 0 0 0
8388 7126 1 -0.8 35.88226188289638 6.839776866585732 43.77922581948082 0 0 0
7509 7165 1 -0.8 38.475507697430665 8.739490154806358 39.80682749456135 0 0 0
7511 7167 1 -0.8 38.28654118083393 10.766860254664321 41.389944530329196 0 0 0
7503 10152 3 1.6 33.41011616900008 8.866900588022293 41.06569887351018 0 0 0
7500 10152 1 -0.8 34.04549232281522 10.127763411117838 40.397599034792385 0 0 0
7588 10152 2 0.4 33.61079638599526 8.765014754193096 40.13152352702462 0 0 0
7514 1907 3 1.6 41.222040903264265 8.042258299077863 42.14853154849256 0 0 0
7518 1930 3 1.6 44.013311422813736 8.922524163745393 41.22624884673835 0 0 0
7512 7166 1 -0.8 39.76192924580576 8.721541864905939 42.071675665502624 0 0 0
7513 7469 1 -0.8 41.26289809406412 6.746310528138169 41.18073395277863 0 0 0
7515 7470 1 -0.8 42.48306016718502 8.976244830732524 41.75568630344335 0 0 0
8399 7471 1 -0.8 41.44701094175437 7.463275192648731 43.64486524654943 0 0 0
7517 7513 1 -0.8 44.053703303156645 8.325195697530646 39.732294755438964 0 0 0
7524 2218 3 1.6 48.88393825501501 9.455231299001612 38.57611596585666 0 0 0
6391 7860 1 -0.8 47.37805687598542 10.02369186873672 38.63370788669884 0 0 0
7519 7515 1 -0.8 44.71012843290194 10.377289015171662 41.252104133109356 0 0 0
7522 2055 3 1.6 46.41103409087219 7.428600511281244 42.33451528344636 0 0 0
7526 2220 3 1.6 48.896067222876 9.294248816113296 41.61241838136293 0 0 0
7520 7516 1 -0.8 44.897736638557696 7.953160033234272 42.160268042712396 0 0 0
7521 7833 1 -0.8 46.6621131540931 6.173048929809045 41.35544177202466 0 0 0
7523 7834 1 -0.8 47.48935585904045 8.597536251179482 42.01659429325026 0 0 0
8410 7835 1 -0.8 46.580750326078416 6.998075078216673 43.87137496134007 0 0 0
7525 8217 1 -0.8 49.23424296993998 8.967977369628965 40.07000689514298 0 0 0
7527 8220 1 -0.8 48.77674413932392 10.893635208250936 41.84954383099432 0 0 0
7532 2512 3 1.6 53.84655064840432 8.737111318566264 38.57085467797806 0 0 0
7530 2197 3 1.6 51.23860874774214 7.534832813792713 42.628857413410245 0 0 0
7534 2513 3 1.6 53.92821972380188 8.770074095439785 41.56643220228263 0 0 0
7529 8170 1 -0.8 51.00994024241973 6.323411703760409 41.59778605025385 0 0 0
7528 8172 1 -0.8 50.127683488927914 8.695341886932697 42.469200382006925 0 0 0
7531 8173 1 -0.8 52.74163187143534 8.116343720421755 42.44880625214324 0 0 0
7533 8929 1 -0.8 53.91216484303285 8.154978158536933 40.07581853934982 0 0 0
7535 8931 1 -0.8 53.72167886998818 10.374099499459899 41.54265515253591 0 0 0
7540 2758 3 1.6 58.875693144525115 8.92014709301951 38.614991027069316 0 0 0
6428 3306 1 -0.8 60.382538504674635 9.508977656615205 38.543092704555896 0 0 0
7536 8930 1 -0.8 55.38708410788566 8.507475874232433 42.19993065946463 0 0 0
7538 2737 3 1.6 56.54609819556762 7.478698266230283 42.638346805253995 0 0 0
7542 2760 3 1.6 59.11538551689027 8.77279814651879 41.642167722322036 0 0 0
7544 3249 1 -0.8 60.48341493843136 7.946016996390902 41.80117917701757 0 0 0
7537 9362 1 -0.8 56.5466203950877 6.205867443304899 41.648982340695454 0 0 0
7539 9363 1 -0.8 57.98274899713888 8.21410281008928 42.63786599293426 0 0 0
7541 9396 1 -0.8 58.55855700019193 8.554946598184461 40.14802074037481 0 0 0
7543 9398 1 -0.8 59.41106327458804 10.33403390044402 41.95697937418491 0 0 0
7545 100 3 1.6 0.7315307798497638 13.183669623525402 38.7933390210556 0 0 0
6432 3368 1 -0.8 2.1756338131664665 13.886826518876491 38.73798422178674 0 0 0
7553 467 3 1.6 5.508869255819427 13.302898344254153 39.06622415378371 0 0 0
7551 101 3 1.6 3.1297708500850945 12.261971613882563 42.988918984707254 0 0 0
7547 102 3 1.6 0.6138998982846057 13.514098209802421 41.808748504237776 0 0 0
7549 131 3 1.6 0.21140058329395797 16.370298266643236 42.779506383695725 0 0 0
7546 3371 1 -0.8 0.4258296267943569 12.863183656300414 40.34076805750991 0 0 0
7550 3372 1 -0.8 2.1378054419354937 13.341145813613078 42.30782613832357 0 0 0
7552 3373 1 -0.8 4.590655514009449 12.91377669957952 43.126740684678346 0 0 0
7557 484 3 1.6 5.185881143497421 16.49469415639711 42.85946959873793 0 0 0
7554 4254 1 -0.8 5.1234979123772 12.950689500256054 40.580154456131766 0 0 0
7555 468 3 1.6 5.5751510090836875 13.534317212191754 42.01924131101136 0 0 0
7556 4256 1 -0.8 5.399225402744024 15.13566671390528 42.0100039942135 0 0 0
7548 3376 1 -0.8 0.22061695894476774 15.087245602603264 41.794037408699715 0 0 0
6444 4253 1 -0.8 7.026576548361069 13.809539944391299 39.08206555961883 0 0 0
7559 731 3 1.6 7.890416772491279 11.793868019984544 42.8742539455945 0 0 0
7563 732 3 1.6 10.480749694049743 12.795467604502088 41.65821109312529 0 0 0
7565 761 3 1.6 9.856941689398814 15.752327577118951 42.61645907423959 0 0 0
7558 4255 1 -0.8 7.084372010880323 13.073062016797708 42.311302697043416 0 0 0
7562 4788 1 -0.8 10.001594586689558 12.580957910303002 40.1185902879662 0 0 0
7560 4789 1 -0.8 9.464824513678256 12.035925149557633 42.65848018037413 0 0 0
7564 4791 1 -0.8 10.431991390841898 14.375140222147197 41.990409754921764 0 0 0
8461 4852 1 -0.8 9.189758285954467 15.449175971907541 44.049669998566124 0 0 0
7649 4850 1 -0.8 8.778657607435976 16.478972958956952 41.67016800505311 0 0 0
6456 4787 1 -0.8 11.724990888768128 14.019798683684266 38.80189714468445 0 0 0
7567 1091 3 1.6 13.15414410853599 11.532639324066777 42.736840636442345 0 0 0
7571 1092 3 1.6 15.505849706278152 13.145155937056781 41.65975857259751 0 0 0
7566 4792 1 -0.8 11.958569976331631 12.15705268635592 41.83785872701252 0 0 0
7570 5568 1 -0.8 14.8723086522907 13.110783335529417 40.1578035645556 0 0 0
7568 5569 1 -0.8 14.433649259231954 12.49466519759549 42.68602949921133 0 0 0
7572 5571 1 -0.8 15.740031050001129 14.6400864769313 42.18567735734933 0 0 0
7573 10051 3 1.6 14.87218040831051 15.603216206462045 43.161270664608814 0 0 0
7661 5602 1 -0.8 13.430880335684598 15.688858374361919 42.522708149689784 0 0 0
7667 10051 2 0.4 14.490638429220162 16.472233352194582 42.942943774747775 0 0 0
7657 5601 1 -0.8 12.08016846042249 16.697702928620867 40.61306534720894 0 0 0
6477 5950 1 -0.8 18.868729312600504 12.745704864892696 38.74139734116549 0 0 0
7577 10097 3 1.6 20.40905125757297 12.640272965074871 39.125204901912014 0 0 0
7580 10097 1 -0.8 20.922811249231657 14.089409275479554 39.257359456060286 0 0 0
7582 10097 2 0.4 20.436273682917147 13.247537506592892 39.20291342176409 0 0 0
7575 1257 3 1.6 18.057897876031284 11.649088829816419 42.62790356073989 0 0 0
7574 5572 1 -0.8 16.86891652056325 12.263188900476598 41.71134358110596 0 0 0
7576 5951 1 -0.8 19.344146770309003 12.594467854889054 42.63446367810285 0 0 0
8473 5952 1 -0.8 17.53156102903372 11.380761137238864 44.130417572071956 0 0 0
7578 6238 1 -0.8 20.661828498713525 11.932164146476225 40.524996626240295 0 0 0
7579 10099 3 1.6 20.80945772614572 12.39936939788002 42.03992495155532 0 0 0
7581 10099 1 -0.8 21.607751847013848 13.718474690972625 42.122563008170914 0 0 0
7584 6239 1 -0.8 21.63334205398462 11.34495638932607 42.87480633956953 0 0 0
7583 10099 2 0.4 21.22024760869087 12.82736335656229 42.071187644696174 0 0 0
7586 10098 1 -0.8 24.156442289446606 12.055930256506485 42.85925659110352 0 0 0
7587 10098 2 0.4 23.55801665838828 11.289703414153417 42.91092694291948 0 0 0
7590 10172 1 -0.8 39.000928785221404 13.262509091164702 41.75078306894662 0 0 0
7595 10171 1 -0.8 40.743928091118185 13.424219401831703 39.005969014483846 0 0 0
7592 10171 2 0.4 41.59908665600818 12.935305845247958 39.19038925737571 0 0 0
8493 7186 1 -0.8 39.55694563338803 11.395371648945128 43.4911371356027 0 0 0
7591 10172 3 1.6 39.365398627549276 11.780336962326885 41.96054570866002 0 0 0
7589 10172 2 0.4 39.532660688448075 12.441269911851462 41.66468160744506 0 0 0
7594 7185 1 -0.8 40.6982691061471 11.644238515618593 41.137030589614604 0 0 0
7598 7559 1 -0.8 42.732263988672166 12.46077376137766 39.620625877550935 0 0 0
7600 7560 1 -0.8 42.97306419567785 12.041238264918459 42.11000762191376 0 0 0
7599 10194 3 1.6 41.97565707734363 12.56443192358317 41.01240839418765 0 0 0
7596 10194 1 -0.8 41.914764026365724 14.03041192286824 41.50583881456289 0 0 0
7593 10194 2 0.4 42.284085330825995 13.108157183241175 41.557295163912954 0 0 0
7603 2077 3 1.6 46.56377328213898 13.55686918441848 38.53342964318868 0 0 0
6508 7558 1 -0.8 45.39407963668503 14.613946028887593 38.56209728316078 0 0 0
7601 1942 3 1.6 44.50856019687798 11.671270609505664 42.19386006907302 0 0 0
6519 8265 1 -0.8 49.19178999505904 15.868294422194328 38.67616964274821 0 0 0
8497 7562 1 -0.8 44.672278314004195 11.233559293183104 43.73234280984503 0 0 0
7605 2078 3 1.6 46.7680438469546 13.797302706112658 41.49628759801685 0 0 0
7609 2246 3 1.6 49.03717801453041 12.189444981952027 42.79357212792153 0 0 0
7602 7561 1 -0.8 45.43958231093524 12.922836962078522 41.80266119967979 0 0 0
7604 7879 1 -0.8 47.243786712918826 13.46901222283191 39.99165099194063 0 0 0
7608 7880 1 -0.8 47.9396135879211 13.328930298624876 42.50735941067892 0 0 0
7606 7881 1 -0.8 46.52616269745296 15.373450821929607 41.655256296951215 0 0 0
7607 10199 3 1.6 46.29696842264806 16.491178762361077 42.778745447443 0 0 0
7668 10199 2 0.4 46.76674907570668 16.373951560049434 43.45518909640382 0 0 0
7613 2247 3 1.6 51.6182502968667 13.371217715575838 41.46428923091687 0 0 0
7615 2276 3 1.6 51.12087821820143 16.243692869069505 42.36199880726186 0 0 0
7617 2529 3 1.6 53.933690428970344 11.64660472186707 42.51569258236439 0 0 0
7612 8268 1 -0.8 51.355390476452094 12.858272702906424 39.96066871651277 0 0 0
7610 8269 1 -0.8 50.512243649790804 12.767878845994213 42.47477055526288 0 0 0
7614 8271 1 -0.8 51.59005009326566 14.976733755212118 41.478805262086595 0 0 0
7616 8272 1 -0.8 53.070561335806374 12.880669535325593 41.95441129526216 0 0 0
8512 8332 1 -0.8 51.06309876847627 15.792041051326656 43.907485914102736 0 0 0
7692 8990 1 -0.8 54.58887329088167 16.472465901262122 42.53276106623137 0 0 0
7618 8963 1 -0.8 55.4730448450975 12.127847998061275 42.55606258513317 0 0 0
7619 2785 3 1.6 56.32572338994928 13.244510002561599 38.60037686130923 0 0 0
6536 9435 1 -0.8 57.838867814855725 13.813554721070549 38.60005339919977 0 0 0
7625 2786 3 1.6 59.07551365073062 11.735286001031332 42.69586103192593 0 0 0
7621 2787 3 1.6 56.44234910499337 12.97819892045132 41.59496522239952 0 0 0
7623 2816 3 1.6 56.11321735606969 15.9655303459986 42.61621038896067 0 0 0
7626 3375 1 -0.8 60.38071814880267 12.67662710977284 42.80103066650961 0 0 0
7620 9436 1 -0.8 56.01165014336788 12.66966825706689 40.071381531814446 0 0 0
7624 9437 1 -0.8 57.9702057059956 12.532616408231961 41.83185802166614 0 0 0
7622 9439 1 -0.8 56.30424354824911 14.574110447941646 41.8218836131279 0 0 0
8521 9483 1 -0.8 56.48213591041815 15.736620939913651 44.1649264264061 0 0 0
7634 132 3 1.6 2.634481013833333 17.92406229407349 41.56109249014982 0 0 0
7636 161 3 1.6 2.830978690410132 20.821386803666343 42.488916597083545 0 0 0
7633 3444 1 -0.8 2.4216644177095596 17.327132792056254 40.08139292847752 0 0 0
7630 3448 1 -0.8 1.4101828882549285 17.402860447388875 42.4672470383536 0 0 0
7635 3450 1 -0.8 2.6284546368949306 19.54189015053402 41.517013466453704 0 0 0
7637 3451 1 -0.8 4.033474822433102 17.406458094918076 42.18254273141291 0 0 0
7628 3521 1 -0.8 1.159913465798117 22.52994888803083 40.051238714564114 0 0 0
7631 3522 1 -0.8 1.4958698781001667 21.720723206730195 42.524874718883304 0 0 0
7638 3523 1 -0.8 4.034296710500876 21.745721613905793 41.95370814153241 0 0 0
7641 498 3 1.6 5.598182015318374 21.91994238691425 41.57934172252556 0 0 0
7640 4314 1 -0.8 5.79967793801115 21.469559816446154 40.03448097884584 0 0 0
7651 10006 3 1.6 10.233571566702304 21.78186076962706 38.932402941367606 0 0 0
6573 4849 1 -0.8 10.38924576913564 18.000647163958867 39.04413114851506 0 0 0
7724 10006 2 0.4 10.297226476457592 21.75878261622894 39.93850650638633 0 0 0
7646 762 3 1.6 7.703622792712012 17.675100626497876 41.72641341141258 0 0 0
7648 787 3 1.6 7.891605836486131 20.380759588276973 43.05628405287278 0 0 0
7653 788 3 1.6 10.114750529199762 21.711921681738552 41.70947671362466 0 0 0
7642 4288 1 -0.8 6.57447021895793 17.29587333444085 42.818199750091374 0 0 0
7643 4315 1 -0.8 6.447953464056204 20.949211919360973 42.56029297338559 0 0 0
7645 4847 1 -0.8 6.999785857377112 17.826840981025452 40.282315440277486 0 0 0
7647 4853 1 -0.8 8.298417710025914 19.089973396095537 42.17512067647651 0 0 0
7652 4904 1 -0.8 9.40050124293461 21.632516125431827 40.27054005659619 0 0 0
7650 4905 1 -0.8 8.96289358821883 21.524371953771986 42.817100952488175 0 0 0
7656 10050 3 1.6 11.874538916613162 17.52789641093122 39.28605790883908 0 0 0
7662 10050 1 -0.8 12.505143479572986 18.94324291800159 39.21893605395514 0 0 0
7664 10050 2 0.4 11.6349878654873 18.457519600613942 39.19273342781453 0 0 0
7658 1104 3 1.6 12.48311731724796 16.934260152901267 42.17268515379748 0 0 0
7654 4851 1 -0.8 11.058514296455217 16.76420297605978 42.88470390604888 0 0 0
7655 4908 1 -0.8 10.966205930874713 20.345205129584063 41.77895572207222 0 0 0
7659 5604 1 -0.8 12.901325887358212 18.48124569301333 42.137762428401174 0 0 0
8550 5614 1 -0.8 11.723143559254606 19.379630121222217 44.08291386714139 0 0 0
7660 10058 3 1.6 12.18696152441156 19.81718823704602 42.62579908623315 0 0 0
7663 10058 1 -0.8 12.918578970050337 21.184891108584832 42.590336550189086 0 0 0
7665 10058 2 0.4 12.058546827346163 20.720281507452103 42.29999004397103 0 0 0
7666 10051 1 -0.8 15.260043676517919 17.093312572799974 42.996592790684545 0 0 0
8555 9999 2 0.4 12.0899265892411 16.98547692532124 43.84517163114954 0 0 0
7675 2274 3 1.6 48.50214616278001 17.293203357436333 38.66746576009942 0 0 0
7677 2277 3 1.6 48.62381361683375 17.89612420380382 41.65027306431384 0 0 0
7674 7909 1 -0.8 47.451994478606295 17.57913331536937 42.6990294442957 0 0 0
7676 8327 1 -0.8 48.07406342738265 17.781794236120476 40.1244555918725 0 0 0
7678 8333 1 -0.8 49.40473972592148 19.290677678600797 41.88551902549543 0 0 0
7670 10199 1 -0.8 44.86612837352259 17.1426668625216 42.75984941982853 0 0 0
7679 10229 3 1.6 49.56770453298909 20.572626980181802 42.853119239194655 0 0 0
7673 10229 1 -0.8 48.1914214771683 20.833952357239575 43.526182222552144 0 0 0
7672 10229 2 0.4 49.1183509883688 20.55165669163527 43.77656406305251 0 0 0
7687 2542 3 1.6 53.56946109235477 17.874733777902694 38.684264180955495 0 0 0
6603 8329 1 -0.8 52.00495408867136 18.213426689318347 38.581654375229654 0 0 0
7680 8330 1 -0.8 49.67815293659715 16.691716743025545 41.848724107908346 0 0 0
7684 2296 3 1.6 51.43220947879457 21.995472148252247 41.05078781969818 0 0 0
7689 2543 3 1.6 53.73842725449584 17.625225304693593 41.791585310486596 0 0 0
7691 2559 3 1.6 53.90803403169232 20.653300062222172 42.147887604039745 0 0 0
7685 8331 1 -0.8 52.19028820745438 17.433619992373078 42.17321520815925 0 0 0
7683 8388 1 -0.8 50.75965666654032 21.78281356532202 39.6216462060235 0 0 0
7681 8389 1 -0.8 50.290208415377464 21.823767016710807 42.162499589101245 0 0 0
7686 8392 1 -0.8 52.49682676081064 20.81478326854649 41.39514847824846 0 0 0
7688 8989 1 -0.8 53.934077294739964 17.44735031358619 40.19567749664807 0 0 0
7690 8991 1 -0.8 54.27298659842367 19.081850268622667 42.22568152188076 0 0 0
7693 9023 1 -0.8 54.998526411134335 21.436649150366616 41.24223408254743 0 0 0
8573 9024 1 -0.8 53.910350722640125 21.23534239549952 43.66080251912626 0 0 0
7701 2817 3 1.6 58.43583916665742 17.922307177187587 41.774395077871475 0 0 0
7703 2846 3 1.6 58.6401636129388 21.058574983571404 42.36394332186633 0 0 0
7704 3447 1 -0.8 59.53982551821504 17.192202001666157 42.70197120489814 0 0 0
7705 3525 1 -0.8 59.868336453106345 21.489737433737005 41.406730712305944 0 0 0
7700 9480 1 -0.8 58.918400084566684 17.806742071213673 40.23252724254814 0 0 0
7697 9482 1 -0.8 57.042670181237604 17.119770591560766 41.95647686048826 0 0 0
7702 9484 1 -0.8 58.25833119039411 19.490787808791435 42.169571286491085 0 0 0
7698 9527 1 -0.8 57.3856202047909 22.02148032534173 42.04211375247072 0 0 0
8581 9528 1 -0.8 59.10888825211453 21.329523409453714 43.88813872093206 0 0 0
7709 183 3 1.6 2.790879386056814 26.606273655125673 38.51266867441896 0 0 0
6631 3577 1 -0.8 4.147748246074546 27.45793544608643 38.601696164189754 0 0 0
7629 162 3 1.6 0.4707111050388629 22.42090259861229 41.50365580549611 0 0 0
7707 184 3 1.6 0.33467925903480544 25.309005020216716 42.76685144986664 0 0 0
7711 185 3 1.6 2.897404369782191 26.474095293820653 41.49039310442135 0 0 0
7706 3526 1 -0.8 0.07955513726023539 23.906225358790966 41.99974248876093 0 0 0
7710 3578 1 -0.8 2.2182963080210105 26.50331026555044 40.022592980958706 0 0 0
7708 3580 1 -0.8 1.8564436498570176 25.82396746723891 42.55256097963724 0 0 0
7712 3583 1 -0.8 4.216733640472156 25.527534605963048 41.40482927947728 0 0 0
7714 507 3 1.6 5.440793091744351 24.94342519692698 42.29458185854808 0 0 0
8592 4334 1 -0.8 4.897426057038207 24.852580610498737 43.81568470913601 0 0 0
7716 802 3 1.6 7.8213797723685925 26.444598760542558 38.6970092013924 0 0 0
6640 4902 1 -0.8 7.7745278587035775 24.836300322589345 38.72679418538822 0 0 0
7713 4316 1 -0.8 5.95306969479474 23.492517940359154 41.77564484865932 0 0 0
7718 803 3 1.6 8.009939020253466 26.686784019805287 41.7162212472617 0 0 0
7715 4333 1 -0.8 6.654843877577838 25.999081522216535 42.28116139543165 0 0 0
7720 4907 1 -0.8 10.56061096751189 23.247032085894947 42.002644343843706 0 0 0
7717 4940 1 -0.8 7.786505489020279 27.08652006318137 40.165811118355506 0 0 0
7719 4941 1 -0.8 9.162379834284845 25.552835677220013 41.735864189709034 0 0 0
8599 4942 1 -0.8 9.210713206590123 24.436782671932697 44.038558238637975 0 0 0
7721 10012 3 1.6 10.034282471858027 24.598454276221553 42.69266578821044 0 0 0
7725 10012 2 0.4 10.24230643777876 25.066048247031283 43.580915512325646 0 0 0
7722 10006 1 -0.8 11.630954897942363 22.082591634104396 39.56358337467244 0 0 0
7723 10012 1 -0.8 11.136089633169314 25.47605187020529 43.36916205521294 0 0 0
7730 9997 1 -0.8 48.65306256193823 24.05807072616491 40.59293169801099 0 0 0
7731 9997 1 -0.8 49.64540360167391 26.575166785929824 40.37296952393815 0 0 0
7727 9997 2 0.4 50.17106951410301 25.814911389459446 39.998954561752704 0 0 0
7733 8428 1 -0.8 50.91581617378005 24.86605840131613 39.4679914063094 0 0 0
7734 9997 3 1.6 49.85927912505992 25.052446863635865 40.64983754168073 0 0 0
7728 9997 2 0.4 51.39933227386254 24.33630681791267 40.11553523544901 0 0 0
7737 2307 3 1.6 52.24298063521695 24.71170545940859 41.937882697123165 0 0 0
7741 2573 3 1.6 54.243711320993484 26.925079578641046 41.33254561029066 0 0 0
7736 8391 1 -0.8 52.30404848808808 23.355890184680895 41.0771264076694 0 0 0
7735 8429 1 -0.8 50.6775390191105 24.944240947331227 41.99964852185112 0 0 0
7738 8430 1 -0.8 52.93015596148886 25.996421047828743 41.272804725577274 0 0 0
8609 8431 1 -0.8 52.81370196390219 24.520257328355346 43.421778854184744 0 0 0
7740 9049 1 -0.8 55.05381577791147 26.583110280416896 39.967563180670886 0 0 0
7742 9051 1 -0.8 55.15174003083003 26.44393355765222 42.564495258041084 0 0 0
6682 3643 1 -0.8 60.18669748570172 27.555155821581145 38.535908796938386 0 0 0
7695 9526 1 -0.8 56.57543962436498 22.85242686889601 39.652274256511696 0 0 0
7696 2847 3 1.6 56.13473726873523 22.574574605295826 41.17930163397679 0 0 0
7744 2869 3 1.6 56.09925112798965 25.169591581106264 42.777929125880895 0 0 0
7748 2870 3 1.6 58.579922746429624 26.582492562394563 41.52393538171551 0 0 0
7749 3579 1 -0.8 60.067495772377534 26.414825052981854 42.128535569793144 0 0 0
7743 9529 1 -0.8 55.633367113469 23.96894330360815 41.80557278622806 0 0 0
7747 9560 1 -0.8 58.50529802180194 26.138678542606314 39.97808114071261 0 0 0
7745 9561 1 -0.8 57.601945307400754 25.646270352977695 42.40595652762542 0 0 0
7756 211 3 1.6 2.9124685296211164 29.551628158823267 42.22531618735194 0 0 0
7752 212 3 1.6 0.2978516616739923 30.900157207439268 41.31963616568358 0 0 0
7755 3582 1 -0.8 3.294717939901405 27.996497597584415 41.922005736934466 0 0 0
7754 3647 1 -0.8 1.6459884306819577 30.002406712931503 41.31837059219063 0 0 0
7757 3648 1 -0.8 4.1055969106886465 30.598537445657474 41.91338012943974 0 0 0
8627 3649 1 -0.8 2.5537506958272242 29.685352768347222 43.80358677928106 0 0 0
7753 3650 1 -0.8 0.6100542323710956 32.39582887268798 41.87453651151938 0 0 0
7763 4943 1 -0.8 8.24003815285445 28.043030889939914 42.57322077289309 0 0 0
7760 525 3 1.6 5.552013161919478 31.29567828738137 41.577365174385235 0 0 0
7761 4370 1 -0.8 5.6667733947039105 32.662399613392125 42.44213560888064 0 0 0
7764 812 3 1.6 8.077098996538988 29.657325395187797 42.560592616413594 0 0 0
7759 4369 1 -0.8 5.512244695159963 31.711718462098794 40.015112287237464 0 0 0
7762 4371 1 -0.8 6.631787450131543 30.147483867750566 41.9662925537129 0 0 0
7767 4981 1 -0.8 7.963085397061748 30.77108316106081 39.35265540251801 0 0 0
7765 4982 1 -0.8 9.13217171209778 30.261819915188358 41.533231208273556 0 0 0
7769 4984 1 -0.8 8.120809457691117 32.60315069828308 41.225469180899154 0 0 0
7768 10025 3 1.6 8.865232964599274 31.41872519710076 40.481103954389276 0 0 0
7771 10025 1 -0.8 9.987780362031188 31.994837378700822 39.56050732139756 0 0 0
7774 10025 2 0.4 8.729078889996897 31.323876488256463 39.53503802880527 0 0 0
7778 10264 1 -0.8 50.35048214251803 31.748523162287317 41.021079081099735 0 0 0
7776 10264 2 0.4 51.20014108679267 32.25265731322263 40.88317823151935 0 0 0
7785 2582 3 1.6 54.01504731678616 30.036460755202146 41.95290604606319 0 0 0
7780 8469 1 -0.8 52.11046515716219 30.76827827410119 39.30138412924578 0 0 0
7782 8470 1 -0.8 52.299950988781006 33.02991815956836 40.6885498368449 0 0 0
7783 8471 1 -0.8 52.572399846899344 30.70444093314343 41.843534657676784 0 0 0
7784 9050 1 -0.8 53.961626781781604 28.502414677210876 41.438816518130395 0 0 0
7786 9068 1 -0.8 54.98385851929976 30.910344779015322 41.006627385071305 0 0 0
8655 9069 1 -0.8 54.60926157305321 30.09534334313008 43.45203712663298 0 0 0
7781 10264 3 1.6 51.83869839420944 31.522980465668134 40.66701002209416 0 0 0
7751 3646 1 -0.8 60.43816438785422 31.069666558117515 39.824282208206554 -1 0 0
7793 2896 3 1.6 58.43459003107562 29.532171983358676 42.375696038919216 0 0 0
7789 2897 3 1.6 56.49451871792912 31.324007881720053 40.67466487266285 0 0 0
7794 3651 1 -0.8 59.937290411424854 30.109503280327406 42.222145531893055 0 0 0
7792 9563 1 -0.8 58.19192251850059 28.149143454914284 41.58236099736521 0 0 0
7788 9601 1 -0.8 56.79460376363862 30.826722844750204 39.177043666205684 0 0 0
7791 9602 1 -0.8 57.443847751111655 30.654954477328534 41.79319845737247 0 0 0
8666 9603 1 -0.8 58.18792198514346 29.227935684607736 43.939254083755905 0 0 0
7790 9604 1 -0.8 56.69543616676441 32.91793508430084 40.73767524356506 0 0 0
7795 241 3 1.6 0.5377682328450258 34.0200687253934 41.92856183590873 0 0 0
7799 242 3 1.6 2.9953229989709773 35.510949624523 40.84618112829884 0 0 0
7801 271 3 1.6 2.7057982117327986 38.49325070851389 41.7542044077045 0 0 0
7798 3721 1 -0.8 3.306488539899624 35.91025093012339 39.32318050322181 0 0 0
7796 3723 1 -0.8 1.5839783581106246 34.71626495190457 40.91728738434369 0 0 0
8673 3724 1 -0.8 0.9064436469628432 34.47137171994043 43.42508045378172 0 0 0
7800 3725 1 -0.8 2.9457631770390402 36.89252695866317 41.687742614882595 0 0 0
7802 3726 1 -0.8 4.1488232451136415 34.52414282974765 41.384707628058734 0 0 0
7803 537 3 1.6 5.317389983389477 34.24496515458412 42.46843885612447 0 0 0
8682 4394 1 -0.8 4.734542584546416 34.56976243631783 43.93637356005729 0 0 0
7851 3797 1 -0.8 1.219228840300611 38.875819380925826 41.25587316699724 0 0 0
8679 3799 1 -0.8 2.8860454384677743 38.92743985906075 43.29949080769577 0 0 0
7811 9948 3 1.6 8.969116737620048 33.52670736306939 42.19948774807219 0 0 0
7812 9948 1 -0.8 10.247852078924794 32.635108647527964 42.19565162918989 0 0 0
7814 9948 2 0.4 8.951970821104165 32.64335276767045 41.71611614695854 0 0 0
7807 830 3 1.6 7.749641282718769 35.96344111780765 41.344349234271775 0 0 0
7809 846 3 1.6 7.596564258980244 38.97901545495611 42.085566186896436 0 0 0
7804 4393 1 -0.8 6.5138960088391595 35.303063546162335 42.18751102326619 0 0 0
7806 5026 1 -0.8 7.281126210398803 35.94586245399096 39.80081721029402 0 0 0
7810 5027 1 -0.8 8.9978251036036 34.978488859068925 41.54607068627956 0 0 0
8691 5028 1 -0.8 8.344220605490696 33.712654986840775 43.64348135157122 0 0 0
7808 5029 1 -0.8 8.091033335563663 37.453772179646506 41.87657001261183 0 0 0
7825 8506 1 -0.8 49.022279693918314 35.7230926454897 39.89092016641951 0 0 0
7826 10242 3 1.6 49.12721061056426 35.55452985690242 41.47804908246492 0 0 0
7821 10242 1 -0.8 47.839121926321376 35.06479704709095 42.17317376470912 0 0 0
7817 10242 2 0.4 48.75319505059736 35.23372654490064 41.86996974359339 0 0 0
7828 10252 3 1.6 49.0251679867247 38.282818965067854 41.93094977571675 0 0 0
7822 10252 1 -0.8 47.60093664514302 37.804232376191905 41.54794202007542 0 0 0
7818 10252 2 0.4 48.542570245801635 37.5695813238218 41.75434420513021 0 0 0
7827 8510 1 -0.8 49.70031785094154 36.878080690766346 42.108610000894664 0 0 0
7824 10304 3 1.6 50.21268492375395 35.294787751776184 38.92047818016054 0 0 0
7820 10304 1 -0.8 50.431524979248124 33.76795651559683 38.763920359232344 0 0 0
7816 10304 2 0.4 50.87702529488168 34.56521904313114 39.12356397293638 0 0 0
7823 10304 1 -0.8 51.54617820553494 35.687679549139986 39.63839929101166 0 0 0
7819 10304 2 0.4 51.98146105578171 35.57745906856725 40.54146063127788 0 0 0
7830 2319 3 1.6 51.68725438448864 34.107307277720885 41.67863998475971 0 0 0
7834 2600 3 1.6 53.88030145541779 35.86431135403961 41.07924237891765 0 0 0
7836 2612 3 1.6 53.58301103559054 38.634244171452636 41.93200302629534 0 0 0
7829 8507 1 -0.8 50.14835127103826 34.38308721858007 41.63508200061772 0 0 0
7831 8508 1 -0.8 52.471487983493255 35.48182396101314 41.66772080389226 0 0 0
8707 8509 1 -0.8 51.968330378124385 33.56064646163042 43.175749729966604 0 0 0
7833 9104 1 -0.8 54.10760594715214 36.17776637907974 39.52190475737423 0 0 0
7835 9105 1 -0.8 54.286099218492794 37.201002259666204 41.86851823330367 0 0 0
7837 9106 1 -0.8 54.84209414261843 34.630654633415176 41.47097959474676 0 0 0
7906 8569 1 -0.8 52.13893558559402 38.668730567221125 41.251125703030674 0 0 0
7838 2926 3 1.6 56.35219855709352 34.17175460157556 41.68498490596823 0 0 0
7842 2927 3 1.6 58.86673873044725 35.71844209943075 40.94481255222448 0 0 0
7844 2956 3 1.6 58.586099731339104 38.719101785272386 41.72966173012646 0 0 0
7845 3722 1 -0.8 59.769903473466705 34.5771748990889 41.64939146232938 0 0 0
7841 9646 1 -0.8 59.18944107510944 35.629360006294284 39.3676194531633 0 0 0
7839 9647 1 -0.8 57.32747688354404 35.38874036663232 41.27432032458593 0 0 0
8716 9648 1 -0.8 56.56451306310307 33.747697616507416 43.234774661263145 0 0 0
7843 9649 1 -0.8 59.1549656549697 37.223019447001384 41.46562673477959 0 0 0
8722 9693 1 -0.8 58.636430178059925 39.015548215529925 43.30773143353092 0 0 0
7918 9692 1 -0.8 57.066512108245185 38.92182551601531 41.23799433431351 0 0 0
7848 272 3 1.6 0.35619370630270697 40.1317774220966 40.71510250263804 0 0 0
7850 294 3 1.6 0.7524758039666398 43.07447527453404 41.743674192048346 0 0 0
7847 3796 1 -0.8 0.574273339313123 40.31813885844668 39.13287848751337 0 0 0
7856 3798 1 -0.8 3.7253973034551655 39.3485454781741 40.82293072088252 0 0 0
7849 3800 1 -0.8 0.8332588677084274 41.482580438396596 41.46993357207151 0 0 0
7852 3855 1 -0.8 2.183319746365967 43.795286362825685 41.56474776018116 0 0 0
8725 3856 1 -0.8 0.24970469644625465 43.30048855737754 43.258181224817896 0 0 0
7857 3923 1 -0.8 4.557159268368736 43.923688513428985 40.53026747165305 0 0 0
7860 555 3 1.6 5.120763076779922 40.17330513721508 40.69711038756545 0 0 0
7859 4429 1 -0.8 5.412642063108272 40.62908653571725 39.17995892622885 0 0 0
7861 4430 1 -0.8 5.090135853781874 41.52540333269014 41.5838207559292 0 0 0
8733 4454 1 -0.8 5.12974897103436 43.72591990552658 43.01264653630043 0 0 0
7863 4431 1 -0.8 6.266400808293304 39.17115213369997 41.20095246384924 0 0 0
7876 10042 1 -0.8 9.9901539163387 39.19047742643879 39.647336756550345 0 0 0
8688 5077 1 -0.8 7.259585461244793 39.25763368059089 43.64088927592673 0 0 0
7815 10042 2 0.4 9.417378952311706 39.98782483674614 39.4055387630642 0 0 0
7862 567 3 1.6 5.476953731223683 43.095145502128936 41.56442616062403 0 0 0
7874 864 3 1.6 10.669191046546839 43.07412158609971 41.35944381329857 0 0 0
7867 891 3 1.6 8.02257418342309 44.4737009585438 40.694824651194295 0 0 0
7864 4453 1 -0.8 7.03176592275312 43.30507646955884 41.21035525800385 0 0 0
7871 5075 1 -0.8 8.651895437370644 40.96110803819379 39.094095469680916 0 0 0
7868 5076 1 -0.8 8.636468531729552 40.113212159593424 41.61209128334942 0 0 0
7873 5078 1 -0.8 10.627163602661057 41.60388810524038 40.69748407734832 0 0 0
7869 5117 1 -0.8 9.54156589914358 43.96281026377435 40.61722503503132 0 0 0
8741 5119 1 -0.8 10.24436492382418 42.90772480694069 42.91596742032556 0 0 0
7872 10042 3 1.6 9.514851274333399 40.51035930362618 40.341369057669276 0 0 0
7875 5118 1 -0.8 12.066845533664413 43.86505399933575 41.33266090206975 0 0 0
7881 9905 1 -0.8 14.217694748167306 44.02402718636419 39.90746262076554 0 0 0
7880 9905 2 0.4 13.41841785800368 44.588249482785244 39.657101583777674 0 0 0
7885 10210 1 -0.8 43.67825982788223 44.632386490811406 42.87191165910872 0 0 0
7884 10297 1 -0.8 46.97929907881147 43.734583916054945 39.3468653726943 0 0 0
7882 10297 2 0.4 47.74424938166176 44.3503784898609 39.19484049156059 0 0 0
8703 8567 1 -0.8 49.096001333568324 39.09857930265651 43.286656380213124 0 0 0
7895 7933 1 -0.8 48.15116711764109 44.3204839824785 41.7001851255644 0 0 0
7894 9984 3 1.6 46.9701391079644 44.296576697308446 42.750293668188895 0 0 0
7892 9984 1 -0.8 46.142734135308075 43.037126990759575 42.37016313498967 0 0 0
7891 9984 2 0.4 46.501441004187626 43.93627653697381 42.46755275071364 0 0 0
7899 8566 1 -0.8 49.67542887080726 39.08358246188521 40.71887821987261 0 0 0
8713 9129 1 -0.8 53.496110905982036 39.07996192577537 43.47564131437286 0 0 0
7903 2335 3 1.6 51.13278968748607 39.693958919169425 40.52048020996294 0 0 0
7905 2350 3 1.6 51.43423608344699 42.737479505724195 41.49008569026017 0 0 0
7910 2639 3 1.6 53.967619079136746 44.28234074687827 40.7183063069866 0 0 0
7902 8565 1 -0.8 51.51111331853678 39.828305324738544 38.95730544307257 0 0 0
7904 8568 1 -0.8 51.19327123644451 41.14951326130355 41.26260536337946 0 0 0
7900 8612 1 -0.8 50.400289584219834 43.65240138398505 40.64724162944991 0 0 0
7907 8613 1 -0.8 52.93729191600556 43.075776378909765 40.97820497945211 0 0 0
8762 8614 1 -0.8 51.37361901195287 43.12869319775454 43.070430890923205 0 0 0
7911 9128 1 -0.8 54.5070174122002 39.628824805118 41.05873462757509 0 0 0
7909 9181 1 -0.8 54.168189065102915 44.46407860121804 39.123906213202524 0 0 0
7912 9183 1 -0.8 55.39191661447321 43.899385072949464 41.402777488453566 0 0 0
7915 2957 3 1.6 56.025234724301654 40.10072624375232 40.86607005808683 0 0 0
7917 2979 3 1.6 56.53323336766669 42.932110014826016 42.03880280065991 0 0 0
7922 3006 3 1.6 58.897733449100095 44.34124566984065 40.758950033615896 0 0 0
7923 3801 1 -0.8 59.521209989891226 39.806593111232175 40.983685745548954 0 0 0
7924 3854 1 -0.8 60.410917455596284 43.78115957654283 40.752348036591286 0 0 0
7914 9691 1 -0.8 56.29300750315259 40.49076741892848 39.322915217461755 0 0 0
7916 9694 1 -0.8 56.1940584326699 41.36698300877543 41.861315331363556 0 0 0
7919 9726 1 -0.8 57.93292035565907 43.17748470062225 41.29076704894297 0 0 0
8770 9727 1 -0.8 56.69096023769727 43.296994618563346 43.600030843969826 0 0 0
7855 321 3 1.6 3.1611319966613416 44.72556040978115 40.67442146884553 0 0 0
7854 3919 1 -0.8 2.531144974258215 44.90058057151647 39.20625756641986 0 0 0
7930 322 3 1.6 3.058142524608346 47.700047435797195 41.841467133858636 0 0 0
7927 351 3 1.6 0.47876449513714586 48.938144856897196 40.884108162997315 0 0 0
7929 3922 1 -0.8 3.374140525634521 46.17260766940757 41.38092450627953 0 0 0
7928 3924 1 -0.8 1.989356608504148 48.38746663442432 40.85873108615668 0 0 0
7931 3925 1 -0.8 4.399791875113443 48.582215661715885 41.791521864155676 0 0 0
8781 3926 1 -0.8 2.4673913295177288 47.733985666422534 43.34120742460778 0 0 0
7926 3996 1 -0.8 0.04941387483919805 49.28486620111556 39.373134797040066 0 0 0
8005 3997 1 -0.8 0.35129115141367234 50.2480615368895 41.826787285429425 0 0 0
7933 4506 1 -0.8 4.902473097198882 49.10517496069386 39.286704629619024 0 0 0
7866 5166 1 -0.8 7.54606160939567 44.9381652307057 39.22580813358423 0 0 0
7934 594 3 1.6 5.549646421265683 48.97194893474916 40.741779401502235 0 0 0
7937 892 3 1.6 7.713044147086481 47.30153448723715 41.89971480583102 0 0 0
7941 921 3 1.6 10.308981520920616 48.3974939135973 40.64809707187542 0 0 0
7935 4508 1 -0.8 6.6593823684288935 47.81618112018317 40.7949945695577 0 0 0
7936 5169 1 -0.8 7.922498025707281 45.71387796983382 41.732027045031515 0 0 0
7938 5170 1 -0.8 9.088412717277137 48.09318004200058 41.64995147141784 0 0 0
8788 5171 1 -0.8 7.15131993885205 47.67375113163502 43.37032915094352 0 0 0
7940 5229 1 -0.8 9.917212191660473 47.98566230836311 39.14001369624375 0 0 0
8021 5230 1 -0.8 10.666131049509644 49.97285186389307 40.696172109493155 0 0 0
7879 9905 3 1.6 13.093032779034463 44.84717596311498 40.59671918804531 0 0 0
7878 5658 1 -0.8 12.47576332495089 45.39792520663685 39.25358701812954 0 0 0
7944 1116 3 1.6 13.129111380637463 47.601212555134616 41.582981058122236 0 0 0
7948 1141 3 1.6 15.481906858830497 49.1180645574593 40.43387319516144 0 0 0
7942 5231 1 -0.8 11.579723571894634 47.56745261487857 41.13928296377012 0 0 0
7943 5660 1 -0.8 13.60511598575269 46.07030746797757 41.48957083410032 0 0 0
7945 5661 1 -0.8 13.973196288998778 48.55815064323306 40.5906413074365 0 0 0
8795 5662 1 -0.8 13.17644463201101 48.20326358175963 43.07663727501523 0 0 0
7947 5719 1 -0.8 15.987031070616597 48.97088927706823 38.917387354231145 0 0 0
7949 5721 1 -0.8 16.387014285404888 48.2907356527369 41.47025805479939 0 0 0
7957 10112 1 -0.8 21.67261275756947 49.451888169597844 39.160989639431904 0 0 0
7952 5970 1 -0.8 18.08088404513869 50.087540016599235 41.97743639086404 0 0 0
8803 5971 1 -0.8 16.601562315553547 48.639231490437616 44.00470442211158 0 0 0
7950 10084 3 1.6 17.37027644366888 48.78400878357012 42.622647293177714 0 0 0
7951 10084 1 -0.8 18.58156641642334 47.94464398506787 43.141235048574885 0 0 0
7953 10084 2 0.4 17.71907659251216 48.344992697255776 43.4604005253777 0 0 0
7956 10113 3 1.6 19.371665696755667 49.99307610281454 41.023934177172926 0 0 0
7958 10113 1 -0.8 19.39693774839284 48.52763106050534 40.46808311752743 0 0 0
7960 10113 2 0.4 19.427512160990382 49.91012897886992 40.13854693209153 0 0 0
7972 9988 1 -0.8 34.59001372781756 49.3250566050598 39.32490745619926 0 0 0
7971 9988 2 0.4 35.20834721751069 50.663248384032734 39.23577799008528 0 0 0
7981 7605 1 -0.8 43.99291933576583 46.87973036491735 41.647638871829976 0 0 0
7980 7607 1 -0.8 43.27561450707121 49.44731307284925 41.98387327645217 0 0 0
7978 7658 1 -0.8 42.12058711586507 49.897601960753306 39.59042198904526 0 0 0
7979 10182 3 1.6 41.93293853848777 49.59072273267034 41.156340132890264 0 0 0
7976 10182 1 -0.8 41.304921273108675 48.19862965738345 41.39274564480306 0 0 0
7974 10182 2 0.4 42.04355529162165 48.840647506916085 41.48913450003682 0 0 0
7897 8661 1 -0.8 48.918305990803795 44.9394769263713 38.98819097026648 0 0 0
7883 10210 2 0.4 44.50122754305672 45.110572951371914 42.63928233958817 0 0 0
7982 1949 3 1.6 44.43523210983854 48.3422925028045 42.041123293797966 0 0 0
7888 10297 3 1.6 46.05434485115256 44.98253140597896 39.52240030088454 0 0 0
7889 7604 1 -0.8 44.8837003267423 44.76344251552272 40.53825926104498 0 0 0
7890 10210 3 1.6 44.586113256434984 45.45121895051691 41.9356202212016 0 0 0
7887 10297 1 -0.8 46.80806070486763 46.19072268258159 40.17728939795132 0 0 0
7886 10297 2 0.4 46.0944334078969 45.572551908158644 40.36936610981772 0 0 0
7898 2376 3 1.6 49.17488017391529 44.757610992896836 40.557341173782596 0 0 0
7893 7606 1 -0.8 45.970773736792744 45.50082152374025 42.6758037351098 0 0 0
8818 7609 1 -0.8 45.23370434796266 48.34262966893009 43.43961340270256 0 0 0
7986 2109 3 1.6 46.869641997641 49.43722106921809 40.7370008329106 0 0 0
7989 2377 3 1.6 49.13764225629622 47.48745632761084 41.91311050366012 0 0 0
7983 7608 1 -0.8 45.44220177137315 48.75909268099477 40.86187198532485 0 0 0
7985 7986 1 -0.8 47.05250427632466 49.85329208472016 39.183050493151576 0 0 0
7987 7988 1 -0.8 48.07051674203672 48.4867382757244 41.22796083507272 0 0 0
7988 8664 1 -0.8 49.66113662860606 46.22216971507958 41.06403930875679 0 0 0
8825 8666 1 -0.8 48.651550618714374 47.01963739382374 43.37474357883958 0 0 0
8816 10220 2 0.4 44.204897087540076 47.76826775975702 43.89261434440624 0 0 0
7993 2406 3 1.6 51.39414166284945 49.05747827707106 40.87910091715519 0 0 0
7996 2640 3 1.6 53.696081453516726 47.20091032644495 41.71143402323334 0 0 0
7990 8665 1 -0.8 50.476881996956664 48.42228273525966 42.037577120707084 0 0 0
7992 8724 1 -0.8 50.73524516004314 48.773017832739484 39.424762636635386 0 0 0
7994 8726 1 -0.8 52.82852808217406 48.30519616468741 40.90481278442408 0 0 0
7995 9182 1 -0.8 53.36046352461875 45.66086854009015 41.33596189469195 0 0 0
8832 9185 1 -0.8 53.46193939699386 47.486828524559314 43.28050378089028 0 0 0
7921 9765 1 -0.8 58.44502088491979 44.73228926531326 39.26823682433154 0 0 0
7997 9184 1 -0.8 55.25315097873837 47.42494960906807 41.3675124093387 0 0 0
8003 3007 3 1.6 58.79383752260382 47.24164569144662 41.794271445590574 0 0 0
8000 3036 3 1.6 56.2689932682191 48.54729769832181 40.83513051988569 0 0 0
8004 3998 1 -0.8 60.27612132826473 47.74200232671835 41.43531441731729 0 0 0
8002 9767 1 -0.8 58.74627559606535 45.63218986106873 41.712967599531176 0 0 0
8001 9768 1 -0.8 57.7463668804694 47.912020696270744 40.77760353300112 0 0 0
8839 9769 1 -0.8 58.4324217200375 47.721360431464824 43.28913757839119 0 0 0
7999 9811 1 -0.8 55.83223980098429 49.01098204913034 39.35607559477559 0 0 0
8091 9812 1 -0.8 56.247797444797214 49.81005302847354 41.83664537945434 0 0 0
8006 352 3 1.6 0.6348437156591734 51.83777876629153 41.964772972738004 0 0 0
8010 381 3 1.6 3.2052665875313235 53.25616135957755 41.06352665614505 0 0 0
8007 4000 1 -0.8 2.175131689949032 52.140314715158055 41.610409552369624 0 0 0
8843 4001 1 -0.8 0.3117619931734445 52.364857397896195 43.455293417363926 0 0 0
8009 4069 1 -0.8 2.7289199605353516 53.701388259924926 39.590774097127074 0 0 0
8011 4072 1 -0.8 3.2310926285190327 54.521393554889514 42.07579029171434 0 0 0
8012 4073 1 -0.8 4.681273719177186 52.60804605106594 40.91830805374913 0 0 0
8854 4510 1 -0.8 5.059714794327964 51.389718867590545 43.15222760405954 0 0 0
8013 4507 1 -0.8 6.211345850097285 50.396919952840165 41.06505775614044 0 0 0
8014 595 3 1.6 5.769934099587368 51.77011836339671 41.76358872987546 0 0 0
8022 922 3 1.6 10.580510173046344 51.30999139121639 41.58622509453001 0 0 0
8018 951 3 1.6 8.294003737174284 53.33068591261587 41.14038867989993 0 0 0
8015 4509 1 -0.8 7.095553213590698 52.652616533718835 41.9771948347841 0 0 0
8020 5232 1 -0.8 9.54071543522357 52.33657278244472 40.91378041964466 0 0 0
8865 5234 1 -0.8 10.01823567073316 50.98041358792301 43.060308311885755 0 0 0
8017 5286 1 -0.8 7.762863213861298 53.70129159478319 39.657080725014765 0 0 0
8019 5289 1 -0.8 8.771332701765935 54.62287342480316 41.964589524295086 0 0 0
8029 5720 1 -0.8 15.560005984910635 50.68685353738512 40.87384026704108 0 0 0
8030 1142 3 1.6 15.799062026082934 51.84457805932229 41.988249722361694 0 0 0
8026 1171 3 1.6 13.061966731976915 53.14868204262468 41.20044860153802 0 0 0
8023 5233 1 -0.8 12.037816650928018 52.0061675083732 41.713001106466876 0 0 0
8028 5722 1 -0.8 14.548721646912732 52.87240088885679 41.7708971301785 0 0 0
8876 5724 1 -0.8 15.726106414897222 51.23075981321382 43.47908858177517 0 0 0
8025 5776 1 -0.8 13.02348440237844 53.15824101216299 39.57875738265909 0 0 0
8027 5779 1 -0.8 12.607199755485116 54.61163181377256 41.72709380613833 0 0 0
7955 6279 1 -0.8 19.475438160780058 50.70474108758146 39.593172160993994 0 0 0
8037 6280 1 -0.8 20.571384249631688 50.653346801980874 41.84236184071868 0 0 0
8034 1284 3 1.6 18.228472679107497 53.350791985709684 40.8344857260544 0 0 0
8038 1387 3 1.6 20.863928644136205 52.21111858269064 42.092271525833766 0 0 0
8031 5723 1 -0.8 17.1713725306267 52.7057040917147 41.870712850061636 0 0 0
8033 6021 1 -0.8 17.734251516938826 52.84216212601002 39.39478198494132 0 0 0
8036 6022 1 -0.8 19.78891632921288 53.02593072203804 41.16920686299734 0 0 0
8035 6023 1 -0.8 18.088680708977783 54.964307302557266 40.876407887540864 0 0 0
8887 6282 1 -0.8 20.480248453599174 52.56613361621243 43.6176069781772 0 0 0
7961 10131 1 -0.8 26.769379134634182 50.295809126318865 42.433119588877666 0 0 0
7962 10131 2 0.4 26.55104318442686 52.27745434479628 43.27401137972585 0 0 0
8042 1411 3 1.6 23.839565067452025 53.05648930951356 41.15308493798637 0 0 0
8039 6281 1 -0.8 22.42919200162181 52.56687192142734 41.8196567537912 0 0 0
8041 6338 1 -0.8 23.614830388809423 53.095867236071605 39.54244924698546 0 0 0
8043 6340 1 -0.8 24.152470286055074 54.54807473988548 41.710782099575084 0 0 0
8044 6341 1 -0.8 25.150227097244887 52.1805775599866 41.53994361944972 0 0 0
8898 6489 1 -0.8 25.928301347338373 52.17270746276268 44.00155605802917 0 0 0
8045 10131 3 1.6 26.388164016005398 51.82165932313797 42.52869517469651 0 0 0
8046 6488 1 -0.8 27.674960480932988 52.73823357822111 42.30695247966364 0 0 0
7964 9910 1 -0.8 31.7975086209658 51.40124686407287 43.34701594026312 0 0 0
7963 9910 2 0.4 31.419801676291552 52.31327081287639 43.49758893193461 0 0 0
8049 1606 3 1.6 28.873662959453316 53.16505937612381 41.29425382671605 0 0 0
8051 6732 1 -0.8 30.29969390392826 52.43513009961118 41.459097740231535 0 0 0
8053 6733 1 -0.8 32.814749887726656 53.46907907252088 42.14592263398801 0 0 0
8909 6734 1 -0.8 30.80679094549229 53.484320223720744 43.685515986273764 0 0 0
8048 6781 1 -0.8 28.36551278813671 53.01639367873651 39.76466985690036 0 0 0
8050 6784 1 -0.8 29.18237717371207 54.73619222354148 41.50922697994995 0 0 0
8052 9910 3 1.6 31.48779494519926 52.671337009289246 42.51038859670202 0 0 0
8059 7229 1 -0.8 35.87723689229475 50.45292605635758 41.41956675969603 0 0 0
7970 9988 3 1.6 34.90535369796487 50.61007660854376 40.14688301391966 0 0 0
7969 7228 1 -0.8 35.83397534255879 51.38151304172081 39.12518401659705 0 0 0
7967 9988 1 -0.8 33.654250611227994 51.408918064224736 40.64331148361168 0 0 0
7965 9988 2 0.4 34.34628465782692 52.06945140849511 40.83839806071808 0 0 0
8056 1694 3 1.6 34.05122090449992 53.727539326369325 41.17019614884432 0 0 0
8060 1791 3 1.6 36.47336508298215 51.833072170203955 41.96182674814412 0 0 0
8055 6976 1 -0.8 33.539505179125484 53.82096894934591 39.65971773245271 0 0 0
8058 6977 1 -0.8 35.397943829115 52.906681536824316 41.42165192833394 0 0 0
8057 6978 1 -0.8 34.52029106203214 55.25715829684219 41.53712085979582 0 0 0
8061 7230 1 -0.8 37.90855835799221 52.20966666648889 41.30451472438647 0 0 0
8920 7231 1 -0.8 36.56584625345264 51.890769579729394 43.56518485993175 0 0 0
8065 7291 1 -0.8 38.23935023873887 54.83560368930015 41.317394332877576 0 0 0
8067 7659 1 -0.8 41.05514224399556 50.77854845130987 41.75110788123051 0 0 0
8064 1816 3 1.6 38.89337401806478 53.4138429997853 40.88937594051963 0 0 0
8063 7288 1 -0.8 39.220111444977654 53.45062383783216 39.30786633390837 0 0 0
8068 1964 3 1.6 41.433431002876205 52.25996307384607 42.20875963345893 0 0 0
8072 1991 3 1.6 43.92809773608438 53.417468799714364 40.6440289560185 0 0 0
8066 7290 1 -0.8 40.308666870710134 53.29083930614337 41.68371025824076 0 0 0
8069 7660 1 -0.8 42.87706703461818 52.61340077351441 41.55943465892649 0 0 0
8931 7661 1 -0.8 41.54690720371941 52.277767025004515 43.808454337382756 0 0 0
8071 7718 1 -0.8 43.605140547991425 53.16900254702553 39.08650085751591 0 0 0
8073 7720 1 -0.8 43.75855838121462 55.00321989820918 40.92388191965781 0 0 0
9050 7724 1 -0.8 43.39530310024518 55.41165168649221 43.48056970655776 0 0 0
8075 7987 1 -0.8 46.780802373085514 50.74747752509734 41.702887172502166 0 0 0
8076 2110 3 1.6 46.42105078820895 52.26703902316938 42.1019053461737 0 0 0
8080 2436 3 1.6 48.92883853377128 53.53219742109896 41.08530673813469 0 0 0
8074 7721 1 -0.8 45.444028441314046 52.95412698505972 41.00127016290652 0 0 0
8077 7989 1 -0.8 47.85179944506191 53.014837015770055 42.15529668892924 0 0 0
8942 7990 1 -0.8 45.71961175336585 52.40967263241415 43.547123307226435 0 0 0
8079 8781 1 -0.8 48.58896794907987 52.881501482914466 39.65417413112504 0 0 0
8081 8784 1 -0.8 48.768639055649864 55.13783691188027 41.01804777251379 0 0 0
9059 8786 1 -0.8 48.3803188435755 55.82490264193365 43.51344017133425 0 0 0
8083 8725 1 -0.8 51.48713861781795 50.660559993903846 41.136016740708875 0 0 0
8084 2407 3 1.6 51.42890753716668 51.994234921534236 42.06741465682316 0 0 0
8088 2669 3 1.6 54.06300906665944 53.12151889697301 41.093764976117846 0 0 0
8082 8727 1 -0.8 50.443453437273696 53.12584041066738 41.46152676706859 0 0 0
8085 8728 1 -0.8 52.93741634548 52.57712077852128 42.119482705262214 0 0 0
8953 8729 1 -0.8 50.84456914181804 51.67773542615718 43.53977054309772 0 0 0
8087 9241 1 -0.8 53.45284263665321 53.222884604576926 39.60784355761198 0 0 0
8089 9243 1 -0.8 54.54135790460332 54.579326952526344 41.57658437795831 0 0 0
9068 9245 1 -0.8 53.36037558306895 55.89133407691291 43.55085208480805 0 0 0
8090 9242 1 -0.8 55.310124070689746 52.11033568648963 41.002548246812964 0 0 0
8092 3037 3 1.6 56.46114283286677 51.4041445836316 41.87291159479312 0 0 0
8096 3066 3 1.6 58.80996695975727 53.060814479766314 40.91800290312232 0 0 0
8098 3999 1 -0.8 60.3650417729117 52.64344786706189 40.98308313881045 0 0 0
8093 9813 1 -0.8 57.911926843956174 51.77449082007588 41.28592909949421 0 0 0
8964 9814 1 -0.8 56.32542105424792 51.96240910671698 43.374301521097536 0 0 0
8095 9855 1 -0.8 58.48657108373904 53.547918360196284 39.42478592645171 0 0 0
8097 9857 1 -0.8 58.45937285432133 54.26429161669943 41.93457823709425 0 0 0
8106 382 3 1.6 3.1885202769419365 56.12470209408314 42.31718578884991 0 0 0
8101 411 3 1.6 0.5443015312542012 57.3286166443027 41.31244775535737 0 0 0
8103 412 3 1.6 0.4729503028992238 60.166418324943365 42.3325722989509 0 0 0
8105 3168 1 -0.8 1.9541169416108508 60.536709502252165 41.80463078849254 0 0 0
8108 3169 1 -0.8 4.549355818361429 60.93910532064497 41.40149139070682 0 0 0
8104 4074 1 -0.8 2.0609308516606726 56.77097256235783 41.3597919801675 0 0 0
8107 4075 1 -0.8 4.651273453596847 56.741703629247205 42.02148979156471 0 0 0
8100 4136 1 -0.8 0.2556543703736015 57.842015606396124 39.81150067954775 0 0 0
8102 4138 1 -0.8 0.35184020979936276 58.558417420066476 42.33981719396333 0 0 0
8975 4140 1 -0.8 0.3084717384086903 60.784199998555074 43.807172170396385 0 0 0
8110 4563 1 -0.8 5.185564347235247 57.08193946058126 39.48704901265837 0 0 0
8984 4567 1 -0.8 5.294691058164116 59.77405032992025 43.6216507702094 0 0 0
8978 4076 1 -0.8 2.787636093602741 56.50087615956686 43.8357303271684 0 0 0
7343 4621 1 -0.8 7.935282700846748 61.34603578293004 39.86871318031151 0 -1 0
8111 624 3 1.6 5.75879685065883 57.28026859820602 40.980664732242445 0 0 0
8113 625 3 1.6 5.7556311623255985 60.16209492789891 42.130648188863795 0 0 0
8116 952 3 1.6 8.339935291717165 56.15629297043161 42.167973843517196 0 0 0
8121 981 3 1.6 10.668920731372642 57.62333281171489 40.77000328646652 0 0 0
8123 982 3 1.6 10.738788389579655 60.306964656110644 42.0600261612514 0 0 0
8114 4564 1 -0.8 7.133414817416735 56.46085514749387 41.144654278806804 0 0 0
8112 4565 1 -0.8 6.089405165167527 58.83523660410906 41.27673469187924 0 0 0
8115 4566 1 -0.8 7.051030218184325 61.12317815671374 42.2689760005556 0 0 0
8117 5290 1 -0.8 9.619479097690641 57.06873463592476 41.85590764667092 0 0 0
8987 5291 1 -0.8 7.809386754126719 56.453242656922924 43.66174701912382 0 0 0
8120 5339 1 -0.8 10.28901862487184 57.04197187918716 39.31657460298544 0 0 0
8122 5340 1 -0.8 10.615933904817684 59.23091563584692 40.86605571312622 0 0 0
8993 5343 1 -0.8 10.466634188924047 59.6112307111613 43.489498500448285 0 0 0
8126 1172 3 1.6 13.023011113863587 56.13642385215283 42.06721057343202 0 0 0
8131 1201 3 1.6 15.516811754462632 57.61360729995251 41.19639446482102 0 0 0
8133 1202 3 1.6 15.574608360328828 60.510695026868795 42.33744566168339 0 0 0
8124 5341 1 -0.8 12.160731623509028 57.13315038111821 41.137240150505974 0 0 0
8125 5342 1 -0.8 12.232520055999732 60.90675830794161 42.08517582274914 0 0 0
8127 5780 1 -0.8 14.593073792572385 56.4237786610647 41.790037245242445 0 0 0
8996 5781 1 -0.8 12.691485288826353 56.42135717627543 43.6181718382998 0 0 0
8130 5829 1 -0.8 15.213820470229917 57.726253241232946 39.616435289457876 0 0 0
8132 5830 1 -0.8 15.146135750690753 59.00209655686416 41.939164538675996 0 0 0
9002 5833 1 -0.8 15.251410564033947 60.758736906806874 43.89879601496391 0 0 0
7364 1224 3 1.6 18.309755485367578 61.181969968698766 41.04247805257248 0 -1 0
8136 1285 3 1.6 18.17799307168109 56.22342718504212 41.86886328237186 0 0 0
8141 1441 3 1.6 21.01638469683377 57.32242294890941 41.13579997442818 0 0 0
8143 1442 3 1.6 20.996852430556338 60.146533382699936 42.075626221472845 0 0 0
8134 5831 1 -0.8 17.09214671180194 57.32411134086913 41.406134615580484 0 0 0
8135 5832 1 -0.8 17.152905585386513 60.713457680154676 42.064819670179695 0 0 0
8138 5877 1 -0.8 19.64416430845639 60.2928384043496 41.20002174062378 0 0 0
8137 6024 1 -0.8 19.68825057823623 56.80229646240471 41.886243606379615 0 0 0
9005 6025 1 -0.8 17.839626068859715 55.78906924477605 43.38155525731383 0 0 0
8140 6388 1 -0.8 20.623912512985495 57.661782213773385 39.609834379282574 0 0 0
8142 6389 1 -0.8 21.555897995268296 58.662636978595835 41.84424193401775 0 0 0
9011 6390 1 -0.8 20.615972032611236 60.32181812815757 43.63371965006314 0 0 0
8144 6342 1 -0.8 22.22050899668331 56.2523200018685 41.21753975881686 0 0 0
8146 1412 3 1.6 23.569673824040123 55.99979417070979 42.07980434603279 0 0 0
8151 1509 3 1.6 26.20420714289073 57.56845935575837 41.35925823530817 0 0 0
8153 1510 3 1.6 26.054060103868046 60.49051599915321 42.11462919693009 0 0 0
8145 6106 1 -0.8 22.12276464435196 61.217216657515166 41.62348221903705 0 0 0
8148 6107 1 -0.8 24.712855325976673 60.5971402461752 41.207950743239614 0 0 0
8147 6343 1 -0.8 24.69053275888854 57.12206762224761 41.732100366222554 0 0 0
9014 6344 1 -0.8 23.192700614119047 56.07509119092694 43.65639580254738 0 0 0
8150 6538 1 -0.8 26.31438728662179 57.80877239614198 39.75986893198818 0 0 0
8154 6539 1 -0.8 27.27175505460723 56.467943018595996 41.8509363578247 0 0 0
8152 6540 1 -0.8 26.56610328324665 58.96815143852518 42.079304711435505 0 0 0
8155 6541 1 -0.8 27.198478822161423 0.10806093711084858 41.56521613194343 0 1 0
9020 6542 1 -0.8 25.674394623896347 60.85667156317703 43.640486984114055 0 0 0
8156 1607 3 1.6 28.85658135200362 56.19110856221395 42.07243953044677 0 0 0
8161 1636 3 1.6 31.20935082545669 57.83262936606959 40.92916620405944 0 0 0
8163 1637 3 1.6 31.050666606361037 60.538688420620964 42.19614794056663 0 0 0
8158 6600 1 -0.8 29.728535012988083 60.774942871813195 41.28704610675746 0 0 0
8157 6785 1 -0.8 29.731678648225618 57.25825788682839 41.22625925635419 0 0 0
9023 6786 1 -0.8 29.227278006043562 56.34753732411451 43.63216256277569 0 0 0
8160 6834 1 -0.8 31.229610967889602 58.41891477341753 39.42114695554454 0 0 0
8162 6835 1 -0.8 31.516884228428047 59.025174580805306 41.96754849358403 0 0 0
8164 6836 1 -0.8 32.3919408158804 56.76215677189056 41.153398601953214 0 0 0
9029 6838 1 -0.8 30.71855230154448 60.74365266590313 43.76352822006353 0 0 0
8166 1695 3 1.6 33.81091427706665 56.6300495183009 41.92508012052126 0 0 0
8176 1817 3 1.6 38.695922076578725 56.300518359704846 41.812610620040125 0 0 0
8171 1846 3 1.6 36.31576371833393 58.02372706348029 40.857133132939154 0 0 0
8173 1847 3 1.6 36.41519306427646 60.87064468188779 41.81547422311152 0 0 0
8167 6979 1 -0.8 34.830229903999786 57.801288036776604 41.457039291255455 0 0 0
9032 6980 1 -0.8 33.588683862901505 56.700251287506525 43.5213010526078 0 0 0
8174 7293 1 -0.8 37.45807053883916 57.343322249424524 41.78129737920151 0 0 0
8170 7338 1 -0.8 36.45401019134483 57.360086724713426 39.39827950403398 0 0 0
8172 7339 1 -0.8 36.529957151360776 59.62444680514224 40.79244952232023 0 0 0
9038 7340 1 -0.8 36.8687009575585 60.326936906271285 43.26909359278619 0 0 0
9041 7294 1 -0.8 39.25071277731385 56.21099910969536 43.32714656885983 0 0 0
8186 1992 3 1.6 43.63931024216456 56.128935686958464 42.067229727031844 0 0 0
8181 2021 3 1.6 41.27254255007943 57.683816074761275 40.76723358116687 0 0 0
8183 2022 3 1.6 41.304407956648376 60.65061192289096 41.73307421371845 0 0 0
8177 7292 1 -0.8 39.9163981230649 56.805135932479736 40.86666662305501 0 0 0
8185 7406 1 -0.8 42.40340738053328 61.38780556321679 40.80804463732675 0 0 0
8184 7722 1 -0.8 42.40811186572148 57.135163047939436 41.77584230179837 0 0 0
8180 7768 1 -0.8 41.88832678750781 57.66046996468311 39.27915505773649 0 0 0
8182 7769 1 -0.8 40.89747843565897 59.21699907515477 41.119704267042486 0 0 0
9047 7770 1 -0.8 41.92790020222909 60.42397153904776 43.19851357032985 0 0 0
8191 2139 3 1.6 46.09395352327285 57.71761560796524 41.230867116854924 0 0 0
8193 2140 3 1.6 46.21576771568463 60.773401256590624 41.69502190473016 0 0 0
8196 2437 3 1.6 48.74810999162259 56.37495269612704 42.04777071978534 0 0 0
8187 7723 1 -0.8 45.038313492417814 56.94265424089964 42.16614412796409 0 0 0
8190 8043 1 -0.8 45.88492368765688 57.18830387833996 39.72952566937539 0 0 0
8194 8044 1 -0.8 47.6329325474264 57.473555491304765 41.657973437776306 0 0 0
8192 8045 1 -0.8 45.77506538600639 59.29754565614486 41.23272820107242 0 0 0
9056 8047 1 -0.8 46.72971937945092 60.709585586284845 43.21977129470556 0 0 0
8201 2466 3 1.6 51.43852232008988 57.4165215803516 41.10321208182454 0 0 0
8203 2467 3 1.6 51.31178433288731 60.26001993427321 42.141732584531 0 0 0
8206 2670 3 1.6 53.94707389866328 55.99554267864976 42.05778640154939 0 0 0
8198 8105 1 -0.8 49.98811132996715 60.6560198690251 41.31042612222484 0 0 0
8197 8785 1 -0.8 50.2465473063676 56.9786570302322 42.09666223208664 0 0 0
8200 8834 1 -0.8 50.839818022715136 57.3962087222746 39.61348806232111 0 0 0
8202 8835 1 -0.8 51.91587973076883 58.8970674780283 41.52717644265054 0 0 0
8204 8836 1 -0.8 52.71476965747516 56.43232588893646 41.12134577523479 0 0 0
8205 8837 1 -0.8 52.45339332379079 0.012683721854766645 42.07954439267969 0 1 0
9065 8838 1 -0.8 50.89170624058138 60.06126188795639 43.67672043000765 0 0 0
8207 9244 1 -0.8 55.142818508978536 57.08168282072889 42.036694708770504 0 0 0
8208 8882 1 -0.8 55.04029308429747 61.163448481767496 41.39550804040636 0 0 0
8216 3067 3 1.6 58.6794863481414 55.85343209055831 42.10211404735134 0 0 0
8211 3096 3 1.6 56.36685256508749 57.692376265458904 41.17799418367264 0 0 0
8213 3097 3 1.6 56.273176696555 60.61109001683563 42.28934049640736 0 0 0
8217 4137 1 -0.8 60.20775211077772 56.170288063481365 41.681005227193396 0 0 0
8218 4139 1 -0.8 60.01517861580892 60.799831721112895 41.431252072871104 0 0 0
8214 9858 1 -0.8 57.64403179992053 56.69718787392278 41.19502777804345 0 0 0
9077 9859 1 -0.8 58.43459331962082 56.299168686112566 43.62720348622758 0 0 0
8210 9891 1 -0.8 55.89131415194696 57.82160710560244 39.64511279106469 0 0 0
8212 9892 1 -0.8 56.741613916337556 59.150449809158665 41.76570400879279 0 0 0
9074 9893 1 -0.8 55.8068784632869 60.54922832599976 43.82885581112387 0 0 0
8223 3172 1 -0.8 2.8017386580871566 3.448135083195886 44.20877287585093 0 0 0
8224 23 3 1.6 3.0833059497486763 3.3419376200828204 45.78228784325527 0 0 0
8220 24 3 1.6 0.5712871563719114 1.902463279712028 46.67948633320738 0 0 0
8225 3173 1 -0.8 2.714230190563213 4.784936412787514 46.40664217745812 0 0 0
8222 3174 1 -0.8 2.132129809457902 2.1968701523109346 46.40568267201175 0 0 0
8226 3175 1 -0.8 4.622411967276579 2.9071428900556477 46.009778524794484 0 0 0
8219 3177 1 -0.8 0.18619560966618587 0.4032806515279938 46.2202805265279 0 0 0
8221 3178 1 -0.8 0.27140327363426786 2.047028583369204 48.24604696966344 0 0 0
8229 4176 1 -0.8 5.335653961446141 1.0996376630224671 47.79329460961974 0 0 0
8228 428 3 1.6 5.62059287704807 1.6694484888762788 46.31494241407093 0 0 0
8232 653 3 1.6 8.193595809008825 3.091355838833039 45.43129384411869 0 0 0
8236 654 3 1.6 10.675629319227268 1.4305998241662834 46.20336885446594 0 0 0
8230 4174 1 -0.8 7.142624973514708 2.2070703289801017 46.274208292808915 0 0 0
8227 4175 1 -0.8 5.43321151656853 0.45441847318849826 45.26607125405516 0 0 0
8233 4628 1 -0.8 7.889019943463695 4.666556374105792 45.64913542936778 0 0 0
8234 4629 1 -0.8 9.696870080317012 2.6760124275693844 45.85655168494024 0 0 0
8235 4630 1 -0.8 10.415912471881033 0.15684616010608346 45.243170018597816 0 0 0
8237 4632 1 -0.8 10.412376982464124 0.9637698772467341 47.72512315983901 0 0 0
9098 429 3 1.6 5.835719890986946 1.3745653619654106 49.296291420166064 0 0 0
9113 656 3 1.6 10.930214769105271 1.0809471209385684 49.245742629724084 0 0 0
9112 4699 1 -0.8 9.472054098522637 4.649886092227582 49.4435341600766 0 0 0
9099 4178 1 -0.8 5.914234749572613 2.9647745521210327 49.540400583081244 0 0 0
8240 1013 3 1.6 13.1569903810249 3.1343846631179115 45.54057284828672 0 0 0
8244 1014 3 1.6 15.672716429517108 1.7970973973851356 46.523783363881016 0 0 0
8238 4631 1 -0.8 12.205964226703756 1.9168659815846238 46.016614388560534 0 0 0
8241 5408 1 -0.8 12.955235557933017 4.378096940525945 46.551511843842974 0 0 0
8242 5409 1 -0.8 14.697501066718466 2.6524762001537483 45.56682203303742 0 0 0
8245 5412 1 -0.8 15.387170444593284 2.2321514202694517 48.04636892109848 0 0 0
9128 1016 3 1.6 15.712227701096104 1.8069690027730243 49.56421027977329 0 0 0
9118 4637 1 -0.8 12.354912488626313 0.352227235830665 49.395029121290094 0 0 0
8243 5410 1 -0.8 15.323484328778095 0.22976452620287377 46.37610338947046 0 0 0
8248 1226 3 1.6 18.207652834060962 2.8144074603224385 45.09861047595292 0 0 0
8252 1324 3 1.6 20.989346183560887 1.8211876308210526 46.20910198816745 0 0 0
8246 5411 1 -0.8 17.22119353749552 2.0444531750679826 46.12116043611571 0 0 0
8249 5880 1 -0.8 17.95298538244965 4.403941778683708 45.24155217515245 0 0 0
8250 5881 1 -0.8 19.769502475225067 2.4760167514667732 45.37374965625246 0 0 0
8251 6114 1 -0.8 21.457319738773425 0.40488341977867115 45.58927502783475 0 0 0
8253 6115 1 -0.8 20.461832046814873 1.5350729761798587 47.69975894441097 0 0 0
9143 1326 3 1.6 21.020623378921787 1.3749782193993854 49.19641639269315 0 0 0
9133 5417 1 -0.8 17.303090960135393 1.5275198209758793 49.65477877498351 0 0 0
9142 5908 1 -0.8 19.544141788339015 4.656201107008162 49.28289091335208 0 0 0
9144 6120 1 -0.8 21.43361783895755 2.840376618635143 49.712414906253784 0 0 0
8356 5907 1 -0.8 17.555281858734016 5.232913518503222 47.69521745732526 0 0 0
8254 6112 1 -0.8 22.27218083441523 2.8100528514587277 46.21657699962596 0 0 0
8256 1323 3 1.6 23.335884825152 3.507202399980136 45.21624622478606 0 0 0
8260 1458 3 1.6 25.859030644640395 2.124062978425966 46.36148778062743 0 0 0
8257 6111 1 -0.8 23.18782356946397 5.10070733592768 45.230904366618 0 0 0
8258 6113 1 -0.8 24.860788891165406 3.1339527810844485 45.59885183256974 0 0 0
8262 6419 1 -0.8 27.403318485845016 2.458969063062118 45.981452149872005 0 0 0
8259 6420 1 -0.8 25.450743329529875 0.6097520079276946 45.97117157665038 0 0 0
8261 6421 1 -0.8 25.655635341442487 2.2453897583409534 47.95008959294448 0 0 0
9158 1459 3 1.6 26.0191164916286 1.5518083590719673 49.36157503011366 0 0 0
9148 6116 1 -0.8 22.322959523672367 0.42077501239283344 49.19294361840913 0 0 0
9157 6178 1 -0.8 24.42017884024665 4.63656094692147 49.497587659543555 0 0 0
9163 6422 1 -0.8 27.52350087206452 0.9717270395984621 49.26434862332332 0 0 0
9165 6458 1 -0.8 27.09827092572918 4.736942501123917 49.37448248309368 0 0 0
8264 1538 3 1.6 28.516281113746153 3.1913877565292994 45.05445014326388 0 0 0
8268 1539 3 1.6 31.042665079322276 1.7569433345977046 46.238637598197606 0 0 0
8265 6603 1 -0.8 28.590104168712074 4.777489248027951 45.3285630617705 0 0 0
8266 6604 1 -0.8 29.979923630939968 2.528987284705806 45.2956071974707 0 0 0
8270 6606 1 -0.8 32.571559188566496 1.9681521566172147 45.76111106178317 0 0 0
8269 6607 1 -0.8 30.904612940875875 2.2347297026694024 47.76176295784651 0 0 0
9173 1541 3 1.6 31.36077545588855 1.7980029012176983 49.23941500148634 0 0 0
9178 6612 1 -0.8 32.58692793485371 0.7449551554316435 49.25417912657688 0 0 0
8386 6912 1 -0.8 33.03449232706337 5.267432713661434 47.71385389628985 0 0 0
9327 1570 3 1.6 28.576574175697626 5.3964078206063055 49.31083044598784 0 0 0
8272 1661 3 1.6 33.808317904715175 2.644209461195852 44.9764864139885 0 0 0
8280 1733 3 1.6 38.710202321157645 3.2820509605441464 45.16682564640341 0 0 0
8276 1734 3 1.6 36.358320072936806 1.4070509732620553 46.05045071270211 0 0 0
8273 6885 1 -0.8 34.20965730890625 4.013499976229314 45.71194865115162 0 0 0
8274 6886 1 -0.8 35.115841927507915 1.6980323744206716 45.054719169386054 0 0 0
8281 7066 1 -0.8 38.48298452861048 4.874355222231995 45.204559705370194 0 0 0
8278 7068 1 -0.8 37.48815365381881 2.549390723239061 45.91517616475257 0 0 0
8277 7070 1 -0.8 35.86920831073843 1.3634918575296096 47.58792769307187 0 0 0
8385 1673 3 1.6 33.61348485142863 5.417581223506386 46.2219039165547 0 0 0
9188 1736 3 1.6 36.12774380758221 2.026448865676394 49.03571538302772 0 0 0
9189 7075 1 -0.8 36.031204573578606 3.6259594590826225 48.92258435784116 0 0 0
8288 1878 3 1.6 43.83578517951158 3.420771483148745 45.21161100230812 0 0 0
8284 1879 3 1.6 41.29443449881482 1.85695742186104 46.169564821428985 0 0 0
8282 7067 1 -0.8 40.11494631251697 2.9200400494654644 45.875380541112776 0 0 0
8289 7411 1 -0.8 43.6461017839323 5.022653972083371 45.360298868551084 0 0 0
8286 7412 1 -0.8 42.72850721280618 2.6052725519674516 46.0651704567621 0 0 0
8283 7414 1 -0.8 41.17782411716826 0.6201027295561646 45.136182161266674 0 0 0
8285 7415 1 -0.8 41.13527359054084 1.282780667373191 47.66496981497147 0 0 0
9203 1881 3 1.6 41.297810938217054 1.7553115230617287 49.19509023237206 0 0 0
9204 7420 1 -0.8 41.15280235118131 3.3683815404085173 49.28249550229294 0 0 0
8292 2038 3 1.6 46.241135038300904 1.803427106568571 46.2684215103702 0 0 0
8296 2168 3 1.6 48.72476375455625 3.3991135321907957 45.51086230901171 0 0 0
8290 7413 1 -0.8 45.31347524245286 3.0185298284186017 45.735554969158436 0 0 0
8294 7799 1 -0.8 47.79886797577422 2.215813971023392 46.11579383042148 0 0 0
8291 7800 1 -0.8 45.8895497822046 0.4720333260181725 45.42177684629979 0 0 0
8293 7801 1 -0.8 45.94612123589416 1.5291521226843827 47.82590784888203 0 0 0
8297 8108 1 -0.8 48.409336764012714 4.786046439244025 46.293225161629536 0 0 0
9218 2039 3 1.6 46.33538473074734 1.8585063990270323 49.35815028337335 0 0 0
9223 7802 1 -0.8 47.89581322071775 1.5216292128403848 49.60835738975131 0 0 0
9219 7803 1 -0.8 46.07525363755012 3.424668391548465 49.652640857120076 0 0 0
8300 2169 3 1.6 51.35748016120965 2.0131447893416294 46.261169747388685 0 0 0
8304 2491 3 1.6 53.92059333876543 3.350951678021331 45.3389528658397 0 0 0
8298 8109 1 -0.8 50.29459923924223 3.081795734376602 45.695600505322105 0 0 0
8299 8110 1 -0.8 51.31110101311457 0.6850020575624279 45.34593363420397 0 0 0
8302 8111 1 -0.8 52.848539602781656 2.6328802957483015 46.29678454456338 0 0 0
8301 8112 1 -0.8 50.970278355796175 1.6659525647730895 47.77993265420689 0 0 0
8305 8885 1 -0.8 53.85679428167216 4.9575777572321815 45.520067868447065 0 0 0
9233 2171 3 1.6 51.625038391927085 1.751538302438043 49.24862381838145 0 0 0
9234 8116 1 -0.8 52.08160479312099 3.2607271116947 49.58249572131467 0 0 0
9238 8117 1 -0.8 52.89696574405813 0.7627821714101216 49.31401021822988 0 0 0
8311 9315 1 -0.8 58.52682753998778 3.2275454987039964 44.122802992298666 0 0 0
8306 8886 1 -0.8 55.4225076608819 2.836201247132552 45.62248535495384 0 0 0
8312 2708 3 1.6 58.934980209705216 3.58851430111929 45.638641476381245 0 0 0
8308 2709 3 1.6 56.500632322833766 2.0228759108009617 46.49943393515914 0 0 0
8314 3176 1 -0.8 60.41348924487624 2.9983643010100995 45.8893514593348 0 0 0
8313 9316 1 -0.8 58.90963269611189 5.187896447795838 45.854818815996175 0 0 0
8310 9317 1 -0.8 57.87109022482717 2.8726365753257523 46.608984996314994 0 0 0
8307 9318 1 -0.8 56.8028503510417 0.5760809978876653 45.8393908204782 0 0 0
8309 9319 1 -0.8 55.91489402913257 1.8534192785998649 47.98362393400795 0 0 0
9248 2711 3 1.6 56.48027299630068 1.7373036551837773 49.48396171547001 0 0 0
9253 9320 1 -0.8 57.81389883627839 0.8269211097620425 49.45331228527688 0 0 0
8315 3251 1 -0.8 0.22518137897052387 7.475022472499884 44.309658507946004 0 0 0
8322 53 3 1.6 3.005014987135271 6.314792784287646 46.84288570635355 0 0 0
8316 54 3 1.6 0.623372104842916 7.923317041839653 45.80134142442153 0 0 0
8318 76 3 1.6 0.09367852148420347 10.780232787671132 46.87984095447857 0 0 0
8320 3252 1 -0.8 2.1310232312689967 7.413809709740952 46.04990510970977 0 0 0
8324 3253 1 -0.8 4.554861267724289 6.653326374753983 46.58410597120831 0 0 0
8323 3254 1 -0.8 2.6241645297847276 6.387679334101821 48.39371216735349 0 0 0
8317 3255 1 -0.8 0.4467031583934933 9.523303423245803 45.92137994646996 0 0 0
8319 3311 1 -0.8 0.3952012359079873 10.319832595022532 48.38622223434939 0 0 0
8329 458 3 1.6 4.91024388077497 10.203323582066137 46.784789409442745 0 0 0
8328 4211 1 -0.8 5.0874664639474325 9.060100893554019 45.651361958609975 0 0 0
8330 4237 1 -0.8 5.098992752336194 9.455978620493042 48.20200455325994 0 0 0
8327 446 3 1.6 5.45100235138557 7.482754236427087 45.534969660453655 0 0 0
8333 683 3 1.6 7.991693599038849 6.057474345816914 46.46690637140751 0 0 0
8338 684 3 1.6 10.578971299229226 7.239478858577218 45.41798639092155 0 0 0
8340 706 3 1.6 10.125720812519551 10.034184078705067 46.65779335682696 0 0 0
8331 4212 1 -0.8 7.011919493045598 7.181975146576704 45.83527483768046 0 0 0
8335 4695 1 -0.8 9.52668698228761 6.552666994683004 46.422715751049566 0 0 0
8334 4696 1 -0.8 7.58975238345029 5.797685213556262 48.000783502567664 0 0 0
8341 4743 1 -0.8 10.37205125507745 9.638187877123185 48.19547784435043 0 0 0
8332 4236 1 -0.8 6.0871062207693125 11.283413919400871 46.61695200719613 0 0 0
8336 4741 1 -0.8 8.570731301910683 10.393610654310974 46.46423509321637 0 0 0
9279 685 3 1.6 8.229490465564508 5.67937641230586 49.47369763595116 0 0 0
9288 708 3 1.6 10.735368450925929 10.202314579431777 49.66409712543694 0 0 0
8339 4697 1 -0.8 10.545394924082892 8.831903040263585 45.66690614610601 0 0 0
8344 1043 3 1.6 13.067427293053571 5.981085745411474 46.69842281115187 0 0 0
8349 1044 3 1.6 15.534705953776623 7.250224236875121 45.3692002258704 0 0 0
8351 1066 3 1.6 15.104934960586116 9.993983056046492 46.6435174531554 0 0 0
8342 4698 1 -0.8 12.069112467069694 6.683355302599028 45.65183820539006 0 0 0
8346 5475 1 -0.8 14.579187017835505 6.439241475903318 46.38184897554316 0 0 0
8345 5476 1 -0.8 12.655740012044062 6.436274268049369 48.18741004447189 0 0 0
8350 5477 1 -0.8 15.278917537887594 8.831777763388823 45.53918940461842 0 0 0
8352 5523 1 -0.8 15.481426956956724 9.341090095851643 48.07757007319546 0 0 0
8347 5521 1 -0.8 13.587511119313469 10.559194989167311 46.60585497899196 0 0 0
9300 1068 3 1.6 15.892794211505164 9.838264336678924 49.56277206763067 0 0 0
8355 1238 3 1.6 18.024577262964907 5.677918184777556 46.225210235966266 0 0 0
8360 1354 3 1.6 20.428160148338005 7.187476491584418 45.345713905409774 0 0 0
8362 1376 3 1.6 20.04299720034322 9.868144175128544 46.429328922773855 0 0 0
8353 5478 1 -0.8 17.069178457629285 6.860729620516293 45.68039020967693 0 0 0
8357 5906 1 -0.8 19.54298611442659 6.227480356753077 46.29670019109938 0 0 0
8361 6175 1 -0.8 19.813587551443167 8.666030269060906 45.38545676395515 0 0 0
8363 6218 1 -0.8 20.358421824929827 9.197242289964253 47.87181370436806 0 0 0
8358 5955 1 -0.8 18.720913372016156 10.791435994515382 46.450551706700494 0 0 0
9303 1239 3 1.6 18.111543288704773 5.397756181759649 49.19628180390109 0 0 0
9312 1378 3 1.6 20.86471731511956 9.605659917758675 49.35253161608507 0 0 0
9304 5909 1 -0.8 18.267861837721263 6.968537088819659 49.520183397499814 0 0 0
8354 5522 1 -0.8 16.124458190003708 11.195543331398842 46.326583795931676 0 0 0
8365 6217 1 -0.8 21.36562828202241 10.654101963923674 46.01558985365092 0 0 0
8479 6240 1 -0.8 23.311483646198933 10.13228731822946 44.36229880172568 0 0 0
8366 1353 3 1.6 23.157667275113234 6.310581522470427 46.28367904158533 0 0 0
8371 1476 3 1.6 25.965510259682155 7.449318921472408 45.60287798616234 0 0 0
8364 6172 1 -0.8 21.97206462510929 7.28704173720971 45.81037362931852 0 0 0
8368 6173 1 -0.8 24.636890205273044 6.9355945890785735 46.38590903978231 0 0 0
8367 6174 1 -0.8 22.769518689500934 5.679223135873757 47.714648917041295 0 0 0
8372 6456 1 -0.8 25.93235750606154 9.036335084314846 45.699165386261726 0 0 0
8375 6457 1 -0.8 27.326184020072496 6.850426619300391 46.27911259952788 0 0 0
8374 6474 1 -0.8 25.97945326238471 9.279587292629314 48.227960986912386 0 0 0
8373 9971 3 1.6 25.436958522478008 9.955316482842338 46.90001539534253 0 0 0
8369 6241 1 -0.8 23.858784208399157 10.06765726864387 46.87138043567934 0 0 0
8483 9971 2 0.4 25.42892642917168 10.563559385367855 46.70264580853381 0 0 0
9315 1355 3 1.6 23.240683243596845 5.704110549421095 49.2505684394108 0 0 0
9314 6219 1 -0.8 22.452396256944606 9.39970383725977 49.57184639787775 0 0 0
9461 10126 2 0.4 25.99150558318826 10.341488512018412 49.31326066430383 0 0 0
8480 10100 3 1.6 22.937759010463434 10.740289778551643 45.77115163422094 0 0 0
8376 1568 3 1.6 28.74496846307432 6.04866600082591 46.311141375876524 0 0 0
8380 1569 3 1.6 31.449548416693347 7.125060461316565 45.12605307429211 0 0 0
8378 6670 1 -0.8 29.99599152350008 6.954736974565995 45.827888828315025 0 0 0
8377 6671 1 -0.8 29.0663908577965 5.434618920572317 47.77446564312115 0 0 0
8381 6672 1 -0.8 32.31981748736886 8.245111751136905 45.8632392564885 0 0 0
8384 6673 1 -0.8 32.35317265199623 5.790945478684869 45.288782881772335 0 0 0
8383 6702 1 -0.8 31.35328674312752 9.276568116513314 48.04564090532518 0 0 0
8382 9996 3 1.6 32.5326770800554 9.363449321392586 46.97465064442429 0 0 0
8486 9996 1 -0.8 32.3732981219223 10.72080896544361 46.23432525630554 0 0 0
8485 9996 2 0.4 32.55819599838583 9.84774770593142 46.62419724175301 0 0 0
9336 9932 3 1.6 31.280184720506618 9.625989834323263 49.599293957070806 0 0 0
9341 6914 1 -0.8 33.23672049268896 7.5713204348985625 48.9249570707892 0 0 0
8389 1764 3 1.6 35.885634108895886 7.327534575584626 45.324818280723534 0 0 0
8387 6911 1 -0.8 34.81755217315916 6.4900212852570105 46.19252867932273 0 0 0
8393 7128 1 -0.8 37.39680176428915 7.1300697731106295 45.90821924668296 0 0 0
8390 7130 1 -0.8 35.56018765010827 8.883320627504045 45.300735649168885 0 0 0
8392 7169 1 -0.8 36.74174110574088 9.69891656001108 47.4391095289408 0 0 0
8391 9936 3 1.6 36.34477904610008 10.089580091260917 45.95995031352698 0 0 0
8488 9996 1 -0.8 33.95208576932017 9.28169009801555 47.607632431784566 0 0 0
8487 9996 2 0.4 33.63715482295637 8.553459177773524 48.22114655077399 0 0 0
8394 7168 1 -0.8 37.6694047920612 10.368501212946388 45.077585517426286 0 0 0
8489 9936 2 0.4 35.931964590799446 10.5303274612491 46.35103711609474 0 0 0
9340 1674 3 1.6 33.1969504005881 6.014970773855598 49.12104231526828 0 0 0
9348 10163 3 1.6 36.2949075961258 9.93197206143399 48.94868947602474 0 0 0
9467 10163 1 -0.8 35.28933770331723 11.077788968560963 49.22718695755998 0 0 0
9466 10163 2 0.4 35.404829440737466 10.093239324158528 49.25592605437408 0 0 0
8395 1763 3 1.6 38.66224036425109 6.162584089072863 46.15176371254475 0 0 0
8396 7129 1 -0.8 38.67826768520325 5.660950958339265 47.68650494805353 0 0 0
9352 7133 1 -0.8 38.80778463933707 7.829729396734188 49.158188044556155 0 0 0
8406 1908 3 1.6 43.832688369486476 6.325689347909107 46.30551578787487 0 0 0
8400 1909 3 1.6 41.287063986984435 7.748155020934044 45.22185204060312 0 0 0
8402 1931 3 1.6 41.18250345032531 10.748658705037435 46.05095413533355 0 0 0
8397 7127 1 -0.8 40.11631842147989 6.818680068080683 45.84812656898001 0 0 0
8404 7472 1 -0.8 42.71626003932265 7.433857035038732 45.92836924224636 0 0 0
8407 7474 1 -0.8 43.62917093588159 5.8714506892057585 47.83988346511703 0 0 0
8401 7475 1 -0.8 40.872619950235936 9.279458975512867 45.426554906369056 0 0 0
8403 7518 1 -0.8 41.69086489214806 10.503651704834308 47.56097031605573 0 0 0
9351 1765 3 1.6 38.68756096504019 6.224193019650858 49.19597378109129 0 0 0
9363 1910 3 1.6 43.79929706785404 6.263169842999373 49.395795477953406 0 0 0
9360 1933 3 1.6 41.56450265271415 10.754699236308378 49.14336020526039 0 0 0
8411 2056 3 1.6 46.539472173368864 7.629004398726234 45.35187676927066 0 0 0
8413 2068 3 1.6 46.03428659602421 10.425900426928917 46.4134130384228 0 0 0
8417 2198 3 1.6 48.81822273985099 6.261250857233516 46.83587435630873 0 0 0
8408 7473 1 -0.8 45.33029115911697 6.928486714583981 46.16899638827478 0 0 0
8412 7836 1 -0.8 46.32750436556144 9.224440739286655 45.360948303504024 0 0 0
8415 7837 1 -0.8 47.97085697233098 7.345501783126985 46.015637888896244 0 0 0
8414 7862 1 -0.8 46.29320921599393 9.878792439234672 47.89470856331068 0 0 0
8418 8176 1 -0.8 48.46737483715525 6.451242901084725 48.39278136297339 0 0 0
8409 7566 1 -0.8 44.51950883188567 10.88236314750361 46.26571785766549 0 0 0
9372 2069 3 1.6 46.694133225848915 10.216270223188967 49.413125591859696 0 0 0
8420 8221 1 -0.8 49.37440134987191 10.94232236440535 46.75350570557457 0 0 0
8421 8174 1 -0.8 51.09738285563901 6.915176077784217 44.10648939018221 0 0 0
8515 8964 1 -0.8 53.46133082579983 11.25340114795795 44.00287318971736 0 0 0
8429 8912 1 -0.8 53.49713089678726 5.809860335793186 47.98441774780329 0 0 0
8422 2199 3 1.6 51.28582717229857 7.469108784056556 45.60028890185412 0 0 0
8424 2221 3 1.6 50.83875695706374 10.312264779479925 46.584178531286526 0 0 0
8428 2503 3 1.6 53.89283351280584 6.243973273771412 46.49505235917379 0 0 0
8419 8175 1 -0.8 50.38121930505742 6.574316547070967 46.590386726822366 0 0 0
8423 8177 1 -0.8 50.83641296407135 9.019189165327365 45.62681735725211 0 0 0
8426 8178 1 -0.8 52.840487712533935 7.3503923101881625 45.99019299267459 0 0 0
8425 8223 1 -0.8 51.3861820974455 9.813143098849144 48.00789420395062 0 0 0
9384 2223 3 1.6 51.65138730086185 10.387717736666648 49.47835866868793 0 0 0
9387 2504 3 1.6 54.015278603820754 6.15378956879622 49.46903269700231 0 0 0
9388 8914 1 -0.8 54.231837206989894 7.7474686902161825 49.61552630780181 0 0 0
8431 8968 1 -0.8 54.29688488072792 11.094240507176838 46.4914889660184 0 0 0
8432 9364 1 -0.8 56.25286450915786 7.0353142978943835 44.15071212417964 0 0 0
8430 8911 1 -0.8 55.36269592755267 6.90104705552414 46.55498996476025 0 0 0
8439 2738 3 1.6 58.89267148176343 6.523969755980113 46.76410794183176 0 0 0
8433 2739 3 1.6 56.367404107295 7.719411648898533 45.60343399244719 0 0 0
8435 2761 3 1.6 55.8079400980233 10.5554408582532 46.537924359771225 0 0 0
8441 3256 1 -0.8 60.361880425742505 7.176366269330602 46.82961055477993 0 0 0
8437 9365 1 -0.8 57.878039733448816 7.596911233262905 46.13096030225251 0 0 0
8440 9366 1 -0.8 58.42461975579766 6.171998478773377 48.2552455623423 0 0 0
8434 9367 1 -0.8 55.96378284389987 9.282413753692046 45.55193539685347 0 0 0
8436 9400 1 -0.8 56.21208086674252 10.075679955918098 48.020426014943695 0 0 0
9396 2763 3 1.6 56.81930898473795 10.334223813045682 49.49299515320333 0 0 0
8442 3309 1 -0.8 59.29454394932484 11.271930964248428 46.67343332142483 0 0 0
8443 3449 1 -0.8 0.4244058209970815 15.821148039339581 44.276010988843076 0 0 0
8452 4289 1 -0.8 4.819155479913482 16.148229613407793 44.389680854844144 0 0 0
8446 3374 1 -0.8 2.575395991465412 11.807356610643025 44.41759026154151 0 0 0
8449 103 3 1.6 2.763194448891694 14.975129791669188 47.07589133720357 0 0 0
8447 104 3 1.6 2.5839426380985846 12.126120405103064 45.98845443523771 0 0 0
8444 133 3 1.6 0.2994547600079178 16.417556655226797 45.763591137177315 0 0 0
8321 3310 1 -0.8 1.081511620864828 11.999348766023829 46.540290711656674 0 0 0
8448 3377 1 -0.8 3.0633210461893174 13.65089052963507 46.19597824311994 0 0 0
8445 3378 1 -0.8 1.3551434446239268 15.668630210296838 46.71710898592567 0 0 0
8451 3379 1 -0.8 3.963402147049001 16.02082494055934 46.84546554082567 0 0 0
8450 3380 1 -0.8 2.709040064354578 14.517669068047992 48.60729960398031 0 0 0
8325 3381 1 -0.8 3.510505791988881 11.014409151610659 46.72456539710941 0 0 0
8453 485 3 1.6 5.290561559795069 16.12991292126383 45.93643848798146 0 0 0
8455 4790 1 -0.8 7.525496161390428 11.648105254447055 44.44028083064694 0 0 0
8458 733 3 1.6 7.558723465274312 14.461631120889747 47.08738395353025 0 0 0
8456 734 3 1.6 7.564253409463272 11.578665188471495 46.05223212833979 0 0 0
8462 763 3 1.6 9.782504577264163 15.820392231449379 45.49808510142992 0 0 0
8454 4291 1 -0.8 6.236778000186315 14.856655072651774 46.24043461324923 0 0 0
8457 4793 1 -0.8 8.03899120571682 12.96774030082267 46.71349293812827 0 0 0
8460 4794 1 -0.8 8.728462671153485 15.45926255005456 46.65959348760313 0 0 0
8459 4795 1 -0.8 7.260795953440397 14.613815611910601 48.667180399214935 0 0 0
8464 5570 1 -0.8 12.637098493343554 11.287317573656736 44.242419110393456 0 0 0
8470 5603 1 -0.8 14.991346192903364 15.056369786881678 44.65251926096457 0 0 0
8467 1093 3 1.6 12.32089767779352 14.488334190220185 46.65529377291678 0 0 0
8465 1094 3 1.6 12.578310100882957 11.568769764357922 45.8289817891682 0 0 0
8343 4742 1 -0.8 11.063898360576397 11.298098535148746 46.32498468209707 0 0 0
8463 4855 1 -0.8 11.098252224983344 14.927414220639927 45.72261783655904 0 0 0
8466 5573 1 -0.8 12.943941438138001 13.098493110731171 46.11008293950544 0 0 0
8469 5574 1 -0.8 13.49393031515234 15.545647103211067 46.70438049326069 0 0 0
8468 5575 1 -0.8 11.885862296161624 14.269903146843484 48.19460027751731 0 0 0
8471 10052 3 1.6 14.97274395607354 15.550311501610729 46.16879571589454 0 0 0
8472 5605 1 -0.8 15.858134464056638 14.581149460006003 47.10433028714838 0 0 0
8557 10052 2 0.4 14.747776668426377 16.290296947718396 46.17766287610402 0 0 0
9436 1095 3 1.6 12.735190511578557 14.408623851980794 49.56951298718714 0 0 0
9440 5526 1 -0.8 15.730599215814062 11.432341110178657 49.561671029621785 0 0 0
9439 5577 1 -0.8 14.015981435118134 13.438839705507384 49.49600211457124 0 0 0
8474 1258 3 1.6 17.556997041768177 11.654525170371755 45.72052102785505 0 0 0
8475 5953 1 -0.8 17.74890497522789 13.210696652917857 46.022896388337365 0 0 0
8477 5954 1 -0.8 17.815817574624823 13.468937330899433 48.59577892351477 0 0 0
8476 10079 3 1.6 17.386606497507103 14.184137107646787 47.23700974212251 0 0 0
8478 10079 1 -0.8 18.103631689216463 15.54728042364111 47.09135796986844 0 0 0
8558 10079 2 0.4 17.411965914995477 14.856721225696706 47.12910376302085 0 0 0
8484 9971 1 -0.8 25.955136486157816 11.382753108659156 46.63568782721519 0 0 0
8481 10100 1 -0.8 23.24312576011031 12.239828685841744 45.531438521610895 0 0 0
8482 10100 2 0.4 23.117764062004774 11.3029690533215 45.268641723363515 0 0 0
9460 10126 1 -0.8 26.05009570976572 11.280865403228995 49.58743207092002 0 0 0
8490 9936 1 -0.8 35.50974230890041 11.376563679623308 46.10818877601757 0 0 0
8492 9972 1 -0.8 37.99441373358544 12.8753702679311 44.64418458168617 0 0 0
8491 9972 2 0.4 38.53156691351298 12.078797302996048 44.45738571618813 0 0 0
8494 9972 3 1.6 38.73213576344983 11.53157395590433 44.83922047933719 0 0 0
8498 1943 3 1.6 43.869607692101205 11.7133758833244 45.05609073768624 0 0 0
8398 7187 1 -0.8 39.79705632015314 11.544079693768687 46.02281815426952 0 0 0
8405 7517 1 -0.8 42.2985186596684 11.425694774162235 45.10948681504456 0 0 0
8500 9969 3 1.6 44.034256543076545 14.237983629801871 46.49229124519411 0 0 0
8496 9969 1 -0.8 42.58592330747669 14.032395899721818 47.04033511743673 0 0 0
8495 9969 2 0.4 43.529945958610114 13.777200166714014 47.13454171013529 0 0 0
9474 7522 1 -0.8 41.309939801666985 12.299077657990217 49.44191162611907 0 0 0
8506 8270 1 -0.8 48.930941337831634 11.763182601462915 44.34537275815586 0 0 0
8499 7563 1 -0.8 44.19443370431845 13.255713137714244 45.24908083998452 0 0 0
9478 9937 2 0.4 44.51733128912646 14.74752149277285 48.407162488923696 0 0 0
9481 9937 1 -0.8 44.198470058572084 15.620567794583053 48.750874042980804 0 0 0
8503 7910 1 -0.8 46.53797638214127 15.763832233061063 44.16345050564722 0 0 0
8501 7565 1 -0.8 44.782252923063545 13.603042537351115 47.735423840780385 0 0 0
8504 2084 3 1.6 46.09276795383355 16.15315520965519 45.658603568096574 0 0 0
8509 2248 3 1.6 48.59924894392387 15.040064869269063 46.85245631658402 0 0 0
8507 2249 3 1.6 48.53389587787448 12.023634136380943 45.89670527316933 0 0 0
8502 7564 1 -0.8 44.60537553327371 15.649248155206537 45.9988342130139 0 0 0
8416 7861 1 -0.8 46.98395218641323 11.690683919124082 46.110756013199875 0 0 0
8505 7912 1 -0.8 47.048045367380475 15.339606688566615 46.653292656448016 0 0 0
8508 8273 1 -0.8 48.91753152654045 13.519683162176358 46.35751886871825 0 0 0
8510 8275 1 -0.8 48.95205875549489 15.206649513444097 48.40920172149874 0 0 0
9482 9937 3 1.6 44.60162029967012 14.186293376830992 49.186383805443064 0 0 0
8511 8274 1 -0.8 49.4597715450149 16.054062073313542 45.946967637764935 0 0 0
8427 8222 1 -0.8 51.78175005952426 11.489040559622305 46.00208556565192 0 0 0
8513 2278 3 1.6 50.971795463934804 16.257625298830853 45.46095475040518 0 0 0
8518 2530 3 1.6 53.457607534924755 14.755572502986702 46.406606219607916 0 0 0
8516 2531 3 1.6 53.26783057589629 11.83299309838631 45.49568195618136 0 0 0
8514 8335 1 -0.8 51.94976153187447 15.303496545231834 46.329075675356535 0 0 0
8517 8965 1 -0.8 53.56351694039249 13.424485032997492 45.48231046167061 0 0 0
8520 8966 1 -0.8 54.519874440612284 15.88865618284371 45.93132833642682 0 0 0
8519 8967 1 -0.8 53.783791951980255 14.313111778449052 47.92233932864142 0 0 0
9503 2532 3 1.6 54.18055731517721 14.552165680415564 49.46533054479009 0 0 0
9496 8226 1 -0.8 51.350475610665036 11.968993694014376 49.5096527167796 0 0 0
8524 9438 1 -0.8 58.52449370921965 11.479393117869916 44.18546163846466 0 0 0
8438 9399 1 -0.8 56.78108588128657 11.765278917417586 46.105728131856 0 0 0
8527 2788 3 1.6 58.5038515454786 14.946940111802693 46.725377363905906 0 0 0
8525 2789 3 1.6 58.30277108058255 12.066360556753425 45.67369602139994 0 0 0
8522 2818 3 1.6 56.05848840352725 16.29067972523495 45.62606282933337 0 0 0
8529 3453 1 -0.8 59.526206675309574 16.118343364840783 46.28806571966964 0 0 0
8526 9440 1 -0.8 58.58298647356508 13.661573013380774 45.73155598451166 0 0 0
8523 9441 1 -0.8 57.02013300689274 15.578039274616204 46.70628308710666 0 0 0
8528 9442 1 -0.8 58.90944203687191 14.420609700974177 48.19018031131245 0 0 0
8534 3524 1 -0.8 3.152181676925403 20.274779426103628 43.96860957495636 0 0 0
8531 134 3 1.6 0.8674332419573271 19.40133694220233 46.480156591862155 0 0 0
8535 164 3 1.6 3.55244977503718 20.520179088706104 45.5117485072856 0 0 0
8530 3452 1 -0.8 0.6224809744335038 18.004798577885328 45.703719060015125 0 0 0
8533 3455 1 -0.8 2.4179087242581376 19.84061301837847 46.43525370837701 0 0 0
8532 3456 1 -0.8 0.4360502651247955 19.20490611998835 48.01454404683885 0 0 0
8536 3529 1 -0.8 3.6743720377391873 22.10266347934931 45.8235654445351 0 0 0
8537 3531 1 -0.8 4.953518982259275 19.795950903295306 45.8121899751456 0 0 0
8540 4293 1 -0.8 5.163636977285292 18.945907613755125 48.30559020491072 0 0 0
8542 4906 1 -0.8 7.900930509519952 20.00968633762695 44.61709624026486 0 0 0
8539 486 3 1.6 5.868270848318516 18.99012329523553 46.86117357037468 0 0 0
8547 764 3 1.6 10.555160278904173 18.44044885142637 46.703514917747505 0 0 0
8543 790 3 1.6 8.360619440751893 20.463999068661668 46.10155461871747 0 0 0
8538 4290 1 -0.8 6.082182523538467 17.486602035226955 46.31162958611849 0 0 0
8541 4292 1 -0.8 7.245731353830004 19.795272320703145 47.06391802085721 0 0 0
8546 4854 1 -0.8 10.02639835967726 17.393959002551206 45.60238754326489 0 0 0
8545 4856 1 -0.8 9.783865947121232 19.841746211891497 46.499217410069214 0 0 0
8548 4858 1 -0.8 10.254143894712051 17.794890187251568 48.15137910208654 0 0 0
8544 4910 1 -0.8 8.326740171698633 22.0746948442487 46.234338847155016 0 0 0
9548 766 3 1.6 10.266645822019308 18.314305822156488 49.67508414510333 0 0 0
9549 4861 1 -0.8 9.613993328804638 19.781855853259056 49.61188540869516 0 0 0
8549 4857 1 -0.8 12.120383416988766 18.61659910662847 46.471656731000785 0 0 0
8551 9999 3 1.6 12.73129888728356 18.548564710051647 45.00615968804988 0 0 0
8554 9999 1 -0.8 14.009882926035822 19.36814408811304 44.72399871615785 0 0 0
8553 9999 2 0.4 13.101728520604615 19.07609690842788 44.48426074797109 0 0 0
8552 9999 1 -0.8 12.786933264848424 17.06680794727838 44.52221205269626 0 0 0
8556 10052 1 -0.8 15.37568024409429 17.037000346437562 46.2549763094796 0 0 0
8559 10204 2 0.4 47.57970175983946 19.72287216985879 46.2228053118864 0 0 0
8561 7911 1 -0.8 46.38189186467644 17.729607404587636 45.768586346629455 0 0 0
8564 7913 1 -0.8 48.727386684786524 19.125251322921176 45.74101432817371 0 0 0
8563 7914 1 -0.8 47.68058760449191 18.46437508669985 47.91861865481936 0 0 0
8567 8394 1 -0.8 49.3326255767461 21.891341532107532 45.8326100707186 0 0 0
8562 10204 3 1.6 47.32855197544758 18.84263424829639 46.409146439315805 0 0 0
8560 10204 1 -0.8 46.76269372489271 20.284260650202654 46.33890071086599 0 0 0
9564 10294 2 0.4 49.99122032640346 20.217111743384805 47.446463280677584 0 0 0
9568 10294 3 1.6 49.020979290559616 19.002065532035985 48.604801489509654 0 0 0
9566 10294 1 -0.8 49.28252141575903 20.45075017754541 48.08457493407501 0 0 0
8566 2297 3 1.6 49.74659793306029 20.358844801090918 45.68152815054778 0 0 0
9567 10294 1 -0.8 50.19231778834848 18.00281500355137 48.22746059146653 0 0 0
8565 8390 1 -0.8 50.3496201224388 20.222671403474756 44.169866429212895 0 0 0
8570 2279 3 1.6 52.14689140187128 18.93010297628644 46.48631288750227 0 0 0
8574 2561 3 1.6 54.2200365970385 20.87920370812437 45.21496667465527 0 0 0
8569 8334 1 -0.8 51.5462168623504 17.74222687283338 45.57903168952653 0 0 0
8568 8336 1 -0.8 51.051063099538304 20.07177771661543 46.572335122662984 0 0 0
8572 8337 1 -0.8 53.40942651975259 19.564689637648872 45.67609976490452 0 0 0
8571 8338 1 -0.8 52.67402130693029 18.419070957168184 47.92145541591015 0 0 0
8575 9026 1 -0.8 53.91184959881664 22.120417706033088 46.1982041635384 0 0 0
9565 10294 2 0.4 50.56624216239494 18.089095525898543 49.11709001026427 0 0 0
9579 2281 3 1.6 52.21557283993721 18.712029838246316 49.444135469883975 0 0 0
8576 9028 1 -0.8 55.78830520270447 20.4850622481165 45.38500565300994 0 0 0
8578 2819 3 1.6 56.70199876077119 19.375302946733054 46.128029943468036 0 0 0
8582 2849 3 1.6 59.20940211048591 21.033812861581016 45.46921958823717 0 0 0
8584 3454 1 -0.8 60.716849226706174 20.59465336360529 45.832522511712455 0 0 0
8577 9485 1 -0.8 56.320088065521496 17.892830973009964 45.59316781683459 0 0 0
8580 9486 1 -0.8 58.239442403645995 19.785499095957665 45.83325480102463 0 0 0
8579 9487 1 -0.8 56.47271911032663 19.385049633490897 47.72830221269611 0 0 0
9594 2821 3 1.6 56.95272733434563 18.889111443177324 49.184621548394176 0 0 0
9600 9488 1 -0.8 58.39360000984431 18.164208533294882 49.171788751051025 0 0 0
8585 3581 1 -0.8 0.01987445036525227 25.084529129012793 44.339268956611505 0 0 0
8589 163 3 1.6 3.161297122470968 23.44134028260293 46.58004835878784 0 0 0
8586 186 3 1.6 0.6276034934152145 25.031765659215054 45.83890043969658 0 0 0
8588 3527 1 -0.8 1.7646816408046606 23.891109746080364 45.917797905703516 0 0 0
8591 3528 1 -0.8 4.13523876679904 24.69167621061702 46.33933325100591 0 0 0
8590 3530 1 -0.8 3.106446640640713 23.15733434917643 48.17204770325256 0 0 0
8587 3585 1 -0.8 1.1446157252734184 26.533945076975243 46.170868519720976 0 0 0
8593 508 3 1.6 5.3647886300216046 24.9904891328561 45.35379177371504 0 0 0
9612 3586 1 -0.8 2.1534304142566865 27.171417474721217 49.54327813890662 0 0 0
8594 4336 1 -0.8 5.883511038039542 26.48816618001064 45.675447008368366 0 0 0
8596 789 3 1.6 7.606514940805415 23.454831055358536 46.65104201156445 0 0 0
8595 4335 1 -0.8 6.401354109149499 23.79165791958629 45.64239776858942 0 0 0
8598 4909 1 -0.8 8.547818938397135 24.722564849939456 46.512486342349405 0 0 0
8597 4911 1 -0.8 7.111067926633604 23.391397822530358 48.18670565782734 0 0 0
8601 4944 1 -0.8 9.471410483086002 26.7567802511888 45.30715676654674 0 0 0
8600 10013 3 1.6 9.572009495257683 25.18052952088599 45.3976875693761 0 0 0
8603 10013 2 0.4 9.841264961363787 24.769365674430702 46.117006267043834 0 0 0
9625 791 3 1.6 7.868967962059368 23.469004370077283 49.617510502629735 0 0 0
8646 4987 1 -0.8 9.636536684928188 27.431191260703102 47.79478307766979 0 0 0
9624 4375 1 -0.8 7.025341586199773 27.17921512004451 49.515406269088245 0 0 0
9630 4913 1 -0.8 9.089444821067275 22.41996257487731 49.55746023458396 0 0 0
8602 10013 1 -0.8 10.831043843685809 24.63334873889576 46.116909514659824 0 0 0
8605 9916 1 -0.8 49.715297009034444 24.626093431647412 46.24198037731719 0 0 0
9641 10230 1 -0.8 48.76725518482918 23.363417855288038 48.486001545684964 0 0 0
9638 10230 2 0.4 49.71384815112841 23.163564052170354 48.21989748138021 0 0 0
9642 10230 3 1.6 50.21661174540252 23.329986693198865 49.03122071587207 0 0 0
8607 8395 1 -0.8 50.89424581056332 22.888040796845868 47.67912496616224 0 0 0
8606 9916 3 1.6 50.191701383037824 23.137014220984973 46.279257594795375 0 0 0
8604 9916 2 0.4 50.47412405882708 24.0522758230498 45.87778400337867 0 0 0
8610 2308 3 1.6 52.15511709062529 24.72888650193575 44.88619986407947 0 0 0
8613 2560 3 1.6 54.04326959494161 23.57557899318699 46.8926909963503 0 0 0
8608 8393 1 -0.8 51.27567855368567 23.41983095238294 45.1494276681677 0 0 0
8611 8432 1 -0.8 51.6605763641972 26.26019976675059 44.95675011471571 0 0 0
8612 8433 1 -0.8 53.23959811640178 24.66820983997304 46.06156937396878 0 0 0
8614 9027 1 -0.8 53.61756876899058 23.518768935864394 48.42389903680949 0 0 0
8652 8473 1 -0.8 53.05044769148688 27.58017204269516 46.876316471964685 0 0 0
8651 10265 3 1.6 52.122025913574284 27.6575358017364 45.5810576512738 0 0 0
9649 8434 1 -0.8 51.136039910317926 27.034404192404338 48.40182444909133 0 0 0
9653 8475 1 -0.8 53.46279517472945 26.43920203345731 49.25637915694706 0 0 0
9713 2315 3 1.6 52.64180062158017 27.540616684268077 48.418749249955674 0 0 0
8616 9562 1 -0.8 56.04647316418403 24.646852471929357 44.28903521394998 0 0 0
8583 9531 1 -0.8 58.79810331222249 22.37489955607548 46.29685885155614 0 0 0
8615 9025 1 -0.8 55.56194900253696 24.1252597147317 46.80806561065206 0 0 0
8620 2848 3 1.6 58.79963540905795 23.867456421607635 46.95289294782071 0 0 0
8617 2871 3 1.6 56.33362061368929 25.110249421774594 45.79833986758706 0 0 0
8622 3584 1 -0.8 60.260911366849655 24.546272828093382 46.929743515716225 0 0 0
8619 9530 1 -0.8 57.8895044326085 24.88569182910855 46.10845839141804 0 0 0
8621 9532 1 -0.8 58.27743043121921 23.74652044095938 48.47340097581665 0 0 0
8618 9564 1 -0.8 55.966030035334384 26.674323466794352 45.94281201598134 0 0 0
8635 4373 1 -0.8 5.294617279760371 28.084204535531608 47.76505294750469 0 0 0
8628 213 3 1.6 3.1434858948241406 29.693105991907466 45.315186672182946 0 0 0
8623 214 3 1.6 0.7364986218574991 28.078897856352405 46.480335079646274 0 0 0
8630 243 3 1.6 2.8148435168859316 32.623838816535894 46.32129737910352 0 0 0
8629 3652 1 -0.8 3.455281026579609 31.227731679271027 45.770467275779176 0 0 0
8625 3653 1 -0.8 2.026925585516254 29.045302415628257 46.29601442770243 0 0 0
8632 3654 1 -0.8 4.47552990117914 28.762010119225994 45.35873474346302 0 0 0
8624 3656 1 -0.8 0.24507330999099128 28.16280318424009 48.018823255462515 0 0 0
8626 3727 1 -0.8 1.5115287080088928 32.99371579496477 45.457594494109344 0 0 0
8631 3729 1 -0.8 2.3464078722384336 32.42998866943567 47.845646647716386 0 0 0
9674 215 3 1.6 0.804170091182268 28.065308773605476 49.53082945963659 0 0 0
9683 245 3 1.6 2.9752688388804143 32.53292170553955 49.31953075225019 0 0 0
9685 3733 1 -0.8 4.224068082325885 31.51521959615079 49.37422445708615 0 0 0
8638 4983 1 -0.8 8.182936824200508 30.289089817422518 44.044776811917544 0 0 0
8634 526 3 1.6 5.672587625732331 28.020067971766522 46.18349030656592 0 0 0
8639 813 3 1.6 8.16578767422933 29.957119486735255 45.62732732515884 0 0 0
8641 831 3 1.6 7.481126747207501 32.8333874881681 46.61857514503341 0 0 0
8636 4372 1 -0.8 7.039488361721154 28.825719821561005 45.92597019323004 0 0 0
8637 4395 1 -0.8 6.267013312664109 33.23272555672638 45.6349332756981 0 0 0
8640 4985 1 -0.8 7.775073824765647 31.253966748431637 46.51080323578772 0 0 0
8643 4986 1 -0.8 9.565490415972677 29.2993399324786 46.034213320036876 0 0 0
8642 5031 1 -0.8 7.037399992506576 33.30429607524832 48.095371295719794 0 0 0
8645 10026 3 1.6 10.064362355650056 27.81480791188659 46.31813260229095 0 0 0
8648 10026 2 0.4 10.640231774032575 27.66787914078174 46.346557119886505 0 0 0
9686 527 3 1.6 5.771134314013002 28.160599180460128 49.31857116134031 0 0 0
9695 832 3 1.6 7.643343643699888 33.06512633404684 49.566499100249395 0 0 0
9697 4989 1 -0.8 8.899357794027754 32.11363290158772 49.36580990187368 0 0 0
9698 10027 3 1.6 9.953302965226786 28.129393906541573 49.17911586251722 0 0 0
9699 4988 1 -0.8 9.288799474683621 29.559335531357206 49.2341455115388 0 0 0
9708 10027 2 0.4 10.503461324968907 28.4704301481058 49.190307651737086 0 0 0
8647 10026 1 -0.8 11.605615419069965 27.737327076553477 46.232516703627795 0 0 0
9706 10027 1 -0.8 11.470578723029801 28.38494268474433 49.297027669914186 0 0 0
8650 10265 1 -0.8 50.95152854602284 28.68868906101945 45.811335783622546 0 0 0
8649 10265 2 0.4 53.11277097814683 27.872085882495305 45.94416815829465 0 0 0
8656 2583 3 1.6 54.13293761226579 29.64620571640981 44.924311691330395 0 0 0
8658 2601 3 1.6 53.49846654924869 32.44591167985875 45.975703966047774 0 0 0
8653 8472 1 -0.8 53.2500587396861 28.335354272842476 44.69396232404561 0 0 0
8654 8512 1 -0.8 52.164151323620736 33.30513192579426 45.725299275259616 0 0 0
8657 9070 1 -0.8 53.350803140260034 30.87308843804156 45.625711203064895 0 0 0
8661 9107 1 -0.8 54.66286900821003 33.06969665435304 45.00818658792089 0 0 0
8659 9108 1 -0.8 53.94576676362027 32.622206806224945 47.51767874027378 0 0 0
9722 2602 3 1.6 53.787559093362006 32.303380059842084 49.102243017365474 0 0 0
9714 8474 1 -0.8 52.911372857943896 28.91812317764588 49.18444358965817 0 0 0
9720 8476 1 -0.8 52.44797507573619 31.475286586442028 49.42442856638206 0 0 0
9724 9110 1 -0.8 54.99376123467328 31.275367737600977 49.48782218043308 0 0 0
8660 9071 1 -0.8 55.377610674831864 29.269115203636247 45.87130509671724 0 0 0
8667 2898 3 1.6 58.813287401337305 29.3253310455552 45.4237373325036 0 0 0
8662 2899 3 1.6 56.239689273736566 28.12503215158935 46.595657946080074 0 0 0
8669 2928 3 1.6 58.74401685793476 32.518233254074595 45.90896876071051 0 0 0
8671 3655 1 -0.8 60.2603495262547 28.58554809350054 45.50676885667225 0 0 0
8672 3730 1 -0.8 59.71358274161499 33.34198870301755 44.906347517854286 0 0 0
8668 9605 1 -0.8 58.96550277606903 30.908962496417026 45.77477840154099 0 0 0
8664 9606 1 -0.8 57.79976069890805 28.560845444023975 46.42321042743406 0 0 0
8663 9607 1 -0.8 55.9475898110439 28.028514364134058 48.17182351542758 0 0 0
8665 9650 1 -0.8 57.20823571883223 32.949394399040585 45.64528703222784 0 0 0
8670 9651 1 -0.8 59.13907422261235 32.926936643939506 47.42003952747248 0 0 0
9734 2930 3 1.6 58.91908345000031 32.4832661840565 48.954568103258595 0 0 0
9736 3659 1 -0.8 60.16306506494789 31.558628060489887 49.42425469436591 0 0 0
9732 9609 1 -0.8 57.565851924850016 31.61073902783385 49.08383486097738 0 0 0
8633 3728 1 -0.8 3.8575215380779637 33.87098506699472 46.27258071595601 0 0 0
8674 244 3 1.6 0.44431586540961016 34.068835395204864 44.90800365279959 0 0 0
8680 273 3 1.6 3.157666731682309 38.54624734031481 44.84470914232958 0 0 0
8676 274 3 1.6 0.6487524076977956 37.03165701020832 45.85725415752193 0 0 0
8675 3731 1 -0.8 0.39323516391510666 35.43261028973955 45.77110208361315 0 0 0
8678 3803 1 -0.8 2.142414217835865 37.4114254026187 45.391355904284254 0 0 0
8681 3804 1 -0.8 4.626148528427738 37.93703985004712 45.05292807355292 0 0 0
8677 3806 1 -0.8 0.3945627213340708 37.44401885165737 47.39365495205587 0 0 0
8683 538 3 1.6 5.169008557094412 34.395242619194846 45.471183117723086 0 0 0
8686 4433 1 -0.8 5.07417210338167 37.53112010313806 47.67794114928978 0 0 0
9737 275 3 1.6 0.7624392827133252 36.969978485513124 48.88575808948881 0 0 0
9740 3734 1 -0.8 2.227263732467016 36.300669276557926 48.899776563996014 0 0 0
8644 5030 1 -0.8 8.771328328183703 33.66674645981869 46.17863917794052 0 0 0
9748 557 3 1.6 5.619075344819692 37.33374403739216 49.183926163217556 0 0 0
8685 556 3 1.6 5.651823644131775 37.400898760946546 46.176077627804794 0 0 0
8684 4396 1 -0.8 5.823440563910187 35.79652450042833 45.96701506510991 0 0 0
8687 4432 1 -0.8 6.914506043892738 38.41196777848402 46.08473577387583 0 0 0
8693 5032 1 -0.8 8.714997599306688 35.995022026683756 45.03381620462257 0 0 0
8690 5080 1 -0.8 9.2779499350296 38.52629648393478 45.14122559214095 0 0 0
8695 5081 1 -0.8 9.164971757447875 37.15945208143491 47.33703839634272 0 0 0
8692 10032 3 1.6 9.056539834071014 34.457900940079 44.83660806908056 0 0 0
8694 10043 3 1.6 9.547422511693856 37.11225088202726 45.80148493855915 0 0 0
8697 10032 1 -0.8 10.482535476038624 34.33081176054246 44.25161454132019 0 0 0
8699 10032 2 0.4 9.51147463534222 34.14607005696767 44.05553003773237 0 0 0
8698 10043 2 0.4 10.0824142255044 36.847840849925966 45.89378951728434 0 0 0
9751 4434 1 -0.8 6.996121103547534 36.522741276128684 49.25548839951231 0 0 0
9760 5082 1 -0.8 8.998035100963993 39.147798254018895 49.081454288293564 0 0 0
9759 10044 3 1.6 9.701088820711929 37.78262817408044 48.706826835301015 0 0 0
9763 10044 2 0.4 10.167326432792269 38.60455140609079 48.75216093924651 0 0 0
8696 10043 1 -0.8 11.041804873339672 36.724864293521044 45.768681141086226 0 0 0
9761 10044 1 -0.8 11.118652838929572 38.379066023813365 48.533325576834834 0 0 0
8704 9903 3 1.6 49.33066014472676 38.59625719680891 44.77598586303099 0 0 0
8701 9903 1 -0.8 48.499035449115425 37.320906390981136 45.059560506297494 0 0 0
8700 9903 2 0.4 49.37482973125019 37.72767432303908 44.8643841214917 0 0 0
8705 10272 1 -0.8 50.177825677690294 34.783697082854296 44.676148580425306 0 0 0
8702 10272 2 0.4 51.1229129669006 35.13460221405015 44.63485234679395 0 0 0
8710 2336 3 1.6 51.77036991049958 36.95493162639464 45.581400130646124 0 0 0
8714 2613 3 1.6 54.088682586320445 38.74219839087942 44.93809706700836 0 0 0
8709 8511 1 -0.8 52.26023550689777 35.71221090493865 44.70361291256214 0 0 0
8706 8571 1 -0.8 50.7891479768805 37.9886774669843 44.86117184831074 0 0 0
8712 8572 1 -0.8 53.12434767329451 37.822758948402324 45.822356963341164 0 0 0
8711 8573 1 -0.8 51.24768148983561 36.52413503958252 47.047157429583216 0 0 0
8708 10272 3 1.6 51.63612304390866 34.26298534745653 44.553419960422104 0 0 0
9776 2337 3 1.6 51.60505189662667 36.89998602726958 48.57848467170109 0 0 0
9777 8574 1 -0.8 51.63997895726677 38.52257220354187 48.69331315538072 0 0 0
9779 8575 1 -0.8 52.99359568851718 36.16039726018882 48.99326839675366 0 0 0
8715 9131 1 -0.8 55.47664354442846 37.93773858776842 44.764148816702715 0 0 0
8717 2929 3 1.6 56.099465222619656 33.77368113796057 44.78783396660394 0 0 0
8723 2958 3 1.6 58.877863791872215 38.44600443716632 44.788352965736124 0 0 0
8719 2959 3 1.6 56.409157885443136 36.87771863027021 45.54632194415584 0 0 0
8724 3805 1 -0.8 60.38427904144176 37.90209663492164 44.92505915679477 0 0 0
8718 9652 1 -0.8 56.018618764291396 35.32985539541487 45.265669751420205 0 0 0
8721 9696 1 -0.8 57.92152360402859 37.178929207753264 45.07809450164358 0 0 0
8720 9697 1 -0.8 56.289422626178286 37.19531188260343 47.125190102313425 0 0 0
9787 2960 3 1.6 56.4849156115152 36.799850366782145 48.676918095653946 0 0 0
9797 3807 1 -0.8 60.482978474258225 35.82498713612344 49.425244631225276 0 0 0
9790 9654 1 -0.8 57.98689292192119 36.24545700910823 48.91369133778272 0 0 0
9786 9111 1 -0.8 55.490278504481374 35.60431860542798 49.0641357554156 0 0 0
8730 295 3 1.6 2.6247752591083233 41.498414921896796 45.68692683127671 0 0 0
8726 296 3 1.6 0.02775407732062764 42.84052466484283 44.78430684775167 0 0 0
8729 3802 1 -0.8 2.997789009726369 39.92426674362614 45.676300217344476 0 0 0
8728 3857 1 -0.8 1.0929570919175626 41.725543950466 45.258813278955216 0 0 0
8732 3858 1 -0.8 3.491226647036436 42.382570227893765 44.655018607746555 0 0 0
8731 3859 1 -0.8 2.866403576697125 41.998605200630344 47.20235850277048 0 0 0
8727 3860 1 -0.8 0.18026025866492332 44.185620801170046 45.67624983893053 0 0 0
8734 568 3 1.6 4.867050581351752 43.19774296137841 44.50431533090452 0 0 0
8735 4455 1 -0.8 4.934665283152825 44.42834363349039 45.547871489583734 0 0 0
9805 297 3 1.6 2.683675773895533 41.46290184820223 48.713070315995985 0 0 0
9803 3810 1 -0.8 1.2575969881354296 40.72967019327751 48.8764654040261 0 0 0
9811 3863 1 -0.8 3.811395257410798 40.37667598756055 49.08994126908938 0 0 0
8689 847 3 1.6 7.88364190247143 39.30317174891006 45.12838992429415 0 0 0
8738 865 3 1.6 7.486044205999248 42.327420823644594 45.527391989325324 0 0 0
8742 866 3 1.6 9.924293071514846 43.62970100636285 44.314895552216846 0 0 0
8736 4456 1 -0.8 6.046693920709073 42.17137517562197 44.8384616626013 0 0 0
8737 5079 1 -0.8 8.081388055902446 40.82777276777339 45.6138836390341 0 0 0
8740 5120 1 -0.8 8.369852389568361 43.35474024522544 44.66102457065209 0 0 0
8739 5121 1 -0.8 7.230035886504946 42.941119139968194 46.993402358662294 0 0 0
9820 867 3 1.6 7.339552276613515 42.303937752153274 48.45873449063001 0 0 0
9818 4436 1 -0.8 6.224783743720665 41.158650567183706 48.64339151020204 0 0 0
9826 5083 1 -0.8 8.773139654468537 41.639872750572714 48.544125254802786 0 0 0
8744 5123 1 -0.8 10.756591029636551 43.049225925961785 45.54529330813928 0 0 0
9828 848 3 1.6 9.443768162666474 40.60892390644276 49.552670837787275 0 0 0
8746 5624 1 -0.8 11.38917501832147 43.18756318770436 48.04017985232415 0 0 0
8745 10281 3 1.6 11.860078110414314 43.55117730570143 46.5869544706732 0 0 0
8748 10281 1 -0.8 13.126708835402455 42.682044645507624 46.40183012638346 0 0 0
8750 10281 2 0.4 12.372020917290225 43.11578489803694 46.84660871304489 0 0 0
9835 10064 3 1.6 11.902785941419262 42.3450574862811 49.28924987936626 0 0 0
9841 10064 1 -0.8 13.41436592526817 41.90841934079768 49.265275018486726 0 0 0
9842 10064 2 0.4 11.57347133024816 43.46203443573729 49.306170791136644 0 0 0
8754 7934 1 -0.8 47.529229673621884 44.14170234519542 44.219563417399506 0 0 0
8752 10211 2 0.4 46.250561437975165 43.88730512860458 44.93527967414001 0 0 0
8759 2351 3 1.6 48.807947758419566 41.369823058271145 45.97618870177965 0 0 0
8756 7935 1 -0.8 46.99877034998788 44.54788990566769 46.64931136241021 0 0 0
8757 7936 1 -0.8 47.360439477973536 42.03171650480734 45.77646808515278 0 0 0
8758 8570 1 -0.8 49.01857477754123 39.77486662063005 45.827225410261654 0 0 0
8760 8616 1 -0.8 49.421863749293934 41.83125395205997 47.400078760709285 0 0 0
8755 10211 3 1.6 46.817872586041766 43.493246030808834 45.472292283216454 0 0 0
8753 10211 1 -0.8 45.32917348199023 43.5761083296898 45.062064915795595 0 0 0
9857 10253 3 1.6 48.84591131067134 41.44284931343828 48.828852656141606 0 0 0
9855 10253 1 -0.8 47.52217783930766 40.86115523095516 48.24468304396797 0 0 0
9854 10253 2 0.4 48.36781057688369 41.293937108849235 47.8916868245233 0 0 0
9863 8576 1 -0.8 49.70771415934608 40.26595286103876 49.51036859747178 0 0 0
8763 2352 3 1.6 51.064513135233405 42.81186644017504 44.62788598097552 0 0 0
8767 2623 3 1.6 53.64891489909698 41.62986080902311 45.839303021758944 0 0 0
8761 8615 1 -0.8 49.675532569206716 42.05364405568796 44.79656627728931 0 0 0
8764 8617 1 -0.8 51.03867489189718 44.194542615412246 45.49533993935947 0 0 0
8765 8618 1 -0.8 52.17029797586554 41.789030340647834 45.23893758152296 0 0 0
8766 9130 1 -0.8 54.259923552079 40.1479682346584 45.697009136337975 0 0 0
8769 9151 1 -0.8 54.585934770530045 42.63425448412143 45.00512525659024 0 0 0
8768 9152 1 -0.8 53.67173532928458 42.00358671221483 47.40811112485663 0 0 0
9872 2624 3 1.6 53.60033472486093 41.490074586978714 48.939133828442706 0 0 0
9870 8577 1 -0.8 52.103552933648274 41.04821395926902 49.29134352823951 0 0 0
9878 9153 1 -0.8 54.54658327370195 40.21345308771868 49.22658755511163 0 0 0
8775 2980 3 1.6 58.436931436893644 41.28366834944354 45.98525110805136 0 0 0
8771 2981 3 1.6 56.13196674100623 43.03849094989104 45.08458201221473 0 0 0
8777 3861 1 -0.8 59.31838841962062 42.12146455713482 44.929898300464814 0 0 0
8774 9695 1 -0.8 58.564641366056684 39.67886502207995 45.79164202749477 0 0 0
8773 9728 1 -0.8 56.93219361382494 41.82737228841666 45.79381489463847 0 0 0
8776 9729 1 -0.8 58.957120048566026 41.62772516136362 47.46938726994125 0 0 0
8772 9730 1 -0.8 56.254294056969286 44.39013757033444 45.94273746634343 0 0 0
9887 2982 3 1.6 58.51880279601037 41.26258729739224 48.97403076177812 0 0 0
9885 9699 1 -0.8 57.07914828611439 40.54459575229424 48.90340559439948 0 0 0
10015 3935 1 -0.8 59.856119529592576 44.74514694065448 48.97221870995203 0 0 0
8782 323 3 1.6 2.9034923167135545 47.36434852272303 44.842446483150844 0 0 0
8778 324 3 1.6 0.5178266602170404 45.76909807813138 45.706649529840654 0 0 0
8850 353 3 1.6 2.658381349304482 50.2413187740397 46.01033594289892 0 0 0
8783 3927 1 -0.8 2.739734726136511 48.631491984469555 45.83774454987573 0 0 0
8780 3928 1 -0.8 2.0477741760629677 46.09570826886878 45.35941390040935 0 0 0
8784 3929 1 -0.8 4.43203694307577 46.894902120138454 44.82992257257085 0 0 0
8779 3931 1 -0.8 0.19284512817506874 46.32810403096543 47.18301135668229 0 0 0
8785 578 3 1.6 5.272171808275111 45.97405767842074 45.845733608546844 0 0 0
8786 4477 1 -0.8 4.806428605501173 46.3735967253753 47.339666147158624 0 0 0
9895 326 3 1.6 0.35299060070834903 45.76787385701487 48.67785851844033 0 0 0
9900 3932 1 -0.8 1.7499343850580975 44.95942869930527 48.744929253117796 0 0 0
9906 4009 1 -0.8 4.4145673991322285 49.984170405938755 49.06553866171901 0 0 0
9907 579 3 1.6 5.154529079689215 46.17100730267655 48.894981722105264 0 0 0
9904 3933 1 -0.8 4.289474870959255 44.926822503395165 49.4536551473749 0 0 0
8743 5122 1 -0.8 10.275460531116215 45.195014063623006 44.21525377238828 0 0 0
8789 893 3 1.6 7.560745116296073 47.603743670558885 44.93569781012879 0 0 0
8792 894 3 1.6 10.378072875650192 46.37320091816863 45.30571193685192 0 0 0
8787 4476 1 -0.8 6.810958062964269 46.35681519983191 45.626166455970925 0 0 0
8790 5172 1 -0.8 7.215327542743229 48.97797018367588 45.72387409021468 0 0 0
8791 5173 1 -0.8 9.13291208005588 47.3841480255665 44.99286063483004 0 0 0
8793 5175 1 -0.8 9.9895492301842 45.731552637161734 46.73018626812926 0 0 0
9919 896 3 1.6 10.143632121464707 45.98963168215668 48.288070123399166 0 0 0
9912 4478 1 -0.8 6.723602691878147 45.87390508209171 49.03483871601134 0 0 0
9920 5178 1 -0.8 9.755967255061474 47.5447779188097 48.55639128680653 0 0 0
9918 5239 1 -0.8 9.391692645043257 50.04584719130702 49.1387582173934 0 0 0
9916 5176 1 -0.8 9.177509979712083 45.01905701921978 49.13273290970324 0 0 0
8747 10281 1 -0.8 12.14441643415755 45.06757765280172 46.347901948086076 0 0 0
8749 10281 2 0.4 11.20675702744771 45.358989748110886 46.4941028045126 0 0 0
8801 10069 1 -0.8 15.207174904074721 45.15451682700014 46.83364198628102 0 0 0
8751 10069 2 0.4 14.696436896940547 45.97534117676725 47.153315870407965 0 0 0
8796 1117 3 1.6 13.077358505700722 47.83578292339313 44.64254981176414 0 0 0
8794 5174 1 -0.8 11.607301172067611 47.385221613116556 45.09453404098059 0 0 0
8797 5663 1 -0.8 13.449208199959788 49.13497359502066 45.52655129511601 0 0 0
8798 5664 1 -0.8 14.100991522210558 46.68912258976976 44.996638534033096 0 0 0
8800 5666 1 -0.8 14.055534177393668 46.91290873503075 47.689788024852355 0 0 0
8799 10069 3 1.6 14.85784985216155 46.59572961234514 46.37958046465539 0 0 0
8802 5665 1 -0.8 15.977384561863387 47.73016158254512 46.245839182689345 0 0 0
9936 9934 1 -0.8 16.20362080657592 46.35407169581935 49.047593624903534 0 0 0
9843 9934 2 0.4 15.419756586428107 46.917812669007816 49.3476234079958 0 0 0
10046 1145 3 1.6 12.834795711575861 50.30949355868708 48.835186297716334 0 0 0
9924 5179 1 -0.8 11.573036373031716 45.844264501534795 48.93545870962724 0 0 0
9930 5729 1 -0.8 14.361053076518855 49.83144900861236 48.795406198081615 0 0 0
9931 9934 3 1.6 14.644191005807999 46.34723908545946 49.05851071936175 0 0 0
8807 10085 2 0.4 16.323712158389824 48.09544099967476 45.42359564184585 0 0 0
9926 5241 1 -0.8 11.828848945985424 49.12611510240841 49.26436093830684 0 0 0
8883 1268 3 1.6 18.41989014710345 50.06837229403066 46.22492326466844 0 0 0
8805 5972 1 -0.8 18.325862996739218 48.5212261217094 45.86496499726919 0 0 0
8804 10085 3 1.6 17.142574580567423 47.71684547033837 45.182719392805716 0 0 0
8806 10085 1 -0.8 17.313268268600428 46.199864268229746 44.79018254763351 0 0 0
10058 1269 3 1.6 18.27177636058022 49.807598863863234 49.32118531537477 0 0 0
9938 5731 1 -0.8 16.81183686544561 49.1158541783226 49.3408062592662 0 0 0
8884 5992 1 -0.8 18.705275197272655 50.19927150284883 47.80446776726948 0 0 0
8808 10114 1 -0.8 22.486577761805314 49.75972968609706 47.08251460132151 0 0 0
8811 9938 1 -0.8 29.41622194419045 49.32625798135119 45.086372470578446 0 0 0
9951 10285 1 -0.8 31.58548651483197 50.44486783191442 48.81021889891648 0 0 0
9956 10148 1 -0.8 34.150036862973394 49.532790157612034 47.56840078779526 0 0 0
8815 10183 1 -0.8 38.95109121337285 48.92035644418735 46.54671326007979 0 0 0
8938 1965 3 1.6 43.627911772949275 50.22109852720799 46.2147147080481 0 0 0
8817 10220 1 -0.8 43.3519701568623 47.335132285248385 44.228801828872086 0 0 0
9970 7236 1 -0.8 40.67589653780466 49.51492390738872 49.15807030059803 0 0 0
8820 7610 1 -0.8 44.4995904200788 48.909070912601074 45.90125330694866 0 0 0
8819 10220 3 1.6 44.734083083794204 47.735317353125474 44.82130759754715 0 0 0
8822 2093 3 1.6 46.74624907634977 46.13285864547845 46.549498936647886 0 0 0
8826 2378 3 1.6 49.059875519059496 47.38386310911842 44.88488438833149 0 0 0
8821 7611 1 -0.8 45.63842789999736 46.58117505118964 45.4618640378984 0 0 0
8824 7956 1 -0.8 48.13869530971122 46.78014156892701 46.050211711318354 0 0 0
8823 7957 1 -0.8 46.38002458286632 46.6382325459186 48.03487738198234 0 0 0
8827 8667 1 -0.8 48.96328759319989 48.99741060700036 45.013406999829094 0 0 0
8950 8731 1 -0.8 48.004413363351276 49.77629598348124 47.336726398414 0 0 0
9982 2094 3 1.6 46.02118056306031 46.08951795985977 49.51419799777279 0 0 0
10128 2410 3 1.6 48.56558303407151 49.94879412561017 48.8389723434297 0 0 0
9979 7612 1 -0.8 44.631534850435244 45.343033669571824 49.545998030976264 0 0 0
9991 8671 1 -0.8 49.60210802267386 44.98836665860592 48.992944525329804 0 0 0
9981 7668 1 -0.8 45.277268451209885 49.84241122210821 49.488024541350434 0 0 0
8829 2379 3 1.6 51.491696643003046 45.70181786841675 45.869403760609096 0 0 0
8833 2641 3 1.6 53.89459944071115 47.15961785181614 44.791977875577516 0 0 0
8960 2653 3 1.6 53.440557344542796 50.06707221487872 45.84771813554312 0 0 0
8828 8668 1 -0.8 50.556991594751395 46.81496778356866 45.156183222499784 0 0 0
8831 8669 1 -0.8 52.99503585113832 45.94418419394793 45.34164507819704 0 0 0
8830 8670 1 -0.8 51.496762133170805 45.94962003060634 47.46969037913406 0 0 0
8834 9186 1 -0.8 53.703532874083606 48.47582894175517 45.719746682305065 0 0 0
9994 2381 3 1.6 51.05786329065439 45.66376619324633 48.996125663232746 0 0 0
10140 2654 3 1.6 53.777959858282685 50.09491206394646 48.88414045659704 0 0 0
9993 8734 1 -0.8 50.080917553002294 49.372555189954014 48.845140288848334 0 0 0
10001 8736 1 -0.8 52.67556363084584 48.95225202643395 49.15429283725212 0 0 0
10003 9188 1 -0.8 54.58333971778639 45.123318140762265 48.88089746150501 0 0 0
8835 9187 1 -0.8 55.42750285040577 46.66911297241155 44.83024224676919 0 0 0
8840 3008 3 1.6 58.93238684448963 47.36322913542732 44.76982858176775 0 0 0
8836 3009 3 1.6 56.4355696491566 45.98866159075712 45.87852987236981 0 0 0
8842 3930 1 -0.8 60.34903065767205 46.6127194433553 44.66787953263043 0 0 0
8841 9770 1 -0.8 59.00629766193753 48.69155738538331 45.677805749927 0 0 0
8838 9771 1 -0.8 57.94257661534458 46.30846324377341 45.46094239102082 0 0 0
8837 9772 1 -0.8 56.147577827990894 46.57660232686745 47.3466912823164 0 0 0
10005 9213 1 -0.8 55.2504770459559 49.49101878557604 49.11899859997594 0 0 0
10006 3011 3 1.6 55.985664277501876 45.900621872523395 48.79602312139977 0 0 0
10152 3040 3 1.6 58.785645079313355 50.031034356215685 48.99058744947005 0 0 0
10017 4010 1 -0.8 60.24490843626502 49.36316617957784 48.891907675679334 0 0 0
10011 9773 1 -0.8 57.19780820139407 44.84468594000866 49.001647003768035 0 0 0
10022 355 3 1.6 2.8561002965409705 50.38014610949122 49.0650186301217 0 0 0
8851 4004 1 -0.8 2.3886388385430424 50.6495169885889 47.5495487543468 0 0 0
8844 354 3 1.6 0.21748088644366007 51.84015146623101 44.97437980160542 0 0 0
8846 384 3 1.6 0.623316129092344 54.63970080875497 46.179874644528205 0 0 0
8848 4002 1 -0.8 1.3968025316769082 50.74853216209817 45.140105374136596 0 0 0
8852 4003 1 -0.8 4.0597464697631755 50.927352561217845 45.544531974951276 0 0 0
8845 4005 1 -0.8 0.4688132862740505 53.04563472859312 46.01053218468118 0 0 0
8849 4078 1 -0.8 2.145658723360614 55.073815185610364 45.909946574780506 0 0 0
8853 4079 1 -0.8 4.618252977847469 55.84807255233812 45.61061022550727 0 0 0
8847 4081 1 -0.8 0.23084318904549592 55.05730131709226 47.68209485373161 0 0 0
8858 4537 1 -0.8 5.305673915492861 53.93039798703871 47.319632786218456 0 0 0
10019 386 3 1.6 0.6197550857028579 54.609432213332234 49.17284161589341 0 0 0
10021 4082 1 -0.8 2.1625742596344506 54.15491592641158 49.21946023657202 0 0 0
8855 596 3 1.6 5.162803280824401 51.76557181865148 44.70118434521268 0 0 0
8856 4511 1 -0.8 4.948634696273548 53.35744094115573 44.83873945511103 0 0 0
8861 923 3 1.6 7.680491514567018 50.50565039013081 46.00919161892263 0 0 0
8862 5236 1 -0.8 7.498043008769297 50.880382930845 47.5701681588414 0 0 0
8857 608 3 1.6 5.484566449414147 54.5065311095967 45.82775711206477 0 0 0
8866 924 3 1.6 10.300242700148202 51.44251619595359 44.57762534763047 0 0 0
8868 954 3 1.6 10.50500147940713 54.28400914869078 45.68527843711619 0 0 0
8859 4512 1 -0.8 6.682281638554751 51.45483700863975 45.16941174579199 0 0 0
8860 4536 1 -0.8 7.0403541254385145 54.8565992729734 45.58513006570101 0 0 0
8863 5235 1 -0.8 9.23021529689749 50.72498849512391 45.56377284882495 0 0 0
8867 5237 1 -0.8 10.139675896853168 53.05004089153279 44.71111316302243 0 0 0
8864 5293 1 -0.8 9.573554951362247 55.56606883982862 45.365567571115804 0 0 0
8869 5295 1 -0.8 10.214345966968917 53.83179799246793 47.20801894940087 0 0 0
10034 925 3 1.6 7.848193874586073 50.47911105653854 49.092121539201116 0 0 0
10031 609 3 1.6 5.580121824093803 54.351785627992975 48.84033151766654 0 0 0
10043 956 3 1.6 10.57454323063149 54.22825461362601 48.725210421743554 0 0 0
10033 4538 1 -0.8 7.130837529451395 54.12529202304274 49.21846308532682 0 0 0
10186 5298 1 -0.8 10.339577552629683 55.80672632853941 48.956239895433605 0 0 0
8872 1143 3 1.6 13.053094926952578 50.646909150522795 45.86597686790809 0 0 0
8873 5726 1 -0.8 12.462668798986964 50.80913089299643 47.355137498948444 0 0 0
8877 1144 3 1.6 15.871716860360412 51.62584318611933 45.03909712688618 0 0 0
8879 1174 3 1.6 15.827200905675417 54.60135467086072 45.77696539084864 0 0 0
8870 5238 1 -0.8 11.855425422548665 51.10130930874477 44.87676050450238 0 0 0
8871 5294 1 -0.8 12.062002222207235 54.70601150557252 45.51725221626942 0 0 0
8874 5725 1 -0.8 14.396347787320321 51.52754636319899 45.70643395640909 0 0 0
8878 5727 1 -0.8 16.26658854618635 53.20656790043631 45.09438799912923 0 0 0
8875 5783 1 -0.8 14.610747184809286 55.31663383613369 44.98555427394366 0 0 0
8880 5785 1 -0.8 15.28880058590612 54.313393531327044 47.26524418229335 0 0 0
10055 1176 3 1.6 15.83045546145576 54.090817278624556 48.75750903252282 0 0 0
10045 5299 1 -0.8 12.135893796201582 53.921657694494755 48.97582818044564 0 0 0
10199 5788 1 -0.8 16.25972963063901 55.52833662248636 49.370344233487025 0 0 0
8888 1388 3 1.6 20.613276448387346 51.97777343665813 45.11694949583583 0 0 0
8890 1414 3 1.6 20.666031554788997 54.723777251961096 46.219881051582064 0 0 0
8881 5728 1 -0.8 16.9864722575509 50.78150350961552 45.85532443851234 0 0 0
8882 5784 1 -0.8 17.12868179022866 55.564386493130776 45.85831436516845 0 0 0
8885 5991 1 -0.8 19.581601176238216 50.770354903697665 45.34763882447009 0 0 0
8886 6027 1 -0.8 19.73509326095989 55.55532699028158 45.19826494909183 0 0 0
8889 6286 1 -0.8 20.263833160017224 53.173101980189635 46.136604550873 0 0 0
8891 6348 1 -0.8 20.371171804386268 55.247566911258396 47.70861897409188 0 0 0
10067 1416 3 1.6 20.634562948280223 54.74258030459313 49.221256717664176 0 0 0
10057 5789 1 -0.8 17.172683312015735 53.19421605706325 48.698388168417424 0 0 0
9948 6287 1 -0.8 21.382563190909426 50.58480555659192 49.77877587309849 0 0 0
10065 6028 1 -0.8 19.72595467524281 53.42996049481265 49.500762773394975 0 0 0
8895 6285 1 -0.8 22.76450316799567 51.89166450944615 47.85876788076899 0 0 0
8894 10114 3 1.6 23.090382818659105 51.09175330770887 46.53290629991987 0 0 0
8809 10114 2 0.4 22.592197205048386 50.72463863994017 47.335632872906615 0 0 0
8899 1484 3 1.6 26.05179725867791 51.68882523397781 45.53829973144432 0 0 0
8901 1493 3 1.6 26.286841793412265 54.608460453746055 46.06829496740324 0 0 0
8892 6283 1 -0.8 22.15792712745378 51.59411025188124 45.33872637400943 0 0 0
8896 6284 1 -0.8 24.639856833792553 51.072640665819165 46.083287778457226 0 0 0
8893 6346 1 -0.8 22.233529433633095 54.8900682562021 45.82485914573465 0 0 0
8897 6347 1 -0.8 24.88307995859269 54.9338263326447 45.322608845459655 0 0 0
8900 6490 1 -0.8 26.35246744080685 53.03630692326932 46.346540559741854 0 0 0
8903 6491 1 -0.8 27.317354004971364 50.71695675347322 45.69236149609522 0 0 0
8902 6512 1 -0.8 26.363921433139538 55.31240113980836 47.5194473409056 0 0 0
10070 9954 3 1.6 22.746037714041393 51.23076241641586 49.313790137249896 0 0 0
10078 1494 3 1.6 26.36542766089993 54.6301324797716 48.986579106245046 0 0 0
10077 6350 1 -0.8 24.89315877656674 53.975231461263604 49.1848682890055 0 0 0
8904 6511 1 -0.8 27.535909959806684 55.10170123733523 45.19301264420963 0 0 0
10069 6349 1 -0.8 22.237853288013696 54.539257504278154 49.34165280734413 0 0 0
10080 6513 1 -0.8 27.58054256317038 53.578331548609306 49.10831196837221 0 0 0
8813 9935 1 -0.8 31.974606242682633 50.687020090348724 46.068572259572456 0 0 0
8906 6736 1 -0.8 29.388788638540504 50.704390432252225 47.32043927157582 0 0 0
8812 9935 2 0.4 32.22630270784945 51.94063549146668 45.80661373115 0 0 0
8905 9938 3 1.6 28.92956032439881 50.60711457229848 45.80611999614667 0 0 0
8810 9938 2 0.4 29.39392134203152 50.285057164031244 45.301925395653285 0 0 0
8910 1584 3 1.6 30.808531903919082 52.82677383938622 45.15090991849845 0 0 0
8912 1609 3 1.6 30.965269127820818 55.2595878657832 46.50294737235959 0 0 0
8907 6735 1 -0.8 29.620374453110998 51.76967029454199 45.02821648212614 0 0 0
8911 6737 1 -0.8 30.22043134071191 53.91569716594731 46.14559090504336 0 0 0
8914 6738 1 -0.8 32.38008989758842 52.85356812847936 45.48573739911319 0 0 0
8915 6789 1 -0.8 32.12073125009325 55.63436458647788 45.42887291578368 0 0 0
8913 6790 1 -0.8 31.65836493098672 55.24260405473733 47.93581326288181 0 0 0
10081 10285 3 1.6 30.446308058455163 51.36237719068967 48.315195751576304 0 0 0
9952 10285 2 0.4 31.385815495885605 51.29396018910278 48.367743479168155 0 0 0
9953 10285 1 -0.8 31.180491128298133 52.62122423049578 47.772176672228454 0 0 0
9954 10285 2 0.4 30.827144441478023 53.21327867592849 47.060974187198845 0 0 0
8917 6947 1 -0.8 33.86006376288813 52.00425686784008 47.462190495863034 0 0 0
8916 9935 3 1.6 33.2039532894911 51.655134403000766 46.056732135641646 0 0 0
8921 1792 3 1.6 36.07950380486003 51.68196459737333 45.11013314461168 0 0 0
8923 1819 3 1.6 36.2408746884261 54.674807474663645 45.91821192267362 0 0 0
8918 6946 1 -0.8 34.504292438921084 51.352972534792784 45.13012187634436 0 0 0
8919 6982 1 -0.8 34.81021968029784 55.11026676636285 45.28422218166088 0 0 0
8925 7233 1 -0.8 37.09638578357367 50.63157258386685 45.80771347224215 0 0 0
8922 7235 1 -0.8 36.36372869271331 53.08068406498315 45.86669358144023 0 0 0
8926 7297 1 -0.8 37.49096655097786 55.349690291392996 45.095799424800816 0 0 0
8924 7298 1 -0.8 36.39995144718381 55.09834872263006 47.466208811477756 0 0 0
9955 10148 2 0.4 34.02687882616798 51.78832844384092 48.39660182500667 0 0 0
9958 6948 1 -0.8 36.00044533640704 51.004630875125045 48.63478767771936 0 0 0
10092 10148 3 1.6 34.41033582904535 50.8530665671528 48.40080195106532 0 0 0
10101 1821 3 1.6 36.48588367160794 54.472458161974245 48.96506451257352 0 0 0
10099 6983 1 -0.8 35.102625353806374 53.729408308494996 49.28087984299837 0 0 0
10103 7300 1 -0.8 37.80457076902444 53.5410801807874 49.15424378928515 0 0 0
8927 10183 3 1.6 38.62037554140339 50.42259253885245 46.2466848329305 0 0 0
8928 7234 1 -0.8 39.04946137487864 51.06078250540711 47.6362860616993 0 0 0
8814 10183 2 0.4 38.94385945513393 50.28273025301873 47.08241481547322 0 0 0
8939 7664 1 -0.8 43.36320692094823 50.4274237829698 47.790150177100685 0 0 0
8932 1966 3 1.6 41.18085040041982 51.523179247223155 45.19025998840598 0 0 0
8934 1994 3 1.6 41.26623636508986 54.26510856330589 46.31747565565255 0 0 0
8929 7232 1 -0.8 39.64856420428819 51.04388297289356 45.17872520056466 0 0 0
8930 7296 1 -0.8 40.09190227407131 54.64880679751248 45.268987354967095 0 0 0
8936 7662 1 -0.8 42.210131062101816 50.31900023161458 45.45314892824163 0 0 0
8933 7665 1 -0.8 41.37693119742633 52.66070613005391 46.33785479026624 0 0 0
8937 7726 1 -0.8 42.698413999420126 54.93955708281213 45.94959310871943 0 0 0
8935 7728 1 -0.8 40.84608572296563 54.84628258230125 47.756178722917305 0 0 0
9051 1993 3 1.6 43.67104824522316 55.816052004140225 45.00855465284319 0 0 0
10104 1793 3 1.6 39.304839271854014 50.32510296987872 49.04162525297241 0 0 0
10116 1967 3 1.6 43.94066105039353 50.69730792907362 49.26706716851371 0 0 0
10113 1996 3 1.6 41.25818305521524 54.8775613133977 49.30838048077154 0 0 0
10117 7667 1 -0.8 44.27571129048948 52.281930151293935 49.38603005331665 0 0 0
8949 2408 3 1.6 48.34348767358981 50.24339736045767 45.82824912838138 0 0 0
8943 2111 3 1.6 45.897746223355064 52.00572207410397 45.099571485504185 0 0 0
8945 2123 3 1.6 46.3448377726407 54.87367357749569 46.29793056640561 0 0 0
8940 7663 1 -0.8 44.50351893691622 51.49295105323498 45.70081491946808 0 0 0
8941 7727 1 -0.8 45.23382085662767 55.55733078356224 45.346584540188225 0 0 0
8944 7991 1 -0.8 46.3880070907089 53.28317117627796 45.98298657784325 0 0 0
8947 7992 1 -0.8 47.009383271865794 50.83459636877915 45.15271812560405 0 0 0
8948 8016 1 -0.8 47.81887678863963 55.48615541302174 46.044451024646825 0 0 0
8946 8017 1 -0.8 45.95006695069424 55.208293521922 47.82911784714433 0 0 0
10125 2124 3 1.6 46.54577039249617 55.067929259856754 49.32315891039279 0 0 0
10127 8018 1 -0.8 47.82764783466295 54.09760139105109 49.209782194836535 0 0 0
10129 8735 1 -0.8 48.54916135479999 51.53770345523832 49.14150764857746 0 0 0
8951 8730 1 -0.8 49.4801755003076 51.40429922608658 45.81818765827488 0 0 0
8961 9212 1 -0.8 53.7160077681692 50.576354368408616 47.35170264493076 0 0 0
8954 2409 3 1.6 50.930314518828105 51.658869080996794 45.15405360733602 0 0 0
8956 2439 3 1.6 51.393477428238576 54.626366256583374 46.14352289185686 0 0 0
8955 8732 1 -0.8 51.53278740358118 53.0660085085338 45.70819119858072 0 0 0
8958 8733 1 -0.8 51.911743075648765 50.43486499861247 45.52627279345875 0 0 0
8952 8788 1 -0.8 50.336134847739466 55.37244415845623 45.18027463401364 0 0 0
8959 8789 1 -0.8 52.8356559184911 55.36199885264152 46.054745095811036 0 0 0
8957 8790 1 -0.8 50.851730646855636 54.766469672625284 47.65661759142054 0 0 0
10137 2441 3 1.6 51.29858956217245 54.47338112919059 49.175978337253675 0 0 0
10139 8794 1 -0.8 52.781869714522244 53.830324768360576 49.11467431246453 0 0 0
8962 9211 1 -0.8 54.43888734370672 50.86828195038186 44.862924782506454 0 0 0
8971 3038 3 1.6 58.45062358869576 50.18233277674343 45.934277998520194 0 0 0
8972 9816 1 -0.8 58.34523801121403 50.48672755272995 47.51276663259667 0 0 0
8963 9247 1 -0.8 55.31283338153437 55.22554874744562 45.10064268121234 0 0 0
8965 3039 3 1.6 55.9258863761408 51.49564134443054 44.85792164789938 0 0 0
8967 3069 3 1.6 56.31567984149072 54.35945820974982 46.015586995269665 0 0 0
8973 4006 1 -0.8 59.46718602188972 51.220765668700984 45.22622913946586 0 0 0
8974 4080 1 -0.8 60.343538088081075 55.39598501434834 45.17253309179195 0 0 0
8969 9815 1 -0.8 56.97289817303828 50.35358637463271 45.312765838971416 0 0 0
8966 9817 1 -0.8 56.02644293989015 52.77639117444458 45.840206547676594 0 0 0
8970 9861 1 -0.8 57.84318841074131 54.72098563859395 45.63729021211242 0 0 0
8968 9862 1 -0.8 56.05066656861789 54.77397448364337 47.54712346731623 0 0 0
10149 3071 3 1.6 56.391421156781895 54.215297009685855 49.01384433120642 0 0 0
10151 9863 1 -0.8 57.87173746634646 53.58750936459442 48.97434466673808 0 0 0
8979 383 3 1.6 3.081593362604064 56.28387858900188 45.40502202322587 0 0 0
8981 413 3 1.6 3.0973069878537607 59.19216305005824 46.4906873408848 0 0 0
8976 414 3 1.6 0.5738230700962321 60.48450062295314 45.36136858662221 0 0 0
8980 4077 1 -0.8 2.7606128729570805 57.63016181364098 46.23537580884519 0 0 0
8977 4141 1 -0.8 2.127059138313498 60.10466358828198 45.580544472279016 0 0 0
8983 4142 1 -0.8 4.641657700692081 59.4755591544243 46.12907427156714 0 0 0
8982 4143 1 -0.8 2.862960749698833 59.54750528982954 48.04351147497872 0 0 0
10168 415 3 1.6 3.223843426436579 58.958495256459614 49.50033565996086 0 0 0
10173 4539 1 -0.8 5.265622880825861 55.92445967441031 48.975884573759274 0 0 0
8985 626 3 1.6 5.638326848394422 60.24270044344227 45.12295384052004 0 0 0
8988 953 3 1.6 8.044236647241961 56.06281375464136 45.209398268792135 0 0 0
8990 983 3 1.6 8.120608313535389 58.90985809354184 46.3791512489428 0 0 0
8994 984 3 1.6 10.692621140152232 59.95900316903269 45.04582474721786 0 0 0
8986 4568 1 -0.8 7.166136292901064 59.84302048272874 45.470221658877094 0 0 0
8989 5292 1 -0.8 7.757295900513264 57.347154121910975 46.15149859201948 0 0 0
8992 5344 1 -0.8 9.663520681350654 59.124200300271674 45.959312027855276 0 0 0
8991 5345 1 -0.8 7.940855784431118 59.31265109805856 47.92923769131936 0 0 0
10181 985 3 1.6 8.261393418991666 58.76146068573909 49.41150370335948 0 0 0
10184 5347 1 -0.8 9.804041864722628 58.29734985767124 49.47082834393949 0 0 0
8997 1173 3 1.6 13.091852893581226 55.87910538234606 45.084624959348346 0 0 0
8999 1203 3 1.6 13.251042627594925 58.70164788064472 46.34369088619832 0 0 0
9003 1204 3 1.6 15.62642609369449 60.36387609304168 45.41652248916825 0 0 0
8995 5346 1 -0.8 12.206109615386442 59.583237757157946 45.4767858210116 0 0 0
8998 5782 1 -0.8 13.008835051259354 57.115788615890835 46.12388004628468 0 0 0
9001 5834 1 -0.8 14.753447687266103 59.08761559381282 45.87823877684459 0 0 0
9000 5835 1 -0.8 13.069493556272365 59.036668565390144 47.909826279463694 0 0 0
10194 1205 3 1.6 13.421352160402304 58.45736760587745 49.37538241390768 0 0 0
10197 5837 1 -0.8 14.85553540138826 57.73068225779858 49.28694892668917 0 0 0
9006 1286 3 1.6 18.27287423279853 56.16147404717366 44.88916849896203 0 0 0
9008 1298 3 1.6 18.3382373553765 59.0431486443287 46.038748200912956 0 0 0
9012 1444 3 1.6 21.040195927359083 60.28879310640827 45.19271710758348 0 0 0
9004 5836 1 -0.8 17.203516229879824 60.04729590113018 45.49841610717842 0 0 0
9007 6026 1 -0.8 18.3730947913403 57.7660114438956 45.053916798295106 0 0 0
9010 6047 1 -0.8 19.774297316018565 59.78884896962898 46.066258166196185 0 0 0
9009 6048 1 -0.8 17.96957943447466 58.576347388045434 47.54145129623582 0 0 0
10207 1299 3 1.6 18.293109810580948 58.830742837017176 49.103501598809565 0 0 0
10210 6049 1 -0.8 19.832945613056108 58.45760799954797 49.396208733591806 0 0 0
9015 1413 3 1.6 23.48012502292948 55.729096320533465 45.21451244303444 0 0 0
9017 1443 3 1.6 23.551772824512394 58.69772282217317 46.27086247172325 0 0 0
9021 1511 3 1.6 25.84409897174127 60.62878968741832 45.22648622957664 0 0 0
9016 6345 1 -0.8 23.625862037415946 57.099302185880966 46.059155556131586 0 0 0
9013 6391 1 -0.8 22.28483119436559 59.28363974024402 45.44289989071505 0 0 0
9019 6392 1 -0.8 24.900850258604617 59.406074761878 45.720925099096526 0 0 0
9018 6393 1 -0.8 23.40169472547183 58.964347012602026 47.85974231066832 0 0 0
9022 6543 1 -0.8 27.376606454918672 60.26705512858494 45.58172087324472 0 0 0
10220 1445 3 1.6 23.52392253388863 58.43468195300531 49.392087235924215 0 0 0
8267 6605 1 -0.8 30.772320992757855 0.17163517045214036 46.228707146810784 0 0 0
8908 6788 1 -0.8 29.7325998679031 56.29697758722264 46.26536500189196 0 0 0
9024 1608 3 1.6 28.58962553159613 56.311754576314954 45.11126992138156 0 0 0
9026 1638 3 1.6 28.246338202630984 59.015400008981544 46.105461632131046 0 0 0
9030 1639 3 1.6 30.954750274050426 60.2644997687308 45.29652288769414 0 0 0
9025 6787 1 -0.8 27.77308322898334 57.68712593316561 45.33608642832765 0 0 0
9028 6839 1 -0.8 29.805381966297166 59.23446214816352 45.74172747932682 0 0 0
9027 6840 1 -0.8 28.038286800524283 58.80839035340665 47.69542685528577 0 0 0
9031 6841 1 -0.8 32.437320869963685 59.62244527061198 45.46859775726629 0 0 0
10233 1640 3 1.6 28.610432873418624 58.75773331572893 49.20650988630914 0 0 0
10236 6842 1 -0.8 29.89931129761117 57.796772134693384 49.35802783485875 0 0 0
10244 6843 1 -0.8 32.419780799698074 58.60880851591452 49.492133631868 0 0 0
10234 6609 1 -0.8 29.07350401876192 60.25227024859957 49.60739762571633 0 0 0
8275 7069 1 -0.8 36.99282690719207 61.378118661359245 45.657508626074005 0 -1 0
9033 1696 3 1.6 33.59319681693989 56.15389280525476 45.05231342995543 0 0 0
9035 1708 3 1.6 33.86178598207951 59.05858744023359 46.02427110734753 0 0 0
9039 1849 3 1.6 36.61950405346442 60.04339283790797 44.839043153041715 0 0 0
9034 6981 1 -0.8 33.895647140512935 57.451457415931955 45.97572554122626 0 0 0
9037 7002 1 -0.8 35.07290365288091 59.65380201587747 45.119333377396536 0 0 0
9036 7003 1 -0.8 34.069593720157485 59.4464839293479 47.57747135956983 0 0 0
9040 7342 1 -0.8 37.619817151426936 58.892542513323036 45.35197025326546 0 0 0
10246 1709 3 1.6 33.95389976712256 58.99538017995376 49.13098766286856 0 0 0
10259 1850 3 1.6 38.72152923213264 59.15009381732287 48.88865303958039 0 0 0
10249 7004 1 -0.8 34.95111567093449 57.77868134689321 49.50773300867339 0 0 0
10260 7073 1 -0.8 38.243608028089696 60.63245931877481 49.29031176248663 0 0 0
10257 7345 1 -0.8 37.50733465086112 58.09076426492696 48.99847894821754 0 0 0
9042 1818 3 1.6 39.03840152729707 55.803113405144565 44.87727694791777 0 0 0
9044 1848 3 1.6 39.13915744259946 58.676655371820374 45.86038660288764 0 0 0
9043 7295 1 -0.8 39.417257316473524 57.0947626425334 45.773431599731516 0 0 0
9045 7343 1 -0.8 39.29856622194625 59.174582857964296 47.383819402736655 0 0 0
9053 2023 3 1.6 43.91819542005149 58.82902848279617 45.71414340381677 0 0 0
9048 2024 3 1.6 41.487983772508834 60.469345946911965 44.74860418882788 0 0 0
9046 7341 1 -0.8 40.17623938086805 59.52844143986822 44.94389524606576 0 0 0
9052 7725 1 -0.8 43.37780795270423 57.40494077628588 45.16786414919417 0 0 0
9049 7771 1 -0.8 42.71714898023329 59.91259648076351 45.63627929671392 0 0 0
10272 2025 3 1.6 43.8739714434513 58.880804303647075 48.78061186024984 0 0 0
10273 7418 1 -0.8 43.931280454452455 60.45220640901164 49.144013967324334 0 0 0
10270 7774 1 -0.8 42.366080526840015 58.3521567144375 49.02321467158614 0 0 0
9054 7773 1 -0.8 44.33649511249385 58.65274817467129 47.25651906022444 0 0 0
9057 2141 3 1.6 46.39312166457557 60.468560119284604 44.77362409210842 0 0 0
9060 2438 3 1.6 48.89481606262539 56.08581914791683 45.01194650701037 0 0 0
9062 2468 3 1.6 48.888116852670095 59.02655210359503 46.1233307870684 0 0 0
9055 7772 1 -0.8 45.22212028428857 59.351122637209414 44.901078697573524 0 0 0
9058 8048 1 -0.8 47.75454937394976 60.00881530262053 45.51690940189562 0 0 0
9061 8787 1 -0.8 49.01751505537639 57.68429850959199 45.23701830754984 0 0 0
9063 8840 1 -0.8 48.4593667496068 58.67095447407636 47.62716124969669 0 0 0
10285 2470 3 1.6 48.790606681791346 59.103611472184646 49.14143985365709 0 0 0
10286 8114 1 -0.8 49.24193441357813 60.6477641515303 49.26011815758133 0 0 0
9066 2469 3 1.6 51.36169134529061 60.47255845110165 45.160439628972945 0 0 0
9069 2671 3 1.6 53.90997319687325 56.02786245172759 45.054274597663536 0 0 0
9071 2683 3 1.6 53.93140383595761 59.01524259757752 46.1445525632711 0 0 0
9064 8839 1 -0.8 50.3281930636186 59.764217375871766 46.17366572235668 0 0 0
9067 8841 1 -0.8 52.87577564806159 59.94773496437982 45.35892822851365 0 0 0
9070 9246 1 -0.8 54.13984533578325 57.59551649278836 45.39451863671947 0 0 0
9072 9268 1 -0.8 53.356422231040206 58.76735241955801 47.62175848276635 0 0 0
10298 2684 3 1.6 53.88886446107024 58.60777050477243 49.1277491204074 0 0 0
10301 9269 1 -0.8 55.126882128481235 57.57147353540105 49.12163892745097 0 0 0
9073 9267 1 -0.8 55.35687667103406 59.77390533540577 46.26346023179823 0 0 0
9078 3068 3 1.6 58.81649385268976 55.911029130076926 45.138492854666566 0 0 0
9080 3098 3 1.6 58.854476389417485 58.82167303274402 46.18074513504846 0 0 0
9075 3099 3 1.6 56.44782251048757 60.481149591490464 45.30804626312641 0 0 0
9082 4144 1 -0.8 60.36412627863787 59.23397496889144 45.79071516088798 0 0 0
9079 9860 1 -0.8 58.654212403639846 57.22171520558405 46.066671721785106 0 0 0
9076 9894 1 -0.8 57.79549445046238 59.58958488451308 45.238335542590605 0 0 0
9081 9895 1 -0.8 58.58504773038132 59.27310281793948 47.701875460467676 0 0 0
10311 3100 3 1.6 58.802485650345936 58.66493503964746 49.1752402310304 0 0 0
10314 4147 1 -0.8 60.34200010456974 58.20012502991699 49.317311634557335 0 0 0
10309 9896 1 -0.8 57.79238034100161 57.43007979763216 49.37221695107562 0 0 0
9083 26 3 1.6 0.6093285300137772 1.4447569977616377 49.696099768458936 0 0 0
9097 3259 1 -0.8 4.552709194606506 5.16244693276229 49.63445546199856 0 0 0
9091 25 3 1.6 3.2573958450900076 0.3346812816057215 50.70609590441305 0 0 0
9093 27 3 1.6 3.316481924577567 0.30388166333372735 53.696137697579275 0 0 0
10319 28 3 1.6 3.1272097844691693 3.085094186315727 54.75474079289262 0 0 0
9085 56 3 1.6 0.5517963591693785 4.203066559021813 50.653674570435946 0 0 0
9087 57 3 1.6 0.8297330200175935 4.630648271716232 53.623872653942556 0 0 0
9088 3179 1 -0.8 2.164481035478011 1.0239639816023696 49.745650374977714 0 0 0
9095 3180 1 -0.8 4.780864656602566 0.7017359016640187 50.31211858625691 0 0 0
9092 3182 1 -0.8 2.990929717755667 0.8263395543269916 52.21106039320276 0 0 0
9084 3184 1 -0.8 0.312645143486131 2.619512871175131 50.75465908716208 0 0 0
9094 3185 1 -0.8 3.089527704910615 1.4786494861442094 54.76227928195427 0 0 0
9089 3188 1 -0.8 2.0535254206017224 3.591509833716304 53.672899291986404 0 0 0
9096 3189 1 -0.8 4.60925357734037 3.6189541136721846 54.402666279856376 0 0 0
9090 3257 1 -0.8 2.041720326344461 4.44293948696479 50.08683125826927 0 0 0
9086 3261 1 -0.8 0.39633667142407863 4.871982276359609 52.10070714863203 0 0 0
9101 4214 1 -0.8 5.20743622014124 4.001223893064573 51.88358767878191 0 0 0
9103 4177 1 -0.8 7.323184638140531 0.8007027851974342 49.5269853522381 0 0 0
9100 447 3 1.6 5.69213667037274 4.315569622217382 50.3821091168674 0 0 0
9102 448 3 1.6 5.574589966304979 4.429261571702048 53.39404081633521 0 0 0
9106 655 3 1.6 8.304078883280136 0.11059338406409841 50.59879792953702 0 0 0
9108 657 3 1.6 8.274120217425134 0.3324180253971445 53.62051076343559 0 0 0
10327 658 3 1.6 8.102407402977983 3.2155915321937907 54.68449628268176 0 0 0
9115 686 3 1.6 10.697740996465503 4.0281191521625335 50.28671199824121 0 0 0
9117 687 3 1.6 10.575582727229268 4.362751851922022 53.30511678633465 0 0 0
9105 4213 1 -0.8 7.075662524103936 5.141177227844553 50.45896473540074 0 0 0
9104 4215 1 -0.8 7.112928810232195 4.01686702951557 53.68812303427524 0 0 0
9110 4633 1 -0.8 9.851464738923692 0.4143604218476671 50.24514751197358 0 0 0
9107 4635 1 -0.8 7.9839125847254895 0.6748001666011368 52.070957160107525 0 0 0
9109 4638 1 -0.8 7.908859306797236 1.6166846248589224 54.528506901394785 0 0 0
9111 4640 1 -0.8 9.642418034938204 3.5663840118859653 54.35163992864223 0 0 0
9116 4702 1 -0.8 10.236374077560418 3.828425646150428 51.82031751851347 0 0 0
9129 5416 1 -0.8 15.239606796877654 3.0078623134693148 50.5329310730185 0 0 0
9114 4636 1 -0.8 11.137942035484208 2.6335777401265683 49.62025081569636 0 0 0
9123 1017 3 1.6 13.29212508088924 0.32372953724036724 53.50416704900968 0 0 0
10335 1018 3 1.6 13.153727979420045 3.235873116106291 54.54715379080974 0 0 0
9130 1046 3 1.6 15.514649923699132 4.593260649344578 50.664210779690656 0 0 0
9132 1047 3 1.6 15.709717526539947 4.701139428466887 53.67549873005755 0 0 0
9120 4701 1 -0.8 11.971670424951864 5.019359210170684 50.3022476606586 0 0 0
9119 4704 1 -0.8 12.14044187856571 4.104865379382915 53.632170041118314 0 0 0
9125 5413 1 -0.8 14.917632747122903 0.4607184041189048 49.97711824075462 0 0 0
9122 5415 1 -0.8 13.115274293243049 0.4833024330340357 51.9044224637806 0 0 0
9124 5418 1 -0.8 12.860600014805446 1.6704580709702652 54.28271393926033 0 0 0
9126 5420 1 -0.8 14.699421416691253 3.545579534189844 54.185842756983156 0 0 0
9131 5482 1 -0.8 15.292903014362176 5.094959891089865 52.174423700082876 0 0 0
9136 1227 3 1.6 18.28010903687176 0.3896684023085898 50.254688692325416 0 0 0
9138 1228 3 1.6 18.316725239046203 0.26109950232759194 53.371117466371146 0 0 0
10343 1229 3 1.6 18.276342033626516 3.255711013742005 54.48125123777091 0 0 0
9145 1356 3 1.6 20.797112123043057 4.234870723778583 50.202267417873905 0 0 0
9147 1357 3 1.6 20.791725982757846 4.414654755065249 53.17535691665352 0 0 0
9135 5481 1 -0.8 17.057342713883067 4.802389700422588 50.24833853473993 0 0 0
9134 5484 1 -0.8 17.242651490896595 4.1813084540395815 53.65146392374791 0 0 0
9140 5882 1 -0.8 19.841680505952084 0.7796044124478795 50.126381522706794 0 0 0
9137 5884 1 -0.8 17.890118267989113 0.2612131006897443 51.81495094063688 0 0 0
9139 5885 1 -0.8 18.0608503408914 1.70589470589236 54.05986859033092 0 0 0
9141 5887 1 -0.8 19.8196247552529 3.6723467964996113 54.228886819641254 0 0 0
9146 6179 1 -0.8 20.272858604359918 4.040073067855421 51.703780539812605 0 0 0
9151 1325 3 1.6 23.496627962241458 61.32202993158741 50.18666817484701 0 -1 0
9153 1327 3 1.6 23.72583463522593 0.5769597116261694 53.14347886682978 0 0 0
10351 1328 3 1.6 23.646129463863197 3.435837778289874 54.099060295800186 0 0 0
9160 1477 3 1.6 25.809127800384314 4.316374425868546 50.25271474185142 0 0 0
9162 1478 3 1.6 26.21837240187316 4.879874986481396 53.202888981981545 0 0 0
9155 6117 1 -0.8 24.961624169994963 0.3765638198108442 49.67149495797004 0 0 0
9152 6119 1 -0.8 23.194241907891335 0.560352592594525 51.629733272987814 0 0 0
9154 6121 1 -0.8 24.200703443663265 2.074678220192485 53.455375847229966 0 0 0
9149 6124 1 -0.8 22.351524037275663 3.980258876840763 53.294204665240734 0 0 0
9156 6125 1 -0.8 24.884215801013546 4.474246557281 54.04130968391777 0 0 0
9150 6176 1 -0.8 21.954884084731773 5.355218253062087 50.15884489793048 0 0 0
9159 6423 1 -0.8 25.91084764645484 2.716197407013778 50.46749939642238 0 0 0
9161 6459 1 -0.8 25.816013410905093 5.093631361774193 51.65954766808419 0 0 0
9164 6460 1 -0.8 27.385818855372122 3.774530559021595 53.25265534853956 0 0 0
10219 6122 1 -0.8 22.49102646179661 0.1935156096596998 54.115876268050535 0 1 0
10232 6548 1 -0.8 27.499513674664428 0.1945857029290375 54.13435001824782 0 1 0
9166 1540 3 1.6 28.734312932621684 0.3462758435301941 50.128723618891925 0 0 0
9168 1542 3 1.6 28.770714225625532 0.5072364755585794 53.18581535415864 0 0 0
10359 1543 3 1.6 28.644674823703262 3.3468227157214088 54.156428746974726 0 0 0
9175 1571 3 1.6 31.176413032915168 4.412171341089543 50.665016713210065 0 0 0
9177 1572 3 1.6 31.2426330452823 4.91449363076978 53.704513720555994 0 0 0
9170 6608 1 -0.8 30.082010765955577 1.2214101893987506 50.03204961560256 0 0 0
9167 6610 1 -0.8 28.261982277459058 0.3280530914662515 51.66754827888475 0 0 0
9174 6611 1 -0.8 31.8513971129759 3.1189909085797245 49.99373674798582 0 0 0
9169 6613 1 -0.8 29.261070050780962 2.0072004918028212 53.507612639719106 0 0 0
9171 6615 1 -0.8 29.80388790941185 4.4687299865957435 54.29993551964578 0 0 0
9172 6674 1 -0.8 29.619068987438823 4.5558411348854815 50.227263940503065 0 0 0
9180 6676 1 -0.8 31.99080165213943 5.669862446175089 50.119446303267246 0 0 0
9176 6677 1 -0.8 31.322947314208125 4.241490799628635 52.248781775394086 0 0 0
9179 6679 1 -0.8 32.50019078527477 4.413621342254492 54.60314076072826 0 0 0
10245 6847 1 -0.8 32.45746512717327 0.24897258085132817 54.269084328334515 0 1 0
9182 6889 1 -0.8 33.24410769668933 0.3999267797551869 51.76526684354467 0 0 0
9181 1662 3 1.6 33.81131340841787 0.3838086982565617 50.256884351347765 0 0 0
9183 1663 3 1.6 33.59835318799696 0.8148045856298788 53.27713990658406 0 0 0
10367 1664 3 1.6 33.86297701969106 3.5432542478883393 54.49127661233526 0 0 0
9196 1735 3 1.6 38.58264670564099 0.557493592758996 50.1625445156708 0 0 0
9190 1766 3 1.6 35.98518986195281 4.839693147482834 49.97950065681636 0 0 0
9192 1767 3 1.6 36.39007114198618 4.520517330143368 52.95150246072095 0 0 0
9185 6887 1 -0.8 35.01042479346274 1.447639231242519 50.05561144122069 0 0 0
9184 6890 1 -0.8 33.603249409539885 2.407931403732391 53.3883581146797 0 0 0
9186 6892 1 -0.8 35.154917993881185 4.363561873801525 53.98885869001709 0 0 0
9193 7072 1 -0.8 37.61530287373023 1.713139797453238 49.5924134389856 0 0 0
9194 7080 1 -0.8 37.64140387325554 3.5483450686374516 53.258709300111185 0 0 0
9195 7132 1 -0.8 37.31396991072582 5.7535930955327705 49.899470850882956 0 0 0
9191 7134 1 -0.8 35.89668829863461 4.210619268629173 51.4613105359529 0 0 0
9197 7074 1 -0.8 38.27869911295482 0.25571753294484323 51.717888066211614 0 0 0
10250 6891 1 -0.8 35.08067751852582 0.2828104087722287 53.666033669176215 0 1 0
10375 1738 3 1.6 38.822216328688505 3.060910567058385 54.237593081112934 0 0 0
9199 7076 1 -0.8 39.277502852226284 1.5807253474229896 53.78398896093535 0 0 0
9211 1880 3 1.6 43.885850941646666 0.28582037573061136 50.19108091313176 0 0 0
9213 1882 3 1.6 43.784666958133045 0.3264609170638708 53.15262826850038 0 0 0
10383 1883 3 1.6 43.78392122897952 3.1278338952735343 54.279636325426964 0 0 0
9205 1911 3 1.6 41.23000541718607 4.638667187573468 50.279528450895825 0 0 0
9207 1912 3 1.6 41.296806315646165 4.661285511208537 53.28213809995547 0 0 0
9200 7071 1 -0.8 40.13799387480848 1.0081671599071707 50.04538389334252 0 0 0
9201 7079 1 -0.8 40.11237616974577 4.041822034505032 54.19252905947656 0 0 0
9208 7416 1 -0.8 42.77722840151731 1.366857332463147 49.72271226784392 0 0 0
9214 7421 1 -0.8 43.68647057042634 1.934425649812187 53.2057572509528 0 0 0
9209 7424 1 -0.8 42.76991073838507 4.298724071443196 53.839979567706656 0 0 0
9210 7476 1 -0.8 42.65627964775748 5.425684062855778 50.19216482043818 0 0 0
9206 7479 1 -0.8 41.10435211034195 4.0877536039742175 51.79123527073853 0 0 0
9198 1737 3 1.6 38.83400744554679 0.12919916718056998 53.22742081810839 0 0 0
9220 2057 3 1.6 46.25993684951702 4.768969571046768 50.52703488871058 0 0 0
9222 2058 3 1.6 46.481265259449955 4.295323607704925 53.52164074999844 0 0 0
9226 2170 3 1.6 49.05121472587025 0.5599474037463048 50.20253173790836 0 0 0
10391 2173 3 1.6 49.07865376890179 2.967515294066753 54.26890334125822 0 0 0
9215 7417 1 -0.8 45.35229882625216 0.9704981610141834 50.27780396978759 0 0 0
9216 7425 1 -0.8 45.32569557466845 3.5910163648340454 54.38372825896533 0 0 0
9225 7838 1 -0.8 47.822630067255844 5.1891407305471215 50.54810470495468 0 0 0
9221 7839 1 -0.8 45.842833650825796 4.536904419532806 52.062032397664616 0 0 0
9224 7840 1 -0.8 47.807777706253354 3.394205177849654 53.3718137048931 0 0 0
9229 8118 1 -0.8 49.617801300849386 1.5613053858242039 53.703281113018285 0 0 0
9228 2172 3 1.6 49.13535798643876 0.09345238352965299 53.22220807170828 0 0 0
9227 8115 1 -0.8 48.63607464419054 0.11806480301305064 51.6934287379132 0 0 0
9235 2201 3 1.6 51.64125515446598 4.584614866428729 50.39085652745844 0 0 0
9237 2202 3 1.6 51.3850444407358 4.79211706419086 53.36563464988711 0 0 0
9241 2492 3 1.6 54.01329440189683 0.09549558042301651 50.26507732717187 0 0 0
9243 2493 3 1.6 53.88771285916942 0.4314941229263607 53.231189713969414 0 0 0
10399 2494 3 1.6 53.873033222978414 3.3084137350119946 54.41457984827739 0 0 0
9230 8113 1 -0.8 50.47368051058592 1.313912824398139 50.28465980461806 0 0 0
9231 8120 1 -0.8 50.247184189103066 4.087009306169508 54.26771012179834 0 0 0
9232 8179 1 -0.8 50.358497290923545 5.275422696170287 49.699971033451504 0 0 0
9240 8181 1 -0.8 52.881905149365956 5.6143903766837795 50.472996862533606 0 0 0
9236 8182 1 -0.8 51.22338031980098 4.192430963240734 51.886886744849036 0 0 0
9239 8184 1 -0.8 52.87662576713797 4.4588240457249055 53.886960456648126 0 0 0
9244 8890 1 -0.8 53.84101441341076 2.0378729305501593 53.415425449510884 0 0 0
9247 8913 1 -0.8 55.4144324059208 5.38716953309835 49.69789342613171 0 0 0
9262 3260 1 -0.8 60.20447007515216 4.907205041039199 49.67988235001493 0 0 0
9245 8887 1 -0.8 55.330559604102326 1.02955064711309 50.361246983561344 0 0 0
9246 8892 1 -0.8 55.396027308367984 3.8339111566508253 54.52479059151772 0 0 0
9258 2712 3 1.6 59.1239816231013 0.16461896789508448 53.39215572561049 0 0 0
10407 2713 3 1.6 59.03482738676695 3.0104449731651552 54.50240356137597 0 0 0
9250 2741 3 1.6 56.504139788341654 4.671744540418262 50.63719820062877 0 0 0
9252 2742 3 1.6 56.581270027349355 4.398038008549412 53.5988821399684 0 0 0
9260 3183 1 -0.8 60.34645889494273 0.2108113237155135 49.98746337873609 0 0 0
9261 3262 1 -0.8 60.26925292282704 4.0522126613366645 54.42217074030057 0 0 0
9257 9322 1 -0.8 58.593144829770104 0.4766935763963812 51.91074054520015 0 0 0
9249 9323 1 -0.8 56.84193141452998 3.1963311324145924 50.071384127322254 0 0 0
9259 9324 1 -0.8 59.529868329516546 1.5262935029009614 54.15061794877444 0 0 0
9254 9326 1 -0.8 57.83736575513534 3.398955563818449 53.50137484244927 0 0 0
9255 9368 1 -0.8 57.86000358823346 5.5424786442651355 50.702526061547466 0 0 0
9251 9370 1 -0.8 55.945857179151396 4.586100989077369 52.13607979250003 0 0 0
9267 55 3 1.6 3.0328331907969246 5.657548029105337 49.75970734744021 0 0 0
10412 58 3 1.6 0.8059956748405834 7.432275571374836 54.72617197274592 0 0 0
9269 77 3 1.6 3.1693917978493324 8.354237760536403 50.907291615071756 0 0 0
9264 78 3 1.6 1.1042756421825632 10.242663567171403 49.82955204648599 0 0 0
9271 79 3 1.6 3.0973675818345447 9.182804520372317 53.82616120502378 0 0 0
9268 3258 1 -0.8 2.93604067803182 6.771746341852912 50.89748755766685 0 0 0
9263 3263 1 -0.8 1.3573286930351576 6.000601508037164 54.272816532874685 0 0 0
9265 3265 1 -0.8 2.018976704340223 8.490212517462046 54.793242990679374 0 0 0
9266 3312 1 -0.8 2.2886689024744746 9.152784092746206 49.81454562003135 0 0 0
9274 3313 1 -0.8 4.738284072647699 8.655571800775567 50.658625697029095 0 0 0
9270 3314 1 -0.8 2.6607181733463072 8.877798013331462 52.32228012199101 0 0 0
9272 3317 1 -0.8 3.070602703710782 10.775560392701856 53.975105139162444 0 0 0
9273 3318 1 -0.8 4.567781766657026 8.556614952990643 54.06297532765234 0 0 0
9275 4216 1 -0.8 5.367482134713157 6.029479128341777 53.58450270749939 0 0 0
10422 449 3 1.6 5.520992102914459 7.3343043725631505 54.53177919054229 0 0 0
9276 459 3 1.6 5.631694308299085 9.614365684184108 49.715285632831346 0 0 0
9278 4239 1 -0.8 7.211847086550503 9.270588324676853 49.77727605104 0 0 0
10432 688 3 1.6 10.571332722031139 7.208013150431425 54.40159618895641 0 0 0
9281 707 3 1.6 8.393397218291263 8.544418953954287 50.61569427799131 0 0 0
9283 709 3 1.6 8.059561251834888 8.750037743763349 53.63154477668188 0 0 0
9277 4217 1 -0.8 7.048674450068173 7.867944426149109 54.52776375026577 0 0 0
9280 4700 1 -0.8 8.756238633326403 7.123810050463279 49.948531564112386 0 0 0
9287 4703 1 -0.8 10.255100025536825 5.941024956672526 53.44905703737556 0 0 0
9285 4705 1 -0.8 9.591667595739821 8.436129770465282 54.029000609225 0 0 0
9286 4744 1 -0.8 9.737240689019323 9.439636357646616 50.68355504358675 0 0 0
9282 4745 1 -0.8 7.833817855148 8.312483573426864 52.10135342420355 0 0 0
9284 4748 1 -0.8 7.746533591427096 10.325812729889673 53.79277241228717 0 0 0
9291 1045 3 1.6 13.024055331885908 6.090834962938292 49.714437656731874 0 0 0
9127 5479 1 -0.8 14.511380179121462 5.446535411841539 49.73193857903142 0 0 0
10442 1048 3 1.6 15.71326205239774 7.581767843518296 54.842919345222164 0 0 0
9293 1067 3 1.6 13.244183663393768 8.989498493337006 50.87935909109952 0 0 0
9295 1069 3 1.6 13.09903197497796 8.864239538405949 53.89461509082651 0 0 0
9289 4706 1 -0.8 12.118368152776593 7.624856025149378 54.22108153975595 0 0 0
9290 4747 1 -0.8 12.295707712465717 9.88116339726933 49.927655849297025 0 0 0
9292 5480 1 -0.8 12.94729784904068 7.420726236523562 50.62176454597068 0 0 0
9299 5483 1 -0.8 15.548363163518758 5.98532309437386 54.635896838536915 0 0 0
9297 5485 1 -0.8 14.641529308382767 8.38363534598815 53.95231141364639 0 0 0
9298 5524 1 -0.8 14.816713979085586 9.221561131796978 50.599890244796434 0 0 0
9294 5525 1 -0.8 12.836263724873843 9.360423427344601 52.38956359488845 0 0 0
9296 5528 1 -0.8 12.763989651213173 10.057160149025991 54.923962413161554 0 0 0
9302 5527 1 -0.8 17.397251327167524 9.38837415926973 49.95167516912451 0 0 0
9305 1249 3 1.6 18.43630139009705 8.256863379369687 50.47762524404053 0 0 0
9307 1250 3 1.6 18.308663773672215 8.625058943962733 53.467478987892356 0 0 0
10452 1358 3 1.6 20.889743557680724 7.221570764275326 54.39745944786554 0 0 0
9301 5486 1 -0.8 17.230471338195137 7.9800517469934045 54.47983914020261 0 0 0
9310 5927 1 -0.8 19.97436097294112 8.727262721126728 50.37845314025791 0 0 0
9306 5928 1 -0.8 18.127873402830566 7.914741769193429 52.02175335645591 0 0 0
9309 5929 1 -0.8 19.79721755679153 8.360229316591253 54.0474360495424 0 0 0
9308 5930 1 -0.8 18.013866357930528 10.19655509565023 53.29712598354306 0 0 0
9311 6180 1 -0.8 20.686097015615765 6.007938972174254 53.360076898161 0 0 0
9324 10126 3 1.6 26.260856828821215 9.749730852661424 49.71169585661673 0 0 0
9317 1377 3 1.6 23.579516555959408 8.548921118637846 50.35979928166444 0 0 0
9319 1379 3 1.6 23.46639911760699 8.47926942641008 53.32414622744567 0 0 0
10462 1479 3 1.6 26.244431512849403 7.579505996823651 54.42299930419603 0 0 0
9316 6177 1 -0.8 23.804132939647342 7.165491259542014 49.570289380058234 0 0 0
9313 6181 1 -0.8 22.397039733123382 7.775430936790865 54.30793487342264 0 0 0
9322 6220 1 -0.8 25.037359282375213 9.19379530153828 50.57946227308789 0 0 0
9318 6221 1 -0.8 22.98595653710398 8.219948485467691 51.818641257708514 0 0 0
9320 6223 1 -0.8 23.49468934683148 10.03243076237172 53.657845394724724 0 0 0
9321 6224 1 -0.8 24.94598272539336 7.885404364942921 53.52562929073973 0 0 0
9323 6461 1 -0.8 26.843230677306178 6.192657997201372 53.86755013619851 0 0 0
9325 6462 1 -0.8 27.389103300605132 8.69331922262052 54.29079280784881 0 0 0
10569 9950 3 1.6 23.043666559192904 10.883202753112128 54.91634662837672 0 0 0
9328 6675 1 -0.8 28.462098579422086 6.907724002170423 49.81975077810902 0 0 0
9464 9932 1 -0.8 30.40594255764967 10.873108044567177 49.876549125582045 0 0 0
9326 6475 1 -0.8 27.720849250076586 9.315775683757826 50.18628950789342 0 0 0
10470 1573 3 1.6 31.508367606671506 7.9230043657665785 54.25748108230767 0 0 0
9329 1580 3 1.6 28.838608276855773 8.251113025429648 50.64666970032632 0 0 0
9335 6678 1 -0.8 31.324337869093828 6.502212336125621 53.51317561184352 0 0 0
9333 6680 1 -0.8 30.057504348747795 8.612492439765965 54.31698759464264 0 0 0
9337 6681 1 -0.8 32.608576461843946 8.767377612080338 53.4419532674905 0 0 0
9334 6703 1 -0.8 30.38702331860183 8.565286874357037 50.36571268343193 0 0 0
9330 6704 1 -0.8 28.689985008756448 7.880222692195715 52.195063609100124 0 0 0
9338 6705 1 -0.8 32.784036599489575 9.725375158787093 50.11393561399224 0 0 0
9331 10139 3 1.6 28.741083003128573 8.8447353710061 53.44608847434843 0 0 0
9332 10139 1 -0.8 28.864305217581155 10.136362605535163 52.59151915325447 0 0 0
9463 9932 2 0.4 30.514946803024305 9.892410270312773 49.98909293427633 0 0 0
9462 10139 2 0.4 28.80054415637985 9.137535474959341 52.45002920455684 0 0 0
9346 6928 1 -0.8 35.476227530622694 8.757867897188437 49.607148980407125 0 0 0
9187 6913 1 -0.8 34.63500798488512 5.640090711703126 49.72715483919324 0 0 0
9342 1680 3 1.6 33.92463126314598 8.616713876533156 49.9265049249027 0 0 0
10478 1768 3 1.6 36.47855032222462 7.203801144150965 54.129981493477146 0 0 0
9343 6929 1 -0.8 33.896350412932485 7.851756195749082 51.374253352519794 0 0 0
9345 6930 1 -0.8 34.97756318180757 7.674158026968963 53.774390964797945 0 0 0
9347 7135 1 -0.8 36.87964309939474 6.044252849978247 53.07963852648179 0 0 0
9349 7136 1 -0.8 37.554895618158874 8.3960406757066 53.9775055587352 0 0 0
9350 7171 1 -0.8 37.68566195340392 10.112364331078052 49.759620064874326 0 0 0
9344 10153 3 1.6 34.05609847214802 8.545801525755085 52.78297851987226 0 0 0
9339 10153 1 -0.8 34.817336803886015 9.833886229140186 52.32096467799191 0 0 0
9465 10153 2 0.4 34.24532392554157 8.648053133042445 51.79031343919306 0 0 0
9355 1780 3 1.6 38.798040676490125 9.07395273665428 53.191624118757 0 0 0
9354 7172 1 -0.8 38.825866500861345 8.673568325224581 51.63249955147405 0 0 0
9356 7174 1 -0.8 38.80595354557617 10.665313690349025 53.389697125455136 0 0 0
9202 7131 1 -0.8 39.99349962504102 5.640061035066819 49.97487269803832 0 0 0
9353 1779 3 1.6 38.92455328174813 9.155564802682076 50.08658025480019 0 0 0
10488 1913 3 1.6 41.32195627206665 7.50754433270662 54.27710301356739 0 0 0
9365 1932 3 1.6 43.938717092561895 9.213109013490017 50.43329766706242 0 0 0
9367 1934 3 1.6 44.13833102646792 8.625301718834477 53.47932284112553 0 0 0
9358 7170 1 -0.8 40.37578462450267 9.84617388465534 49.80127418290361 0 0 0
9357 7173 1 -0.8 40.20134903765782 8.58228896333009 53.87015244815119 0 0 0
9364 7477 1 -0.8 43.61263324993564 7.856512051588098 49.59575661594497 0 0 0
9359 7480 1 -0.8 41.200137377816695 6.267801729305503 53.25519238842319 0 0 0
9361 7481 1 -0.8 42.84156128016742 8.086932423442445 54.285695839955004 0 0 0
9362 7519 1 -0.8 42.98108445290277 10.367416764087665 49.8521701131791 0 0 0
9366 7521 1 -0.8 43.61650065082335 8.942096552232828 51.98951637489316 0 0 0
9217 7478 1 -0.8 45.29661133666221 5.9011454725443055 49.89806590487732 0 0 0
9375 2200 3 1.6 48.97445117261532 6.093320172396296 49.87609838837697 0 0 0
9368 7523 1 -0.8 44.814955715136094 9.899369586262015 54.206040656891474 0 0 0
10498 2059 3 1.6 46.56557731543029 7.21678823622501 54.44661359476525 0 0 0
9377 2222 3 1.6 49.1905774592279 9.042123278511392 50.79486423360195 0 0 0
9379 2224 3 1.6 48.892118240038954 9.302594995792365 53.78162128984462 0 0 0
9370 7520 1 -0.8 45.51511471248287 9.601660576912728 50.339212327645555 0 0 0
9369 7524 1 -0.8 45.345681775088075 7.54734266617226 53.43669991907352 0 0 0
9371 7841 1 -0.8 46.92110074250348 5.659874895067069 54.25629193181536 0 0 0
9373 7842 1 -0.8 47.9017666231202 8.090473047798794 54.18320942313216 0 0 0
9374 7864 1 -0.8 48.13265186751531 9.532337220220295 49.6913851086595 0 0 0
9376 8180 1 -0.8 49.21764076835994 7.421654624404759 50.76625861838888 0 0 0
9378 8225 1 -0.8 48.67976429693014 9.605135151919484 52.21593237353268 0 0 0
9380 8228 1 -0.8 48.61668421575132 10.617092499792486 54.67089229070627 0 0 0
10508 2203 3 1.6 51.427909281201565 7.645720892528196 54.347552671318816 0 0 0
9389 2514 3 1.6 54.2393573715613 9.111556341495312 50.48347143872643 0 0 0
9391 2515 3 1.6 54.23224760576297 8.658066228900333 53.49572701190673 0 0 0
9383 8183 1 -0.8 51.221695621991735 6.398249322236048 53.34798115973815 0 0 0
9381 8185 1 -0.8 50.43598544952817 8.85311660246305 53.963786010332576 0 0 0
9385 8186 1 -0.8 52.9661711447746 8.156347917137772 54.36470593854558 0 0 0
9382 8224 1 -0.8 50.67473491057988 9.610542309059324 50.50332614163196 0 0 0
9386 8227 1 -0.8 53.20218165778876 10.16685142417985 49.85334420533643 0 0 0
9390 8933 1 -0.8 53.74628810970858 8.77355318184211 51.972227388237485 0 0 0
9392 8935 1 -0.8 54.78786649497286 10.08552622050756 54.01135926827418 0 0 0
9394 8932 1 -0.8 55.723963872658864 9.74639059335161 50.526300924396516 0 0 0
9393 8934 1 -0.8 55.46761051228202 7.633212968417958 53.577146422904576 0 0 0
9399 2740 3 1.6 59.044733400608614 6.0212513499192255 49.729899772058374 0 0 0
10518 2743 3 1.6 56.65590315798913 7.254685371957518 54.59403596781852 0 0 0
9401 2762 3 1.6 59.2708582501334 8.936322805874902 50.700424368525276 0 0 0
9403 2764 3 1.6 59.09773904870515 8.878572731602809 53.672728331507585 0 0 0
9405 3264 1 -0.8 60.37006309662897 7.894072441371761 53.71204546524539 0 0 0
9406 3316 1 -0.8 60.633856915137756 9.784705454702511 50.81380451467715 0 0 0
9400 9369 1 -0.8 59.631387942148095 7.429955017791706 50.24598274204962 0 0 0
9395 9371 1 -0.8 57.148515880233305 5.778409339398869 54.20662847005005 0 0 0
9397 9372 1 -0.8 57.88060095022128 8.2995135628063 54.54770098818791 0 0 0
9398 9401 1 -0.8 58.22817628449761 9.566218133378396 49.64646106977553 0 0 0
9402 9402 1 -0.8 58.58848869388195 8.971229589724313 52.15337386916002 0 0 0
9404 9404 1 -0.8 59.57166794270893 10.306266884523916 54.25293453738847 0 0 0
9414 105 3 1.6 3.3843181970963037 14.644115354088488 50.05712613713952 0 0 0
9408 106 3 1.6 1.0942255309824986 13.039051635405539 50.96234627097673 0 0 0
10532 107 3 1.6 3.1084056057634637 12.018508452990224 54.97844072985129 0 0 0
9410 108 3 1.6 0.6654638367505563 13.474087933173816 53.89432119097298 0 0 0
10528 137 3 1.6 0.42245761863809783 16.464510510401404 54.56713724489291 0 0 0
9407 3315 1 -0.8 1.6634872814667794 11.673777224328745 50.314699504275275 0 0 0
9415 3382 1 -0.8 3.823572897839948 16.165685131719883 50.308157425608975 0 0 0
9413 3383 1 -0.8 2.2720512029496738 14.131446037545652 51.096186660609376 0 0 0
9417 3384 1 -0.8 4.6429371726005 13.655319995832423 50.12067879409076 0 0 0
9409 3386 1 -0.8 0.519231628311271 12.793813343693644 52.44015767632308 0 0 0
9412 3387 1 -0.8 2.13755005804273 13.198486204618375 54.47349730406788 0 0 0
9416 3388 1 -0.8 4.605166703423118 12.591961017654748 55.00989795866181 0 0 0
9411 3391 1 -0.8 0.40664591722900306 15.058940629846585 53.78003088128281 0 0 0
10538 488 3 1.6 5.314541308603764 16.13753896071837 54.60372126623517 0 0 0
9420 4258 1 -0.8 5.133458985366445 12.508632902873183 52.448162277496415 0 0 0
9422 4260 1 -0.8 5.230956314721297 14.78988635470348 53.72365754122987 0 0 0
9421 470 3 1.6 5.529725514094332 13.20942205644773 53.84837123434815 0 0 0
9425 735 3 1.6 7.757466923069528 14.421619633004257 50.19656041516774 0 0 0
9429 4746 1 -0.8 10.455977078496613 11.784015987856325 49.81892476288762 0 0 0
9419 469 3 1.6 5.538824510441898 12.566951276397942 50.89632282756267 0 0 0
9430 736 3 1.6 10.416808833106083 13.08698338784895 50.790233233141635 0 0 0
10542 737 3 1.6 7.947370025451066 11.617550564630266 54.74223238836927 0 0 0
9432 738 3 1.6 10.4869759631637 12.95578884071358 53.85443531387331 0 0 0
10548 767 3 1.6 10.379090826305857 15.976826202459492 54.913787418894934 0 0 0
9418 4238 1 -0.8 5.377976199314892 11.134749410995969 50.18850130680731 0 0 0
9424 4257 1 -0.8 7.048537586710373 13.1051601616768 50.79932041018181 0 0 0
9423 4259 1 -0.8 7.058392349008555 12.857457739454992 54.20296259032149 0 0 0
9426 4796 1 -0.8 7.410755442782799 15.738792464101625 51.06764789710886 0 0 0
9428 4797 1 -0.8 9.329931654849558 14.134632365889532 50.23075819492157 0 0 0
9431 4799 1 -0.8 10.07970659279702 12.665374304188651 52.307239242487256 0 0 0
9427 4800 1 -0.8 9.487493032833223 12.071540767062652 54.766228118872256 0 0 0
9433 4802 1 -0.8 10.282363062400568 14.518278670831888 54.1907095542523 0 0 0
9538 4296 1 -0.8 6.859284065216524 16.58025412518277 54.66221239202072 0 0 0
9437 5576 1 -0.8 13.073779663240165 15.948247894378772 49.83123248000899 0 0 0
9441 1096 3 1.6 15.137119857886026 12.695657899812131 50.36487609426391 0 0 0
10552 1097 3 1.6 13.029459442350024 11.6585448889733 55.05580354059613 0 0 0
9443 1098 3 1.6 15.116389306754737 12.733741987797943 53.25764552402045 0 0 0
9435 4798 1 -0.8 11.831406431469935 13.82391730132394 50.76049389560988 0 0 0
9434 4803 1 -0.8 11.985063636935795 12.459436205402831 54.12577744062287 0 0 0
9442 5579 1 -0.8 14.641090005552048 12.175339068055234 51.8064481183554 0 0 0
9438 5580 1 -0.8 14.494064277186167 11.894686205541273 54.47685474156699 0 0 0
9444 5582 1 -0.8 14.436795653135093 14.175398372812467 53.33746353419282 0 0 0
10558 9925 3 1.6 14.62636330058277 15.246970932206873 54.489959488455774 0 0 0
9553 4864 1 -0.8 11.838262298534392 16.5336499514359 54.704725177886345 0 0 0
10655 9925 1 -0.8 16.112752555733906 14.802422047221736 54.71681085434082 0 0 0
10654 9925 2 0.4 15.300413667079056 14.471473046647967 54.22048284776693 0 0 0
9557 5606 1 -0.8 12.27388281339886 16.618632988411786 52.21310816841856 0 0 0
10562 1259 3 1.6 17.830405623823705 11.598791510314765 54.11027341885412 0 0 0
9446 5578 1 -0.8 16.340262469260097 13.694549633125742 50.646660238404024 0 0 0
9445 5583 1 -0.8 16.69705797677914 12.465125990828236 53.3801461034564 0 0 0
9450 5956 1 -0.8 18.643569297575286 12.476776043194898 50.879311985322154 0 0 0
9449 5957 1 -0.8 19.233420446359045 12.357215873242968 54.10739615863466 0 0 0
9451 6222 1 -0.8 20.447201177136673 11.118722483676857 49.6146861704969 0 0 0
9453 6242 1 -0.8 20.65700840794863 11.417047912058427 52.21251247092091 0 0 0
9447 10080 3 1.6 17.85007261029247 13.660343025299625 50.180031238950185 0 0 0
9448 10080 1 -0.8 18.42890494003563 15.041693193994055 50.54312419549839 0 0 0
9452 10101 3 1.6 20.16916779756463 12.077685455986053 50.84911810809729 0 0 0
9455 10101 1 -0.8 20.842650013422137 13.433287665051074 50.5377952659541 0 0 0
9454 10102 3 1.6 20.721326030401023 12.05446124526098 53.66569038911617 0 0 0
9456 10102 1 -0.8 21.484970601677272 13.373269618506267 53.40991411310203 0 0 0
9459 6243 1 -0.8 21.49502283387409 11.164186100403514 54.731188115087704 0 0 0
9457 10101 2 0.4 20.120902426155716 12.78755465652288 50.68763588584743 0 0 0
9458 10102 2 0.4 21.02230500300858 12.525769960227278 53.250492685294546 0 0 0
9563 10080 2 0.4 17.96985896854049 14.200628608119208 50.3578967307243 0 0 0
10572 9950 1 -0.8 23.832132354173687 12.20872767047743 54.93013941679739 0 0 0
10568 9950 2 0.4 23.315419668572172 11.384290230849698 54.9614756455597 0 0 0
10585 9914 1 -0.8 39.50101160065773 13.019800722401778 54.39423886142729 0 0 0
10586 9914 3 1.6 39.62445668572339 11.476618267053214 54.50150068733653 0 0 0
9468 9914 2 0.4 40.11846018241641 12.23519406011628 54.30394540507955 0 0 0
9471 7188 1 -0.8 41.156639609311114 11.434206980151753 54.10240886808466 0 0 0
9480 7567 1 -0.8 43.58111531477035 13.355675680571242 50.08052958843392 0 0 0
9476 7569 1 -0.8 41.633336764044095 12.937835673317956 51.914101574059 0 0 0
9479 7570 1 -0.8 43.53666408797073 11.82969125017492 53.24034334887548 0 0 0
9475 10173 3 1.6 42.03046677491801 13.339578944649505 50.40513923821835 0 0 0
9472 10173 1 -0.8 41.67888756250759 14.817865394978117 50.10724805816446 0 0 0
9469 10173 2 0.4 42.29267397297944 14.049019745569746 50.09763718901707 0 0 0
9477 10195 3 1.6 42.106673820414215 12.488792208112574 53.365427355068114 0 0 0
9473 10195 1 -0.8 42.57957597586073 13.640502880433939 54.300087878565854 0 0 0
9470 10195 2 0.4 42.9148142537981 12.776353881789522 53.91579581791049 0 0 0
9485 7863 1 -0.8 46.859559883249446 11.804147718883922 49.658701116057955 0 0 0
10590 1944 3 1.6 44.45216796495677 11.446860048414068 54.481186687729725 0 0 0
9486 2079 3 1.6 46.97134900748684 13.146674136761108 50.56495107640652 0 0 0
9488 2080 3 1.6 46.64591062356733 13.341128356817366 53.60688686397312 0 0 0
9492 2250 3 1.6 49.345205484416695 14.98648475910643 49.94430491721706 0 0 0
10600 2252 3 1.6 49.09203327095447 12.150729511935072 54.895362721707215 0 0 0
9484 7568 1 -0.8 46.003407268888566 14.236956867544228 49.92928814096714 0 0 0
9483 7571 1 -0.8 45.74804397619994 12.388910739136586 54.55073400163962 0 0 0
9491 7882 1 -0.8 48.4689307694952 13.751249706898886 50.54356603236831 0 0 0
9487 7883 1 -0.8 46.49172660694627 12.848045280686641 52.07508428758471 0 0 0
9490 7884 1 -0.8 48.206034846359394 13.125103803687185 53.98078027673556 0 0 0
9489 7885 1 -0.8 46.28157956306387 14.885801869126846 53.828881058463 0 0 0
9493 8276 1 -0.8 49.15569389087557 16.32414629285635 50.81098370672433 0 0 0
10596 10200 3 1.6 46.70447944628404 16.127384835343154 54.756298372001694 0 0 0
9504 8969 1 -0.8 53.94245562719827 16.08075488325347 49.911018633625034 0 0 0
9497 2251 3 1.6 51.694751234338966 13.224883849851713 50.458485337351185 0 0 0
9499 2253 3 1.6 51.75455345502501 12.886811510792812 53.488155395297014 0 0 0
10606 2282 3 1.6 51.78152565219189 15.872519285716178 54.53975711981403 0 0 0
10610 2533 3 1.6 54.31909098681972 11.536734411782486 54.52876966962631 0 0 0
9495 8277 1 -0.8 50.886417766657445 14.52902499277779 50.00609451494983 0 0 0
9502 8278 1 -0.8 53.26605190215507 13.575803787408256 50.37285316442454 0 0 0
9498 8279 1 -0.8 51.258269979000026 12.830373113618995 51.960781826199664 0 0 0
9494 8280 1 -0.8 50.65122506836665 12.271476965696685 54.488515984978136 0 0 0
9500 8282 1 -0.8 52.053445370884795 14.422939050368113 53.87956295897234 0 0 0
9501 8283 1 -0.8 53.12094614740198 12.038346813171723 53.580536887514455 0 0 0
9576 8343 1 -0.8 50.25158603073089 16.328206002858934 54.41645536952214 0 0 0
9591 8994 1 -0.8 55.167082346851124 16.509851727465108 54.57379744447551 0 0 0
9506 8970 1 -0.8 55.7377589046882 14.195266345175684 49.65818661362638 0 0 0
9505 8971 1 -0.8 55.5300652354948 12.604707049207528 54.479372534270766 0 0 0
9514 2790 3 1.6 59.412756229741625 14.583028650603604 49.713404253623715 0 0 0
9508 2791 3 1.6 56.789150226559585 13.321902182405715 50.500464517513585 0 0 0
10620 2792 3 1.6 59.07532799279908 11.756394704450496 54.739529515634274 0 0 0
9510 2793 3 1.6 56.6712324517938 13.19694606874489 53.50332112795596 0 0 0
10616 2822 3 1.6 56.71030612167974 16.071854231218516 54.72140218737953 0 0 0
9517 3385 1 -0.8 60.64756412020752 13.590230734838887 49.99711765103975 0 0 0
9516 3390 1 -0.8 60.31268176105472 12.776893473494255 54.86577737407671 0 0 0
9507 9403 1 -0.8 57.05521262845715 11.914232485323723 49.74690476440671 0 0 0
9515 9443 1 -0.8 59.85721825051715 16.11176068359491 49.985782209317755 0 0 0
9513 9444 1 -0.8 58.17202037057157 14.147626071400609 50.64875250730312 0 0 0
9509 9445 1 -0.8 56.19143460592416 13.065590624755023 51.972737907845925 0 0 0
9512 9446 1 -0.8 58.01876341373245 12.329245738581866 53.66950161151822 0 0 0
9511 9448 1 -0.8 56.993966073939674 14.743647860069277 53.850801414603524 0 0 0
9518 136 3 1.6 1.0022879765337154 19.216350763694575 49.51988750478918 0 0 0
9526 135 3 1.6 3.2899206397727006 17.625911042880677 50.72042187605702 0 0 0
9528 138 3 1.6 2.9361266093369385 17.882479832692237 53.68075585120416 0 0 0
9520 166 3 1.6 0.7976676621170435 22.101282274863358 50.55768383296052 0 0 0
10629 167 3 1.6 2.6495434122382173 20.812968591558512 54.74098325426358 0 0 0
9522 168 3 1.6 0.2750003500473665 22.387914046973574 53.60923693402086 0 0 0
9524 3457 1 -0.8 2.2577403334555757 18.214364237258422 49.63524159762823 0 0 0
9531 3458 1 -0.8 4.524018148739438 18.649485826405087 50.82166365157667 0 0 0
9527 3459 1 -0.8 2.579786195985871 17.5075829342031 52.154118252608555 0 0 0
9519 3460 1 -0.8 1.3867612273012917 20.735007272142926 49.91481965159205 0 0 0
9523 3463 1 -0.8 1.9062885111450905 17.095993232919756 54.637621753149475 0 0 0
9529 3465 1 -0.8 2.783191103119666 19.488785326405154 53.82160912404652 0 0 0
9530 3466 1 -0.8 4.431611059978901 17.3511192053257 53.99641431973614 0 0 0
9521 3536 1 -0.8 0.5175657412253765 21.83267889465958 52.116712605993605 0 0 0
9525 3537 1 -0.8 1.2102772428406057 21.526430969095948 54.606338979487546 0 0 0
9532 3538 1 -0.8 3.768306478571694 21.89889819004896 54.331051340285555 0 0 0
9537 500 3 1.6 5.362299713547187 21.94633560104758 54.07657887629919 0 0 0
9536 4318 1 -0.8 5.606965920457548 21.450343907060958 52.55398547366649 0 0 0
9533 487 3 1.6 5.695250673633617 19.10537876441882 49.81972060627095 0 0 0
9535 499 3 1.6 5.721577707999403 21.910263543138136 51.01013654812276 0 0 0
9534 4294 1 -0.8 6.087405886298193 20.634724289009768 50.095240767887404 0 0 0
9541 765 3 1.6 7.820008845746975 17.309623698676262 51.10814157529933 0 0 0
9543 768 3 1.6 7.933771637693942 17.666266520897807 54.11286896485474 0 0 0
9552 793 3 1.6 9.44505324002102 21.340448725479735 53.12822697218659 0 0 0
9539 4295 1 -0.8 6.936755502985725 18.10635341402031 50.021235472237414 0 0 0
9540 4319 1 -0.8 6.041016757427551 20.978863179814205 55.188407712568235 0 0 0
9546 4859 1 -0.8 9.3546079590701 17.423883456576664 50.65721397339835 0 0 0
9542 4860 1 -0.8 7.572281151454082 17.955014115077592 52.56282108332967 0 0 0
9545 4863 1 -0.8 9.38527554520204 16.994666586697626 54.14576873043748 0 0 0
9544 4866 1 -0.8 7.775925643295449 18.962063493225585 55.05166655908692 0 0 0
9551 4914 1 -0.8 8.761859689605776 21.06838852190752 51.7112969570271 0 0 0
9547 4915 1 -0.8 8.284608998529045 21.395946385310857 54.21920268430592 0 0 0
9550 10007 3 1.6 9.599915472356772 21.159352410769877 50.385468781023036 0 0 0
9555 4918 1 -0.8 10.173678318191463 19.959815581458123 53.48746236120509 0 0 0
10652 10059 2 0.4 10.808508375107056 20.214535710186563 54.16196449608182 0 0 0
9634 10007 1 -0.8 10.951775537931532 21.31901957944959 51.14723173269396 0 0 0
9635 10007 2 0.4 9.961296304781825 21.176655588828748 51.37985249332524 0 0 0
9558 1105 3 1.6 12.78435532422108 17.22823892444268 53.61396205612244 0 0 0
9554 4862 1 -0.8 11.768337460116308 18.235187213192617 50.21474013103211 0 0 0
9560 5607 1 -0.8 14.23376511512528 16.676914291792116 53.95329845117979 0 0 0
9559 5609 1 -0.8 12.410515916413292 18.776546111437035 53.53495760374947 0 0 0
9556 10053 3 1.6 12.785586434348273 17.16356742182875 50.82628473534431 0 0 0
9561 10053 1 -0.8 14.0700579593219 17.811337465295047 51.413365687409716 0 0 0
9562 10053 2 0.4 13.24593446056482 17.312037619337822 51.74879402803018 0 0 0
10645 10059 3 1.6 11.418496272157483 19.65041973951758 54.404850417356904 0 0 0
10649 10059 1 -0.8 11.771059338240434 21.11571504306962 54.8207111962356 0 0 0
9572 2280 3 1.6 49.7859843782654 17.79610591559046 51.03019835052707 0 0 0
9574 2283 3 1.6 49.308435560103845 17.595317902359728 54.067219343833614 0 0 0
9571 7915 1 -0.8 48.96840568946533 18.88145855980212 50.198620844868614 0 0 0
9570 7916 1 -0.8 47.81949656341898 17.014586199923517 54.039380832871466 0 0 0
9573 8340 1 -0.8 49.77461576949697 18.122208250127418 52.6058349301303 0 0 0
9575 8346 1 -0.8 49.522150337776516 18.803921159058138 55.10053777421492 0 0 0
10668 9927 3 1.6 48.976981801016485 20.298418070841752 55.013072535379905 0 0 0
10666 9927 1 -0.8 47.56301666143678 19.86903156653345 54.53174622534229 0 0 0
9569 9927 2 0.4 48.45643065981407 19.464287865454075 54.77792609550417 0 0 0
9588 8993 1 -0.8 54.810249850156616 17.229153981009475 52.12357194249761 0 0 0
9581 2298 3 1.6 51.64726486238884 21.407354681947126 50.62244351919441 0 0 0
9583 2299 3 1.6 51.327287099214075 21.374489798076105 53.610280180204434 0 0 0
9587 2544 3 1.6 54.594391010916006 17.421336265041646 50.539151390091334 0 0 0
9589 2545 3 1.6 54.244626757527364 17.434048824705496 53.62585796550003 0 0 0
10676 2563 3 1.6 53.730658085272225 20.20810437636359 54.94149458003901 0 0 0
9577 8339 1 -0.8 51.25700914300253 17.800510805262263 50.372675523698746 0 0 0
9580 8341 1 -0.8 51.74654665871758 20.228927987128845 49.551662710624726 0 0 0
9585 8342 1 -0.8 53.61461638329197 18.651374266512377 50.28332015558246 0 0 0
9584 8344 1 -0.8 52.721142906351105 16.940524836020135 53.772246788311044 0 0 0
9582 8399 1 -0.8 51.56562801749794 20.829088963592753 52.11806740963191 0 0 0
9578 8400 1 -0.8 49.78079567838685 21.158507139431727 53.93217703198471 0 0 0
9586 8403 1 -0.8 52.17769902208348 20.44186301844914 54.62594743830338 0 0 0
9590 8995 1 -0.8 54.33799045840765 18.977987752143317 54.07899831719496 0 0 0
9593 9031 1 -0.8 54.49979372131133 21.55113704725853 54.47415982215861 0 0 0
9659 9030 1 -0.8 55.42616905836784 22.250070958655325 49.80403687897809 0 0 0
9592 8992 1 -0.8 55.962632485107626 17.76133861055782 49.77228612114489 0 0 0
9602 2820 3 1.6 59.349629119862776 17.60142690008092 50.342859713209876 0 0 0
9604 2823 3 1.6 58.75732860905163 18.0023352661389 53.2913343693621 0 0 0
9596 2851 3 1.6 56.54564431666028 21.598547627469813 50.75433205533268 0 0 0
10684 2852 3 1.6 58.5739117256966 20.835615733525845 54.48596490767367 0 0 0
9598 2853 3 1.6 55.86319909778244 21.936142601596128 53.72322152371258 0 0 0
9607 3461 1 -0.8 60.577027181954456 18.632915844150503 50.4872574085361 0 0 0
9606 3462 1 -0.8 60.20881547027955 17.516071206730494 53.788725195932564 0 0 0
9608 3540 1 -0.8 59.461383941281575 22.091475906237488 53.9983639690415 0 0 0
9603 9489 1 -0.8 58.55910546941646 17.568610476296445 51.75078806754239 0 0 0
9595 9490 1 -0.8 57.05625987667218 20.184213613286936 50.15705171863784 0 0 0
9599 9491 1 -0.8 57.63030593028639 17.306723938727753 54.21779194205033 0 0 0
9605 9493 1 -0.8 58.701209642167136 19.608929253917392 53.448789950950896 0 0 0
9597 9535 1 -0.8 55.90846069962077 21.35057024586613 52.21776772073268 0 0 0
9601 9536 1 -0.8 57.037035438712735 21.262451450845607 54.58348876825842 0 0 0
9671 3535 1 -0.8 60.15135384508095 22.53364629476871 49.82187575407371 0 0 0
9613 165 3 1.6 3.287333298867615 23.545280502820145 49.741341836058176 0 0 0
9614 3532 1 -0.8 3.754159649252238 25.086379769021967 49.916694317599855 0 0 0
9615 187 3 1.6 3.3610837582885917 26.57499017764921 50.43983081129806 0 0 0
10689 188 3 1.6 0.6920191245005267 25.304346860962326 54.5914091440798 0 0 0
9617 189 3 1.6 3.312221130495437 26.646486399732154 53.58237349509215 0 0 0
9610 3533 1 -0.8 1.8426765498680089 23.31816559805735 50.417991991125035 0 0 0
9618 3534 1 -0.8 4.30450906700923 22.52853967415147 50.493749709101856 0 0 0
9609 3541 1 -0.8 0.6285091795165807 23.96530260343517 53.68024865034957 0 0 0
9620 3587 1 -0.8 4.598778811173322 27.595784453687678 50.28339320689392 0 0 0
9616 3588 1 -0.8 2.9393813462491964 26.501513449197514 52.00565708515897 0 0 0
9611 3590 1 -0.8 2.1009921339089157 26.075452602235462 54.47631054168952 0 0 0
9619 3593 1 -0.8 4.587796714346368 25.720848952765603 53.947020172635156 0 0 0
10696 509 3 1.6 5.735489391411181 24.93736153871281 54.80815079182339 0 0 0
9627 804 3 1.6 8.067784367840419 26.439792797440614 50.5115114537165 0 0 0
9629 805 3 1.6 8.096528295236839 26.42767082172653 53.53219381451122 0 0 0
9622 4317 1 -0.8 6.82573951064825 23.047298559936205 50.77301853072704 0 0 0
9621 4320 1 -0.8 5.907878620831591 23.457420617543963 54.19456897342368 0 0 0
9623 4337 1 -0.8 7.049934819887588 25.820213551308868 54.594582621157485 0 0 0
9626 4912 1 -0.8 8.362288531855151 24.955213205687603 49.960084284914956 0 0 0
9633 4917 1 -0.8 10.047271901120558 22.841463923975837 53.18138196646665 0 0 0
9632 4945 1 -0.8 9.413552923375548 27.295061238274947 50.41662719367825 0 0 0
9628 4946 1 -0.8 7.4803494213681185 26.446546152082014 52.01959527726471 0 0 0
9631 4947 1 -0.8 9.352791899715578 25.431105895679075 53.430587357843464 0 0 0
10703 10014 3 1.6 9.960247226888796 24.117734237074245 54.13168766843044 0 0 0
10710 10014 2 0.4 10.267047211633946 24.26998973129217 55.00858127918555 0 0 0
10708 10014 1 -0.8 11.231805042061278 24.53897549570192 54.914523351909466 0 0 0
9639 10238 1 -0.8 48.91085956307068 26.272403039012058 49.580228085784455 0 0 0
9640 10301 1 -0.8 49.28500588964184 27.114619594188273 52.57023352252067 0 0 0
9636 10238 2 0.4 49.85495124466933 26.012241838533576 49.56213334464034 0 0 0
9643 8396 1 -0.8 50.82628593748317 24.72674012448845 49.48859202942448 0 0 0
9645 8435 1 -0.8 51.05489615266437 26.834677740289937 50.927040065694605 0 0 0
9644 10238 3 1.6 50.44941222121779 26.258780039583517 49.5848829288858 0 0 0
9646 10301 3 1.6 50.779533681939206 26.717964911852103 52.45861045365914 0 0 0
9637 10301 2 0.4 50.15680838161277 26.933888499852017 52.16131603782314 0 0 0
10714 10301 1 -0.8 51.74439588713735 27.578017088303646 53.337747711883196 0 0 0
10712 10301 2 0.4 52.482169793893156 27.126902372633378 52.88474877032605 0 0 0
10717 2309 3 1.6 51.71167884522642 24.513309893053286 54.18455186281251 0 0 0
9654 2562 3 1.6 54.10593737938396 23.18632056276953 49.90297190815494 0 0 0
9656 2574 3 1.6 54.21638037603528 26.153909650955587 50.63774026571921 0 0 0
9658 2575 3 1.6 53.90619385824381 26.57139735918382 53.53850727333165 0 0 0
9647 8397 1 -0.8 50.41411062316099 22.329654885443503 50.24860141840961 0 0 0
9651 8398 1 -0.8 52.97569014475544 22.335558852341794 50.64887482228752 0 0 0
9650 8402 1 -0.8 51.8308631527557 22.91987859768 53.818696090241716 0 0 0
9648 8436 1 -0.8 50.91442846822637 25.204593475514518 52.97812012030017 0 0 0
9652 8437 1 -0.8 53.10485881990822 25.347212237600043 54.25243392692122 0 0 0
9655 9029 1 -0.8 54.46424212219564 24.54679903840431 50.704456944593296 0 0 0
9657 9053 1 -0.8 53.511803015535975 26.624333169262954 51.99279162178387 0 0 0
9665 9565 1 -0.8 57.99727244403704 27.113449987434464 49.62457470578371 0 0 0
9661 9052 1 -0.8 55.60982711391418 26.97337143987083 50.559349882444494 0 0 0
9660 9055 1 -0.8 55.45199548822028 26.007968018726487 53.54425656279429 0 0 0
9666 2850 3 1.6 58.84399561365429 23.47807148502987 49.95625592851199 0 0 0
9668 2872 3 1.6 59.059722646766126 26.533105410465993 50.69787573176151 0 0 0
10724 2873 3 1.6 56.33163987501251 24.94826465678204 54.35250695246505 0 0 0
9670 2874 3 1.6 58.74115817625872 26.693336270634738 53.77918440540042 0 0 0
9672 3589 1 -0.8 60.28248431095537 26.35946540021321 54.12131136735605 0 0 0
9673 3658 1 -0.8 60.461490522332696 27.306741854002773 50.48095483998074 0 0 0
9667 9533 1 -0.8 59.23324139165984 24.920169863705503 50.590359751656045 0 0 0
9663 9534 1 -0.8 57.7681036145724 22.66311860834752 50.84606627562544 0 0 0
9662 9538 1 -0.8 56.138307976145875 23.514977967407997 53.64870010878267 0 0 0
9669 9566 1 -0.8 58.5375523468068 26.86397516826803 52.18869678393141 0 0 0
9664 9567 1 -0.8 57.86300213145773 25.453011055627364 54.31557995473326 0 0 0
9725 2900 3 1.6 56.566344367218896 27.886525684635664 49.6498745277757 0 0 0
9676 216 3 1.6 0.5874551296937269 31.06630616477758 50.45368178551258 0 0 0
10734 217 3 1.6 3.1032392781299976 29.690312352137106 54.438617182082815 0 0 0
9678 218 3 1.6 0.43465731506719335 30.96490834908414 53.485096447967734 0 0 0
9682 3592 1 -0.8 3.5677149958958068 28.214114054916923 53.93201925391192 0 0 0
9675 3657 1 -0.8 1.0940377325627386 29.56796732145529 50.07289515567806 0 0 0
9681 3660 1 -0.8 1.8396685318317907 32.094411799167446 50.380957309702445 0 0 0
9680 3662 1 -0.8 1.8925830264035783 30.26067764746738 53.531690354295314 0 0 0
9684 3663 1 -0.8 4.348344432197602 30.715383313470866 54.34738414111366 0 0 0
9679 3665 1 -0.8 0.5059581841601779 32.477806125456254 54.070711463015414 0 0 0
9688 528 3 1.6 5.447473689355944 31.06918800932939 50.3194420932277 0 0 0
9689 4377 1 -0.8 4.879523110876956 30.929971041632893 51.818075059213136 0 0 0
9690 529 3 1.6 5.515515906773039 31.071689665671986 53.29381545747108 0 0 0
9687 4374 1 -0.8 6.079855472124903 29.691587786444646 49.75530292865109 0 0 0
10744 814 3 1.6 7.845611069903061 29.439371462040167 54.351090623005526 0 0 0
9693 4376 1 -0.8 6.53390403521737 32.25388358139063 50.39801992525889 0 0 0
9691 4378 1 -0.8 6.074598010214466 32.579298129964336 53.55395900577117 0 0 0
9692 4379 1 -0.8 6.6547690090124405 29.93373295853776 53.378836660612436 0 0 0
9694 4949 1 -0.8 8.384837087239491 27.957785428857246 53.98546914978319 0 0 0
9701 4990 1 -0.8 9.095153526285014 30.765654030914853 51.554114660103146 0 0 0
9696 4991 1 -0.8 9.013265958966794 30.512176301163247 54.16083050379122 0 0 0
9703 4993 1 -0.8 9.223214832271244 32.86408565702555 53.13834877338612 0 0 0
9702 9945 3 1.6 9.607261700647383 31.34046417552917 52.94392862700812 0 0 0
9700 9968 3 1.6 9.594764960778448 30.873808415808597 50.04931427484038 0 0 0
10753 9945 2 0.4 10.180180218298412 31.320868802608842 52.93770344272508 0 0 0
9707 9968 2 0.4 10.134939530848184 31.094568277595403 50.128735468733744 0 0 0
9705 9945 1 -0.8 11.144382076605364 31.19728890638236 52.98990697529491 0 0 0
9704 9968 1 -0.8 11.099958158447455 31.218276664307698 50.07472333970332 0 0 0
9711 10266 1 -0.8 50.68183966899164 29.49771679182273 49.70711818206868 0 0 0
9709 10266 2 0.4 51.63368507843547 29.245229096570437 49.61454709308256 0 0 0
9712 10267 1 -0.8 50.20034308424272 30.232325728885623 53.0770528164572 0 0 0
9710 10267 2 0.4 52.23483656108454 31.311254666062467 53.30791843059841 0 0 0
10760 2584 3 1.6 54.09148425477623 29.58641320947182 54.35998253679602 0 0 0
9716 8477 1 -0.8 52.40815364017045 29.99998144305908 51.58081622872782 0 0 0
9718 8478 1 -0.8 51.90514639937284 32.15993360916966 52.96196089224257 0 0 0
9719 8479 1 -0.8 52.655577493990904 30.23710227620616 54.15241945282591 0 0 0
9721 9054 1 -0.8 54.112266165802616 27.981944699037342 54.282121271565146 0 0 0
9723 9072 1 -0.8 55.08417733045718 30.25160921685368 53.26635850423532 0 0 0
9715 10266 3 1.6 52.11349314157345 30.011132310731945 50.01375646948748 0 0 0
9717 10267 3 1.6 51.72383084238206 30.57543781619376 52.917131802729955 0 0 0
9677 3661 1 -0.8 60.6917145078035 31.04657369923526 51.94167675713564 -1 0 0
9727 2901 3 1.6 56.45493682925895 30.97017124367057 50.07284141767697 0 0 0
10770 2902 3 1.6 58.566169185387004 29.6796385184587 54.63244890393499 0 0 0
9729 2903 3 1.6 56.316656694716464 31.26995890357773 53.083896993076834 0 0 0
9735 3666 1 -0.8 60.11401374810782 30.05985087522694 54.330615723507606 0 0 0
9733 9569 1 -0.8 58.317493916161425 28.08736032088406 54.476072529215294 0 0 0
9726 9608 1 -0.8 56.74510274592152 29.38124821009336 50.24081276786611 0 0 0
9728 9610 1 -0.8 56.55044555890899 31.640346121631463 51.53194452547434 0 0 0
9731 9611 1 -0.8 57.657145059598896 30.531575461689005 53.615900239941844 0 0 0
9730 9613 1 -0.8 56.08611152519148 32.647827395701555 53.88682341551715 0 0 0
9742 246 3 1.6 3.2176826565069163 35.58567811789055 49.9429612740174 0 0 0
10777 247 3 1.6 0.7814949701102856 34.078247331216616 54.11040344299402 0 0 0
9744 248 3 1.6 3.219510979725572 35.439464415156614 52.893839553593494 0 0 0
10783 277 3 1.6 2.9169980565758276 38.48688683851209 53.7220442986795 0 0 0
9741 3732 1 -0.8 3.5012649077119162 34.04369315541615 49.55713196082641 0 0 0
9747 3735 1 -0.8 4.556218416611326 36.46915066768485 50.02358385971981 0 0 0
9743 3736 1 -0.8 2.592575514233895 35.59745398323452 51.42363579215888 0 0 0
9739 3738 1 -0.8 2.299881310395948 34.42975887263212 53.74212258523114 0 0 0
9745 3740 1 -0.8 3.3335516771202154 36.92394267571854 53.54821911480444 0 0 0
9746 3741 1 -0.8 4.662121551538156 34.71600727435128 52.824198658864425 0 0 0
9738 3808 1 -0.8 0.6952930114181605 38.28664315812733 49.817680842573196 0 0 0
9749 4435 1 -0.8 5.813348809222127 38.79617733913203 49.804803915514164 0 0 0
9802 3812 1 -0.8 1.3529277099763382 38.71892564018801 53.40117658169833 0 0 0
10787 539 3 1.6 5.70908016706154 34.12549456003481 53.908689413851086 0 0 0
9753 833 3 1.6 8.107721905046018 36.02133320420656 50.32348282586687 0 0 0
9755 834 3 1.6 8.02600780020548 36.22927507431934 53.36665919805568 0 0 0
9750 4397 1 -0.8 6.914316235753551 35.19765515809969 53.96578608673349 0 0 0
9752 5033 1 -0.8 8.100428272797979 34.41191229466342 50.30415692466323 0 0 0
9758 5034 1 -0.8 9.480420475570929 36.688185602858425 49.84525228794839 0 0 0
9754 5035 1 -0.8 7.707922382168023 36.499264900777256 51.80800447440775 0 0 0
9757 5036 1 -0.8 9.400155573134711 35.43985360040676 53.56193958827384 0 0 0
9756 5038 1 -0.8 8.017111961657786 37.642044976968904 54.125103332525576 0 0 0
10797 10033 3 1.6 9.65956042236287 33.99199951216547 54.170651104798665 0 0 0
9768 10243 1 -0.8 48.438001777243166 34.65356749705627 54.06235450486176 0 0 0
10813 10255 3 1.6 49.03562660388742 38.17822382128919 54.28213643039491 0 0 0
10810 10255 1 -0.8 47.511193235506965 37.83982086152092 54.084164050329946 0 0 0
9862 8579 1 -0.8 49.650514072576954 38.85234576398956 52.993144822172724 0 0 0
9767 10305 1 -0.8 51.49071127855301 34.357858145571896 50.946047531369985 0 0 0
9771 8514 1 -0.8 49.68076811328536 35.863247848613874 52.10060917255593 0 0 0
9773 8518 1 -0.8 49.90202859003073 36.864663788174255 54.402064378629085 0 0 0
9772 10243 3 1.6 49.69025716435194 35.49575550266847 53.636438049987966 0 0 0
9765 10243 2 0.4 50.52780899309127 35.3245135842741 53.09631449246152 0 0 0
10808 10255 2 0.4 49.852218326060495 37.725396864317766 53.96432212807406 0 0 0
9770 10305 3 1.6 50.929474502996456 35.792647456524634 51.14603433684271 0 0 0
9764 10305 2 0.4 51.70825873599257 35.25272445015016 51.25502191789566 0 0 0
9769 10305 1 -0.8 52.12837675281553 36.51944395448926 51.83212492628742 0 0 0
9766 10305 2 0.4 53.07532440111296 36.27168081604094 51.69645886600451 0 0 0
10818 2320 3 1.6 52.15149578597492 33.553223641313515 53.704771545611734 0 0 0
9781 2603 3 1.6 54.08333463709814 35.32612735316239 49.84805193369074 0 0 0
9783 2604 3 1.6 54.17893228575634 35.5843940899485 52.841513172230776 0 0 0
10824 2614 3 1.6 53.510603395529344 38.252235880758334 54.06052994606275 0 0 0
9775 8513 1 -0.8 50.59131938888938 36.414087433467095 49.715719990688314 0 0 0
9774 8515 1 -0.8 51.0399833093506 34.69342735769867 53.62533108003338 0 0 0
9778 8516 1 -0.8 53.46896024401082 34.183718825998646 53.073476320456024 0 0 0
9780 9109 1 -0.8 53.94716109170415 33.71238531167403 49.886661109830364 0 0 0
9782 9112 1 -0.8 54.289178006773454 35.96093687397171 51.29935338838087 0 0 0
9784 9113 1 -0.8 53.69309438760137 36.6762539469539 53.91131519492282 0 0 0
9869 8582 1 -0.8 52.029224192316164 38.76449377977833 53.79342419268581 0 0 0
9877 9132 1 -0.8 54.47421859520227 39.02591032318971 53.01105548201035 0 0 0
9785 9114 1 -0.8 55.73257681812106 35.26589132441955 53.27811311533023 0 0 0
9792 2931 3 1.6 58.98937653830782 35.440406742520814 49.89196079951619 0 0 0
10828 2932 3 1.6 56.6054784217369 34.16651086348518 54.05448066390131 0 0 0
9794 2933 3 1.6 59.065239168599476 35.49834454943943 52.9511509357056 0 0 0
10834 2962 3 1.6 58.534219950994036 38.42394877301529 53.91704000284921 0 0 0
9796 3737 1 -0.8 60.559672748663864 34.90742878816613 53.09532914219556 0 0 0
9791 9653 1 -0.8 58.79715048178163 33.83397640602642 49.831558989372226 0 0 0
9793 9655 1 -0.8 58.76075167665626 35.898801496262706 51.41963295375782 0 0 0
9789 9656 1 -0.8 58.098204078990314 34.313122270736166 53.460370078763845 0 0 0
9795 9658 1 -0.8 58.85786918236225 36.8354214833823 53.84507480138458 0 0 0
9788 9698 1 -0.8 56.19690129894671 38.11915395733079 49.574594351625954 0 0 0
9884 9701 1 -0.8 57.02615244770286 38.76714078864325 53.454392059445034 0 0 0
9798 276 3 1.6 0.37179303024159266 39.86950950992379 49.91268015200059 0 0 0
9800 278 3 1.6 0.3239566239778881 39.86826041823852 52.922049911039416 0 0 0
10838 298 3 1.6 0.5065317703101425 42.807880882712126 53.80293010798624 0 0 0
9807 325 3 1.6 2.819245795332913 44.34688286254393 49.77772783297204 0 0 0
9809 327 3 1.6 2.8745619795273014 44.48473716663093 52.75724061876567 0 0 0
9799 3811 1 -0.8 0.6961217226104269 40.3220066022184 51.422023166673796 0 0 0
9810 3813 1 -0.8 3.763865142525574 39.482817670923886 52.76225875242194 0 0 0
9801 3815 1 -0.8 0.4102763576043947 41.191878573652275 53.84017908387859 0 0 0
9806 3862 1 -0.8 2.7974445088855813 42.73399685918013 49.702122724818345 0 0 0
9804 3865 1 -0.8 1.983822721747011 43.28047142083761 53.36244167316133 0 0 0
9812 3938 1 -0.8 4.410938779281127 43.99865968789779 52.68220181254897 0 0 0
9813 558 3 1.6 5.320590954809065 40.31419728398523 49.66185726763391 0 0 0
9815 559 3 1.6 5.134328943802343 40.343583596722 52.6385213030386 0 0 0
10846 569 3 1.6 5.439398504514246 43.222897631416814 53.64615914121542 0 0 0
9814 4437 1 -0.8 5.320462042667553 40.91969366755266 51.14837330319009 0 0 0
9816 4438 1 -0.8 5.162089944091002 41.62900214435151 53.613701714698806 0 0 0
10793 849 3 1.6 7.54399887552878 39.17822834342909 54.05711726951055 0 0 0
9762 10045 2 0.4 9.455792981711458 40.248815203103426 51.33779488837872 0 0 0
10854 868 3 1.6 10.725947641673267 43.11658580411799 53.42697411613346 0 0 0
9824 897 3 1.6 8.06045407607236 44.70899491380634 52.86145281475445 0 0 0
9817 4439 1 -0.8 6.324057509330296 39.33691242213716 53.022659788500796 0 0 0
9819 4457 1 -0.8 6.963902498705052 43.57545859802195 53.24230637502723 0 0 0
9829 5085 1 -0.8 8.803835545646475 40.88148699933908 51.0074854788745 0 0 0
9825 5086 1 -0.8 8.687069265832978 40.19593836753771 53.564358429373605 0 0 0
9821 5124 1 -0.8 7.194157033767296 43.40315830180664 49.61245824399975 0 0 0
9827 5125 1 -0.8 9.542173612444083 44.080900018418816 52.878157062527656 0 0 0
9830 10045 3 1.6 9.628158468670486 40.51333097571991 52.31032603883564 0 0 0
9834 10045 1 -0.8 10.281649222841104 39.19722923608808 51.762716471002946 0 0 0
9831 5088 1 -0.8 10.638071799199874 41.71208545174513 52.63932740588553 0 0 0
9832 5084 1 -0.8 10.959491058314999 41.10000640247045 49.633663777263536 0 0 0
9833 5126 1 -0.8 12.114555093552475 43.91848335360048 53.297945587570986 0 0 0
9836 5625 1 -0.8 11.738438926907707 43.58572706952107 50.26542560738758 0 0 0
9850 10298 3 1.6 43.88163865415203 44.88773816400928 50.85828627062732 0 0 0
9849 10298 1 -0.8 43.371649648883356 43.40016461456638 50.81554891380509 0 0 0
10866 10254 2 0.4 45.64288052758999 44.122698069342285 54.06426859729245 0 0 0
9859 2380 3 1.6 48.59673054139567 44.31496632890024 50.0620130148358 0 0 0
9861 2382 3 1.6 49.02487085733306 44.36964774930816 53.09979352943116 0 0 0
9856 7937 1 -0.8 47.639477481579405 43.61999403773737 53.30778359782976 0 0 0
9858 8619 1 -0.8 48.608486579075844 42.71596118625305 49.785169391171436 0 0 0
9860 8672 1 -0.8 49.23889416443659 44.62919660935757 51.526710797847784 0 0 0
10870 10254 3 1.6 46.52586206510904 43.923186396126404 54.40813074531734 0 0 0
10868 10254 1 -0.8 45.21296359222531 43.22058491612431 53.98788365289527 0 0 0
9865 2338 3 1.6 51.22709775245034 39.74325167310953 49.6699260900208 0 0 0
9867 2339 3 1.6 51.0846158191299 39.478408394625276 52.71816417986841 0 0 0
10878 2353 3 1.6 51.510906497800875 42.49576594546051 53.660663496948274 0 0 0
9874 2642 3 1.6 53.7049507105774 44.333732261405224 49.96871962298207 0 0 0
9876 2643 3 1.6 53.81259585637072 44.363889350320655 52.95207559492379 0 0 0
9866 8578 1 -0.8 51.537066669491814 39.30099535364763 51.1878066715514 0 0 0
9868 8581 1 -0.8 51.08233408502408 41.08520534566757 53.01245979774227 0 0 0
9864 8620 1 -0.8 50.246547132798796 43.49992291042274 53.701592384005934 0 0 0
9871 8621 1 -0.8 52.68389218134112 43.21744647909577 52.81954837562126 0 0 0
9873 9154 1 -0.8 54.00757690984209 42.75181603066817 49.85605604546592 0 0 0
9879 9191 1 -0.8 55.09019979493659 43.7457999355798 53.73762862885395 0 0 0
9893 3809 1 -0.8 59.5426118276589 40.19125969919816 49.61250836654376 0 0 0
9880 2961 3 1.6 55.986184061218474 39.7133849770646 49.75269530796571 0 0 0
9882 2963 3 1.6 55.8947065864006 39.768291805747204 52.86751469014125 0 0 0
10886 2983 3 1.6 56.341417641960106 42.724301121772825 53.933123577344624 0 0 0
9889 3010 3 1.6 58.51499231356448 44.26902918438997 49.73346592240654 0 0 0
9891 3012 3 1.6 58.7259972888335 44.22548014250464 52.703739514022516 0 0 0
9892 3816 1 -0.8 59.555547040363514 39.24579551545501 52.970668556453255 0 0 0
9894 3864 1 -0.8 60.13387531552777 43.435553860984285 52.797360522283675 0 0 0
9881 9700 1 -0.8 56.18074414270924 40.09339196160842 51.31285775890227 0 0 0
9883 9703 1 -0.8 55.895180664755266 41.18496194314927 53.67679538079729 0 0 0
9888 9731 1 -0.8 58.46397290357992 42.64606506428449 49.80753159549538 0 0 0
9886 9732 1 -0.8 57.521796806982984 43.1718848741311 52.93185250801573 0 0 0
9808 3934 1 -0.8 2.3879053078011196 44.804374205145436 51.26131379910136 0 0 0
10896 328 3 1.6 2.9773753033423755 47.39654729359303 53.86301367142797 0 0 0
9897 356 3 1.6 0.5087419291155966 48.605349270846325 49.912032955193304 0 0 0
9899 357 3 1.6 0.442667750673947 48.76333042130263 52.93211500095995 0 0 0
9896 3936 1 -0.8 0.3874983585864974 47.00458387647371 49.71686423276407 0 0 0
9903 3937 1 -0.8 2.734986987570794 45.80860489221887 53.67024077054199 0 0 0
9901 3939 1 -0.8 1.9706900456867709 48.24531958625701 52.93977750198888 0 0 0
9905 3940 1 -0.8 4.4975372290947355 47.77973482370672 53.49219995274717 0 0 0
9902 4007 1 -0.8 2.0077736447563748 49.139550864031236 49.66369592248726 0 0 0
9898 4011 1 -0.8 0.03181066804495071 49.01007445671707 51.40006112828187 0 0 0
10018 4012 1 -0.8 0.31081251393928344 50.13590923962387 53.77890088897053 0 0 0
9908 4479 1 -0.8 4.862600821551021 47.507185967153944 49.742408458247375 0 0 0
9910 4514 1 -0.8 5.144966880356949 49.41129123735734 51.51701618524539 0 0 0
10030 4515 1 -0.8 5.496478063408695 50.20296403600949 53.98069329902395 0 0 0
9909 597 3 1.6 5.346781507866997 49.03008112746744 49.96441824707393 0 0 0
9911 598 3 1.6 5.531732483907383 48.91983771601147 53.00011676698928 0 0 0
9822 895 3 1.6 7.736583708602523 44.89951258709536 49.81281184602615 0 0 0
9823 5177 1 -0.8 7.7627221405178615 45.272293876618996 51.37624451474444 0 0 0
10903 898 3 1.6 8.049913701109931 47.57505873103431 53.99069504452073 0 0 0
9921 926 3 1.6 10.280830388631896 48.74667705940363 49.48923251754631 0 0 0
9923 927 3 1.6 10.41086309975028 48.901441015462694 52.52670993205337 0 0 0
9914 4513 1 -0.8 6.8850367895414495 49.26556795098672 49.54897005600992 0 0 0
9913 4516 1 -0.8 7.007181525451739 48.27176035023128 52.97386376912724 0 0 0
9915 5180 1 -0.8 7.951884652734862 45.961020583082664 53.88400218741049 0 0 0
9917 5181 1 -0.8 9.533612685714942 48.075728645048464 53.60699552909013 0 0 0
9922 5242 1 -0.8 10.022994873749893 48.40954370698052 51.04678147522161 0 0 0
9840 9946 1 -0.8 14.215900130431857 45.2087586502518 52.3340896990657 0 0 0
9837 1118 3 1.6 12.342941580830626 45.0442933009225 50.06985972502033 0 0 0
9838 5668 1 -0.8 12.121722516359615 45.77795760203414 51.473338974245756 0 0 0
9839 9946 3 1.6 12.75496711286798 45.31661026137388 52.849901534634895 0 0 0
10860 9946 2 0.4 13.29778509037146 45.460075683741 52.030381267846 0 0 0
10910 1119 3 1.6 12.93430098779551 48.039169558753116 53.91621993939947 0 0 0
9933 1146 3 1.6 15.278567833907935 49.01343269822718 49.829696141069505 0 0 0
9935 1147 3 1.6 15.572363245437462 49.23858825249831 52.72493342149535 0 0 0
9925 5244 1 -0.8 11.975287419768044 48.698391717074976 52.801587446898054 0 0 0
9928 5667 1 -0.8 13.851378286524591 45.08872275081 49.58172638961044 0 0 0
9932 5669 1 -0.8 14.573387221200266 47.59399016168154 50.03775943969713 0 0 0
9927 5670 1 -0.8 12.611365195785801 46.47257253882673 53.92420285540509 0 0 0
9929 5671 1 -0.8 14.452610098613745 48.39279846974268 53.518635526906095 0 0 0
9934 5732 1 -0.8 15.12147396894244 49.72361688740886 51.26916846575186 0 0 0
9937 5734 1 -0.8 16.935379398186637 48.42633960575648 52.57198255909855 0 0 0
9939 5973 1 -0.8 18.990626671294596 49.74310267670826 53.57934868610778 0 0 0
9940 5993 1 -0.8 19.402801690546173 48.962188249397876 50.07276104639755 0 0 0
9942 6289 1 -0.8 21.112384649110393 49.352055091496155 52.08492520955348 0 0 0
10918 10086 3 1.6 18.13669632759509 48.40916301562619 53.610261039600225 0 0 0
10922 10086 1 -0.8 19.290338884775625 47.49324305124565 53.12458812642249 0 0 0
10924 10086 2 0.4 19.077110508800207 48.450196744384314 53.32006155406072 0 0 0
9941 10115 3 1.6 20.908956653838544 49.2525566172518 50.50562424789128 0 0 0
9944 10115 1 -0.8 21.88906717769552 48.22981854827531 49.874510060887204 0 0 0
9946 10115 2 0.4 21.491165919404704 49.12255298834399 49.981323472579454 0 0 0
9943 10116 3 1.6 20.578004150700583 49.70869256905539 53.55490060929263 0 0 0
9945 10116 1 -0.8 21.009244825428627 48.890206269092204 54.803172846210266 0 0 0
9947 10116 2 0.4 20.677793440415783 49.69930641509607 54.375736306467786 0 0 0
9967 7237 1 -0.8 37.97764953090133 49.517211477240686 49.35659115979751 0 0 0
9964 9991 3 1.6 36.22461092750419 50.08096759450764 52.412561756485125 0 0 0
9966 9991 1 -0.8 37.018639069076855 48.83217276928554 51.908657079160754 0 0 0
9965 9991 2 0.4 36.87153373929462 49.76602386092837 51.55555350899 0 0 0
9962 10184 3 1.6 36.59878664084439 50.137451780907256 49.80839237768871 0 0 0
9960 10184 1 -0.8 35.39839556829261 49.153202541512556 49.867770627268115 0 0 0
9959 10184 2 0.4 35.66564207758817 50.01036440518036 49.413472112929064 0 0 0
9847 10212 1 -0.8 43.411046620328136 45.33327441351948 54.05023895247162 0 0 0
9846 10298 1 -0.8 42.861779228799655 45.942715946133895 51.39015067589247 0 0 0
10940 1950 3 1.6 43.86722014147559 48.27118270406527 54.2719628256466 0 0 0
9976 7616 1 -0.8 42.706181669003215 49.168623973746655 53.66720728575204 0 0 0
9974 7669 1 -0.8 41.22826053259564 48.72405256905017 51.6016021284649 0 0 0
9975 10185 3 1.6 41.21153005293472 49.04293325076633 53.16190216250143 0 0 0
9972 10185 1 -0.8 40.39984690297711 48.040356028449025 54.060567693046934 0 0 0
9969 10185 2 0.4 41.91810644147914 49.70749041243601 53.49187648835114 0 0 0
9973 10221 3 1.6 41.84579750913011 49.14378437685625 50.20495226900317 0 0 0
9971 10221 1 -0.8 42.97720169929227 48.26018823552905 49.58113208300237 0 0 0
9968 10221 2 0.4 42.91533938932493 49.212434156647284 49.88167316241341 0 0 0
9844 10298 2 0.4 43.77628678955869 45.71172539146441 51.633044562241096 0 0 0
9978 7614 1 -0.8 44.435975808527466 47.242625414841136 53.21261146275662 0 0 0
9851 7613 1 -0.8 45.03395105613305 45.15286371892942 51.892516437806506 0 0 0
9852 10212 3 1.6 44.73133064484761 45.7125732281029 53.33146880863867 0 0 0
9845 10212 2 0.4 43.95470552222402 46.114428942695305 53.74878328454869 0 0 0
9848 10298 2 0.4 45.1996446006109 45.40944698927585 50.97185927340488 0 0 0
9853 7615 1 -0.8 45.97472527283035 45.39064067247095 54.2576779109789 0 0 0
9984 2112 3 1.6 46.16604023168491 48.94490198289047 50.48374662922204 0 0 0
9986 2113 3 1.6 46.41697690552033 49.23374436130654 53.48668483803161 0 0 0
10947 2383 3 1.6 48.71467255120822 47.33446973778748 54.04073328508559 0 0 0
9980 7617 1 -0.8 45.18380734035586 49.168566263932576 54.51150531932571 0 0 0
9987 7958 1 -0.8 47.154594049380144 45.028877764363216 49.990461679513714 0 0 0
9983 7959 1 -0.8 45.939181582471285 47.36344900238717 50.47912459109112 0 0 0
9989 7993 1 -0.8 47.71055166106489 49.19534611033592 49.98242937480037 0 0 0
9985 7994 1 -0.8 45.9466173661968 49.51504753590326 51.970916858869295 0 0 0
9988 7996 1 -0.8 47.33600288753274 47.91736317963807 53.47090058979142 0 0 0
9990 8675 1 -0.8 48.89632466669638 45.73956502930989 53.95571530673541 0 0 0
9999 8674 1 -0.8 52.14310800580665 44.6786700895082 49.705525416298585 0 0 0
9875 9189 1 -0.8 54.17218750860101 44.800343119969895 51.44333274836865 0 0 0
9996 2411 3 1.6 51.206975974791085 48.668781276015835 49.75989168308826 0 0 0
9998 2412 3 1.6 51.132798069932846 48.93030119916642 52.81377286195645 0 0 0
10954 2644 3 1.6 53.5361737609202 47.251455485413814 53.97479057985917 0 0 0
9995 8673 1 -0.8 50.99077370004453 47.067565230007595 49.80935736708229 0 0 0
9992 8676 1 -0.8 49.92902547174714 47.92269475329051 53.14273447374612 0 0 0
9997 8737 1 -0.8 51.099137609958724 49.30562815491588 51.242339150979795 0 0 0
10000 8739 1 -0.8 52.5517796786822 48.196699568676706 53.105746546175006 0 0 0
10002 9190 1 -0.8 53.25095492889976 45.67489172718502 53.721581832434936 0 0 0
10004 9192 1 -0.8 55.07604955720363 47.568901375525314 53.57760266520938 0 0 0
9890 9774 1 -0.8 58.57095023125591 44.84648205165957 51.230918087662786 0 0 0
10961 3013 3 1.6 58.75139594618198 47.055294305780585 53.927509389728364 0 0 0
10008 3041 3 1.6 56.2451200197845 48.64635341154153 50.05665048971517 0 0 0
10010 3042 3 1.6 56.239448080517796 48.569492123877254 53.06930936983341 0 0 0
10016 4013 1 -0.8 60.22731362995552 47.5960571709315 53.551429679969154 0 0 0
10007 9775 1 -0.8 56.00602322304962 47.060963833526706 49.90667414335502 0 0 0
10014 9776 1 -0.8 58.67086585599806 45.444684250057705 53.76524368352464 0 0 0
10012 9777 1 -0.8 57.64617739623282 47.77632270511491 53.00673167901279 0 0 0
10013 9818 1 -0.8 57.76390270164287 48.95218150010126 49.61288745219236 0 0 0
10009 9820 1 -0.8 55.93644841983082 49.07646409838602 51.573621014315755 0 0 0
10148 9821 1 -0.8 56.33551074412631 49.87600667034305 54.01274200535241 0 0 0
10966 358 3 1.6 0.6395639168466078 51.70601661791091 54.01619949251032 0 0 0
10024 385 3 1.6 3.0776494063334456 53.247764069409406 50.183024496710274 0 0 0
10026 387 3 1.6 3.1895912491286915 53.18998121964702 53.20082736571022 0 0 0
10023 4008 1 -0.8 2.6684217100866303 51.697383442957054 49.97588570087872 0 0 0
10020 4015 1 -0.8 2.185403085699057 52.02520431154586 53.692106484719176 0 0 0
10029 4083 1 -0.8 4.628822419679167 53.49280918072216 49.81876525870751 0 0 0
10025 4084 1 -0.8 2.7957482708825423 53.66658179846369 51.713756617044865 0 0 0
10027 4087 1 -0.8 3.1316935890116873 54.45380625336132 54.209040487724906 0 0 0
10028 4088 1 -0.8 4.682987617462469 52.5847939723696 53.13335161971053 0 0 0
10160 4086 1 -0.8 0.3972846572861889 55.850035500334585 50.16650517851057 0 0 0
10042 5243 1 -0.8 10.145209567586912 50.48925602824425 52.71010661762175 0 0 0
10976 599 3 1.6 5.704325667980228 51.80219098006565 54.098491200793326 0 0 0
10986 928 3 1.6 10.634026347118798 51.697415506411836 53.662940086507014 0 0 0
10036 955 3 1.6 8.074782736170095 53.28109942864247 50.21434729200459 0 0 0
10038 957 3 1.6 8.17417303495598 53.421441359236304 53.2614520292898 0 0 0
10032 4517 1 -0.8 7.221880850587768 52.19891782729584 53.719199000730974 0 0 0
10035 5240 1 -0.8 7.640525674803301 51.73224540258053 50.086620361732535 0 0 0
10040 5245 1 -0.8 9.722453551827737 52.98618271624429 53.344683587065944 0 0 0
10041 5296 1 -0.8 9.621853891458398 53.43304833471934 49.76235231431719 0 0 0
10037 5297 1 -0.8 7.857924832043573 53.80397303898495 51.72448850748567 0 0 0
10039 5300 1 -0.8 7.934956586241856 54.68736039764253 54.2261444083278 0 0 0
10054 5733 1 -0.8 15.968225981621519 50.56418891659979 53.55421036625221 0 0 0
10996 1148 3 1.6 15.83123389089472 52.11598060633643 53.900372951280126 0 0 0
10048 1175 3 1.6 13.104044744225451 53.13111763626673 49.98813857288387 0 0 0
10050 1177 3 1.6 13.169127385847721 53.279379533459164 52.98866401662154 0 0 0
10044 5246 1 -0.8 12.188051285587976 52.076298493590194 53.43937733287937 0 0 0
10047 5730 1 -0.8 12.734203002610974 51.56100574712577 49.86722638158539 0 0 0
10052 5735 1 -0.8 14.708592661172219 52.805542601645314 52.976023706785526 0 0 0
10053 5786 1 -0.8 14.664903768671346 53.38661637837143 49.633492190596584 0 0 0
10049 5787 1 -0.8 12.796110028177184 53.68164865502193 51.47486299272725 0 0 0
10051 5790 1 -0.8 13.01672542453741 54.53312533453093 53.99882069659712 0 0 0
10066 6290 1 -0.8 21.21356546391543 51.12664347536053 53.86967243353881 0 0 0
10060 1287 3 1.6 18.25606812413916 52.80891119668415 49.831246525173846 0 0 0
10062 1288 3 1.6 18.285575723960715 53.53659317851685 52.66859210750559 0 0 0
11006 1389 3 1.6 20.939941088615395 52.67014818449683 53.65395079627462 0 0 0
10056 5736 1 -0.8 17.24095940308324 52.89174012480113 53.717416807504634 0 0 0
10059 5994 1 -0.8 18.21550981975854 51.23006389144206 50.093070121238895 0 0 0
10061 6029 1 -0.8 17.694304204846617 53.47941157312153 51.186390690407066 0 0 0
10064 6030 1 -0.8 19.71359434832531 52.801512644599676 52.6322787050164 0 0 0
10063 6031 1 -0.8 18.58800596714829 55.07567880034478 53.0115112657051 0 0 0
9950 9954 1 -0.8 24.038119323025832 50.381550083972854 49.434518687571654 0 0 0
9949 9954 2 0.4 23.462099125851196 51.17029809958718 49.5335938914568 0 0 0
10929 9977 1 -0.8 26.323649708542142 50.846300396347644 54.19034080596671 0 0 0
10072 1415 3 1.6 23.536326316361098 53.89555115319923 50.05412162517191 0 0 0
10074 1417 3 1.6 23.80098651929807 53.92811863121668 52.95707847969066 0 0 0
10071 6288 1 -0.8 23.101939918878195 52.39050723273756 50.33032710478912 0 0 0
10068 6291 1 -0.8 22.276030629141395 53.43158686435566 53.18797902237869 0 0 0
10073 6351 1 -0.8 23.834596351459826 54.57501722571626 51.47913912955295 0 0 0
10075 6353 1 -0.8 24.117909703624157 55.048698291293064 54.05802437602854 0 0 0
10076 6354 1 -0.8 24.967658656274324 52.83426439473649 53.08784670430351 0 0 0
10079 6492 1 -0.8 27.426302671800904 53.189200173914955 54.0423309932253 0 0 0
11016 9977 3 1.6 26.051325496356856 52.39849919807135 54.18487027193274 0 0 0
10089 1611 3 1.6 31.52960140895315 54.75378054613088 49.46624718376789 0 0 0
10088 6791 1 -0.8 29.98902205505274 54.385627576662024 49.810533829843834 0 0 0
10091 6794 1 -0.8 32.58662901532622 53.69264010344772 50.05440548141718 0 0 0
10933 9928 1 -0.8 31.4711022360384 50.6134128116995 54.81543978865502 0 0 0
10083 1610 3 1.6 28.875667384536047 53.23286968151472 50.01803997828337 0 0 0
10085 1612 3 1.6 28.760423478479282 53.3356071512185 53.125805762519626 0 0 0
10082 6739 1 -0.8 29.561973810853086 51.86533066841469 49.57868802528811 0 0 0
10087 6740 1 -0.8 29.95298336094981 52.3109662879139 53.473757987720006 0 0 0
10090 6741 1 -0.8 32.66970909536884 52.273556600984655 53.237014732588435 0 0 0
10084 6792 1 -0.8 28.37521377280322 53.180174989486694 51.56332303453721 0 0 0
10086 6795 1 -0.8 29.29746419829941 54.84054667164564 53.35710179495679 0 0 0
11026 9928 3 1.6 31.386276876070006 52.01739441495396 54.141335047079735 0 0 0
10932 9928 2 0.4 31.44645004471602 51.58016202060108 55.074822478379616 0 0 0
9961 9991 1 -0.8 34.67752359802634 50.26693646422202 52.40498994029407 0 0 0
9963 7239 1 -0.8 36.63981044828537 50.952295208969446 51.174790960423486 0 0 0
10100 7240 1 -0.8 36.73758449302372 50.413294190006845 53.87346720086022 0 0 0
9957 9991 2 0.4 35.39668404247723 50.75928811183139 51.97862675023686 0 0 0
10094 1697 3 1.6 34.0252571860242 52.96298580831626 50.22058789362156 0 0 0
10096 1698 3 1.6 34.12447420553999 52.96712745328246 53.24747809943497 0 0 0
11036 1794 3 1.6 36.70786119701062 51.77208439360597 54.69405314548367 0 0 0
10093 6949 1 -0.8 33.897572735268064 51.4649942248388 49.761318384602816 0 0 0
10095 6984 1 -0.8 34.613277863387026 53.0942888545901 51.723665410607076 0 0 0
10098 6985 1 -0.8 35.29102801636206 52.45833971480214 54.27209806111086 0 0 0
10097 6986 1 -0.8 33.805971744682225 54.47837957657036 53.79874915802875 0 0 0
10102 7241 1 -0.8 37.98945966066877 52.578472074080324 54.15470288246262 0 0 0
10109 7304 1 -0.8 38.498470132202556 55.02124953546449 53.69673012763533 0 0 0
10251 7302 1 -0.8 36.63832416749742 55.762120160043985 49.94537007006813 0 0 0
9977 7666 1 -0.8 42.816342893124116 50.39800737657743 50.36000575033533 0 0 0
10112 7670 1 -0.8 40.75803935802262 50.55204685482541 53.399047712619264 0 0 0
10106 1820 3 1.6 38.90852072371626 53.04034684863771 50.23516447175547 0 0 0
10108 1822 3 1.6 38.840465478579716 53.52920034500767 53.20378368207511 0 0 0
10105 7238 1 -0.8 39.310626095163826 51.498851522529584 50.14122790198227 0 0 0
10107 7301 1 -0.8 38.35301094641236 53.39273983559703 51.69214845214786 0 0 0
11046 1968 3 1.6 41.27780790382029 51.92597402985911 54.01637694158817 0 0 0
10118 1995 3 1.6 43.99306018174965 53.650659271927495 50.18496290904122 0 0 0
10120 1997 3 1.6 44.00052353296364 53.00315058122862 53.20764445906275 0 0 0
10111 7299 1 -0.8 40.32432757139576 53.823427692281506 50.06864157790676 0 0 0
10110 7303 1 -0.8 40.41597831829582 53.14775313861983 53.357783797589455 0 0 0
10114 7671 1 -0.8 42.85903638748902 52.03005464453398 53.75362802810058 0 0 0
10115 7729 1 -0.8 42.83324746347574 54.52144713081972 49.45797698742732 0 0 0
10119 7731 1 -0.8 43.55958052836071 53.389123615963776 51.70796641161925 0 0 0
10121 7733 1 -0.8 44.0475219228478 54.32061914666794 54.15344021346912 0 0 0
10124 7995 1 -0.8 47.23123353986997 50.52870242943669 53.99183035859028 0 0 0
11056 2114 3 1.6 46.6806598572201 52.01247283440486 54.281695999567155 0 0 0
10130 2440 3 1.6 48.732582788752666 52.94849140189666 49.883291118991366 0 0 0
10132 2442 3 1.6 48.9115926850948 53.385006916523515 52.80982767703603 0 0 0
10123 7730 1 -0.8 45.391804018902256 54.450578854454754 50.25206053275928 0 0 0
10122 7734 1 -0.8 45.47935692262061 52.35979192626571 53.248780687381554 0 0 0
10126 7997 1 -0.8 47.94515848564774 52.969685437721445 54.02522114362517 0 0 0
10131 8792 1 -0.8 48.3048004876709 52.83973492455369 51.42766105103303 0 0 0
10133 8795 1 -0.8 49.00239992482692 54.99278642103439 52.79562576653549 0 0 0
10136 8738 1 -0.8 50.92825723634135 50.25445515759481 53.715503738068065 0 0 0
11066 2413 3 1.6 51.34059790994602 51.8067757783038 53.85571583054131 0 0 0
10142 2672 3 1.6 53.81305392231635 52.92483121115205 49.95881569843076 0 0 0
10144 2673 3 1.6 54.04247871681579 52.92673091613548 52.97219585950918 0 0 0
10134 8740 1 -0.8 50.3871112729383 52.748403871427485 52.96740755698883 0 0 0
10138 8741 1 -0.8 52.87890909152793 51.90724954461765 53.39760788032987 0 0 0
10135 8791 1 -0.8 50.28529889394996 53.394044077005816 49.812963446300955 0 0 0
10141 9214 1 -0.8 53.45701142590157 51.355533292298404 49.84404837611857 0 0 0
10143 9249 1 -0.8 53.740032022049185 53.44091544072615 51.48157769517323 0 0 0
10145 9251 1 -0.8 54.065844530890345 54.168292119370825 54.00234369337238 0 0 0
11190 2674 3 1.6 54.20602469066009 55.772086127484044 54.07137826310632 0 0 0
10290 8793 1 -0.8 51.27679145115206 55.834166739684086 50.05718564123784 0 0 0
10147 9248 1 -0.8 55.318904583671966 53.09220617116206 49.41469579583661 0 0 0
10146 9250 1 -0.8 55.451533475975616 52.15014245434778 52.95959300984849 0 0 0
11076 3043 3 1.6 56.52422430370019 51.48046662282997 53.9509100733455 0 0 0
10154 3070 3 1.6 58.928302443094545 52.92517123531205 49.98609036206104 0 0 0
10156 3072 3 1.6 58.90410170722631 53.10805882602875 52.987691792151665 0 0 0
10158 4014 1 -0.8 60.44231838987868 52.643375974291466 53.084486756846424 0 0 0
10159 4085 1 -0.8 60.42473638391618 53.35938356295118 49.601846648444315 0 0 0
10153 9819 1 -0.8 58.809762270794046 51.32209152222809 49.95370120094729 0 0 0
10150 9822 1 -0.8 58.00361248375855 51.85768975419042 53.455814700374766 0 0 0
10155 9864 1 -0.8 58.57434198546871 53.46307820141267 51.459403182118834 0 0 0
10157 9866 1 -0.8 58.61716582969396 54.41180087402571 53.89361353352406 0 0 0
10303 9865 1 -0.8 56.298415782136395 55.423991892901235 50.0730186687896 0 0 0
11090 388 3 1.6 3.4003048943211027 56.04851605642177 54.2548690921912 0 0 0
10161 416 3 1.6 0.6857894254233508 57.43254039891499 50.25047666115179 0 0 0
10163 417 3 1.6 0.8876384045393966 57.287266041504424 53.22157435883357 0 0 0
11086 418 3 1.6 0.810826307042867 60.048515853598225 54.33247355019156 0 0 0
10169 3181 1 -0.8 3.0666419176715216 60.12388059020298 50.60013476961535 0 0 0
10167 3186 1 -0.8 2.3313452642554844 60.45628103255159 53.98767809527265 0 0 0
10172 3187 1 -0.8 4.860080545081324 61.24523122791021 53.74537730403264 0 0 0
10165 4089 1 -0.8 2.4063128238292917 56.753814465568716 53.200371403698476 0 0 0
10170 4090 1 -0.8 4.942015386443499 56.34000754073715 53.91389445014732 0 0 0
10166 4145 1 -0.8 2.2027870818939967 57.74641452008685 49.79767410609298 0 0 0
10171 4146 1 -0.8 4.754408421083899 58.44120553567942 49.501436899816746 0 0 0
10162 4148 1 -0.8 0.5164589784153637 57.88866090958432 51.77879398382998 0 0 0
10164 4150 1 -0.8 0.7138700557470996 58.44697240204317 54.321364233327856 0 0 0
10175 4570 1 -0.8 5.467245112249311 56.79413379021819 51.42034281113975 0 0 0
10185 4639 1 -0.8 9.825438750550086 61.29796508845227 53.77820135377406 0 0 0
10174 627 3 1.6 5.689170476603063 57.18238483220518 49.876725166688104 0 0 0
10176 628 3 1.6 5.831325976658789 57.23660931835212 52.91743658818789 0 0 0
11096 629 3 1.6 5.811295700615138 60.01019493997225 54.13456425434886 0 0 0
11100 958 3 1.6 8.296412673398905 56.25588712836258 54.32852405545866 0 0 0
10187 986 3 1.6 10.717427151375357 57.04658427904586 49.9096436868514 0 0 0
10189 987 3 1.6 10.7896503598744 57.24366347659194 52.93985255260271 0 0 0
11106 988 3 1.6 10.794358174437736 60.045483255334915 54.108392669505655 0 0 0
10179 4569 1 -0.8 7.252152635642203 57.537910521586404 49.687715634995996 0 0 0
10178 4571 1 -0.8 7.392871168690463 57.023992161676254 53.23902613997376 0 0 0
10177 4572 1 -0.8 5.493378091513008 58.79233245886927 53.137324705704515 0 0 0
10180 4573 1 -0.8 7.353587176063272 60.465201469783885 54.03441629878867 0 0 0
10182 4634 1 -0.8 8.045526642222049 59.91279731197307 50.51495907950619 0 0 0
10183 5301 1 -0.8 9.855143928575407 56.470205554339856 53.998276147845374 0 0 0
10188 5349 1 -0.8 10.422441409552963 56.719102607469175 51.46089617123943 0 0 0
10190 5350 1 -0.8 10.52727843017721 58.83404700207 53.07416900864975 0 0 0
9121 1015 3 1.6 13.481755355905618 61.276353774641485 50.44617348833676 0 -1 0
10198 5419 1 -0.8 14.838165158373878 61.372972130755514 53.82030418713649 0 0 0
11110 1178 3 1.6 13.269513716121137 56.10562247163025 54.291534558021304 0 0 0
10200 1206 3 1.6 16.033960690874796 56.96016938162654 50.0690727446586 0 0 0
10202 1207 3 1.6 15.801474743667665 57.344660671945356 53.10689820027017 0 0 0
11116 1208 3 1.6 15.800818220434486 60.12946064179845 54.18033402847162 0 0 0
10192 5348 1 -0.8 12.287817365150936 57.39137779781194 49.78742759982725 0 0 0
10191 5351 1 -0.8 12.339656243209161 56.950557418862935 53.27802342949296 0 0 0
10193 5352 1 -0.8 12.338896984767379 60.50657180999037 53.9987768414855 0 0 0
10195 5414 1 -0.8 13.493104383342315 59.662746704920714 50.44697679752302 0 0 0
10196 5791 1 -0.8 14.8218690100514 56.48913471187383 54.063923458285025 0 0 0
10201 5839 1 -0.8 15.622940602854005 56.76779426687534 51.61471240850158 0 0 0
10203 5840 1 -0.8 15.44972551727722 58.915742401980864 53.180702009472505 0 0 0
10212 6352 1 -0.8 20.229578181533448 55.95885982622475 50.2073629716737 0 0 0
11120 1289 3 1.6 18.51589985408959 56.25702333396445 54.08078145800657 0 0 0
10213 1446 3 1.6 20.73792538109547 57.48634678559848 50.3148674718449 0 0 0
10215 1447 3 1.6 21.11840483255518 57.797565616906084 53.363624055193945 0 0 0
11126 1448 3 1.6 21.116481286881253 60.77308396212832 54.380537952391755 0 0 0
10205 5838 1 -0.8 17.36878778902283 57.8695087224953 50.01319291979468 0 0 0
10204 5841 1 -0.8 17.33498786854214 57.24069622317583 53.599687858088316 0 0 0
10206 5842 1 -0.8 17.359402731877104 60.56192572360179 54.08854084625091 0 0 0
10208 5883 1 -0.8 18.01644429797428 60.38441629576339 49.47039130977387 0 0 0
10211 5886 1 -0.8 19.88948122250129 61.28934468167741 53.467059934829244 0 0 0
10209 6032 1 -0.8 19.942364690100916 57.01640423153448 54.147598802947975 0 0 0
10214 6396 1 -0.8 20.661323589010205 58.01427449696575 51.833835401885956 0 0 0
10216 6397 1 -0.8 21.38884997861959 59.217549561992364 54.07509478438664 0 0 0
11130 1418 3 1.6 23.615676070945817 56.504569017718914 54.48066617290026 0 0 0
10226 1512 3 1.6 26.215462289715372 57.26253786972473 50.53196674221169 0 0 0
10228 1513 3 1.6 26.306391655012494 57.59140373237881 53.671723788762826 0 0 0
11136 1514 3 1.6 26.24881715238873 60.57751285685988 54.27576115331324 0 0 0
10221 6118 1 -0.8 23.480634241089916 59.72623861621215 50.34438250896314 0 0 0
10224 6123 1 -0.8 24.992350548678363 60.976389517334596 53.32894737094443 0 0 0
10217 6355 1 -0.8 22.515442876193998 56.9935368913753 53.40312692743678 0 0 0
10222 6356 1 -0.8 24.934574491386133 57.43477037931329 54.52151783942926 0 0 0
10218 6394 1 -0.8 22.256979674166313 57.523089449410136 49.768286418440894 0 0 0
10223 6395 1 -0.8 24.917653098079803 57.66241420323218 49.64146100012227 0 0 0
10225 6514 1 -0.8 26.626449522581357 55.76766923710944 50.104860956637786 0 0 0
10231 6544 1 -0.8 27.430752312945767 58.280772531217444 50.20667270610716 0 0 0
10227 6545 1 -0.8 25.917054680502744 57.31756572111 52.120080330975476 0 0 0
10230 6546 1 -0.8 27.492359471647067 56.594097049786434 54.15745830501033 0 0 0
10229 6547 1 -0.8 26.790312217570555 59.11573838919955 53.85831260251089 0 0 0
11140 1613 3 1.6 29.020798335041974 56.047731643228886 54.37486096185408 0 0 0
10239 1641 3 1.6 31.28663052300504 57.67914131036819 50.19140019539336 0 0 0
10241 1642 3 1.6 31.399958506656176 57.77542615251888 53.24243477436941 0 0 0
11146 1643 3 1.6 31.27667601144018 60.54990513310488 54.37824572398418 0 0 0
10237 6614 1 -0.8 30.02075191490535 60.90924852123357 53.42866290043263 0 0 0
10238 6793 1 -0.8 31.8047055916532 56.1639639122703 50.2626007703278 0 0 0
10235 6796 1 -0.8 30.10752784531779 57.216911032690554 54.05895293129329 0 0 0
10240 6844 1 -0.8 30.996754687016985 58.135528289147274 51.716462910028795 0 0 0
10242 6845 1 -0.8 31.89335252559068 59.13424568285176 53.94164766706232 0 0 0
10243 6846 1 -0.8 32.645763810910324 56.75014666624135 53.2465403154165 0 0 0
11150 1699 3 1.6 33.91574473880328 56.06282546366345 53.98158022581165 0 0 0
10252 1851 3 1.6 36.44503329974798 57.359458182320395 49.984200627986326 0 0 0
10254 1852 3 1.6 36.41551860399431 57.75147698155859 53.08252192153021 0 0 0
11156 1853 3 1.6 36.05586575035614 60.548219244201384 54.29424162748238 0 0 0
10247 6888 1 -0.8 34.373917654439175 60.29253892486851 49.98813379158118 0 0 0
10248 6987 1 -0.8 35.33076880267407 56.582368254787404 53.36341753203144 0 0 0
10258 7078 1 -0.8 37.62099804611944 60.94342565149786 54.13053718091942 0 0 0
10256 7306 1 -0.8 37.80381535889512 57.509496361141814 53.89932903335168 0 0 0
10253 7346 1 -0.8 36.726726989393384 57.86261691228452 51.498123976408436 0 0 0
10255 7347 1 -0.8 35.76683632281093 59.14876190653477 53.55649823923369 0 0 0
11170 1998 3 1.6 44.10444562741758 55.923787741461084 54.27922857797294 0 0 0
9212 7419 1 -0.8 43.49134831485715 61.174717854194725 51.66626775671563 0 -1 0
11160 1823 3 1.6 38.977635253082624 56.44212668506762 54.24634960690456 0 0 0
10265 2026 3 1.6 41.258115294965435 57.90165921426797 50.11065083238246 0 0 0
10267 2027 3 1.6 41.754047604925304 57.51788756163405 53.10502159453347 0 0 0
11166 2028 3 1.6 41.34718136224004 60.24035591477293 54.34262475469193 0 0 0
10263 7077 1 -0.8 40.15215249448897 60.5807539036567 53.305890541328 0 0 0
10261 7305 1 -0.8 40.35222353875189 56.77451567940413 53.43893198975881 0 0 0
10262 7344 1 -0.8 39.89820497688682 58.73460582354449 49.90473536474468 0 0 0
10271 7422 1 -0.8 42.65315979100585 61.16719645457746 54.15594024773233 0 0 0
10264 7732 1 -0.8 40.95041891051601 56.333213722682906 49.92811548889005 0 0 0
10269 7735 1 -0.8 43.02837680475688 56.540413589808246 53.24722897274855 0 0 0
10266 7776 1 -0.8 41.78222391957188 58.132541037954574 51.613157405845755 0 0 0
10268 7777 1 -0.8 41.84610117749123 58.72697203330959 54.151972295938265 0 0 0
10278 2142 3 1.6 46.328405282504086 57.89943555559144 50.42683747257066 0 0 0
10280 2143 3 1.6 46.49877962098541 57.71553071288129 53.50245519578652 0 0 0
11176 2144 3 1.6 46.37491097116767 60.60034756944825 54.530424756317394 0 0 0
11180 2443 3 1.6 49.0315700817017 56.14664977422684 53.915125083053596 0 0 0
10276 7423 1 -0.8 45.290148411517144 61.28368418953778 53.55641810196527 0 0 0
10274 7736 1 -0.8 45.60383316855259 56.45232886672184 53.97226526393995 0 0 0
10275 7775 1 -0.8 44.89462228378883 58.05975094191004 49.71227218361693 0 0 0
10277 8019 1 -0.8 46.953196196007035 56.471970710195386 50.00142756774043 0 0 0
10283 8049 1 -0.8 47.41144226008349 58.993904638954945 49.97268547895113 0 0 0
10279 8050 1 -0.8 46.06497987719478 58.067380211124295 52.000157207619715 0 0 0
10282 8051 1 -0.8 48.07706160324277 57.37132059974067 53.48933279034583 0 0 0
10281 8052 1 -0.8 46.223409043814925 58.98990414363652 54.44688394057536 0 0 0
10284 8053 1 -0.8 47.89802115985179 60.99655847289852 54.14518785151929 0 0 0
10288 8842 1 -0.8 49.98393926600533 58.1312184338758 49.6548663312307 0 0 0
9242 8889 1 -0.8 53.41197726248492 61.38632490424916 51.75395215679748 0 -1 0
10291 2471 3 1.6 51.230214094111815 57.420028583116 50.40618254329203 0 0 0
10293 2472 3 1.6 51.70814050137703 57.3422429690219 53.414633920492044 0 0 0
11186 2473 3 1.6 51.57968226228124 60.20380913556966 54.4312548614784 0 0 0
10289 8119 1 -0.8 50.41845086664924 60.520177103664885 53.36076431105434 0 0 0
10287 8796 1 -0.8 50.55895465819453 56.55367193304177 54.206365563564525 0 0 0
10296 8843 1 -0.8 52.66098366136471 58.07649331431384 50.024767834819336 0 0 0
10292 8844 1 -0.8 51.05391076230811 57.6675649901095 51.982892165960244 0 0 0
10294 8845 1 -0.8 52.072690658829394 58.686914234251915 54.215561392108945 0 0 0
10295 8846 1 -0.8 53.028068291728644 56.44610149218895 53.20103643435893 0 0 0
10297 8847 1 -0.8 52.85856410609277 61.17345139919872 54.281496082266045 0 0 0
10299 8888 1 -0.8 54.40706321115824 60.02981372276503 49.69678077365774 0 0 0
9256 2710 3 1.6 58.80252040292116 61.3693415870243 50.40021379198392 0 -1 0
10302 8891 1 -0.8 55.395427296761945 61.25560229829606 53.434278532354334 0 0 0
10300 9252 1 -0.8 55.65386627876873 56.20440267226466 53.52318919627726 0 0 0
11200 3073 3 1.6 59.05685611018871 55.95816373261668 54.043811671114454 0 0 0
10304 3101 3 1.6 56.36372384348008 57.02842289270003 50.00296470143922 0 0 0
10306 3102 3 1.6 56.58757250043255 57.41720860937775 53.01133681676793 0 0 0
11196 3103 3 1.6 56.38448548220442 60.31472709954662 54.29966631328606 0 0 0
10313 4149 1 -0.8 60.589941291004514 56.09452340911448 53.575728123180625 0 0 0
10315 4151 1 -0.8 60.45318316851311 60.64509802431553 53.29461397249024 0 0 0
10312 9321 1 -0.8 58.47891883255833 59.802795909160984 50.26319822658428 0 0 0
10310 9325 1 -0.8 57.93018289921721 60.790842927072454 54.17383974924299 0 0 0
10308 9867 1 -0.8 58.12476481496455 56.941708231752116 53.158513329210095 0 0 0
10305 9897 1 -0.8 56.248500845261816 57.68510577516666 51.465217646426396 0 0 0
10307 9898 1 -0.8 56.27146461017078 58.7575417602369 53.861453732751784 0 0 0
1 3110 1 -0.8 0.24701277893804402 2.049881381734501 60.11328274329029 0 0 0
18 4156 1 -0.8 5.25669321065853 1.0824890968533374 59.692375498340084 0 0 0
10321 29 3 1.6 3.0476933610736556 3.3138944231469076 57.74348805676304 0 0 0
10317 30 3 1.6 0.557886534498112 1.7740212018448525 58.5602463952091 0 0 0
10320 3190 1 -0.8 2.7111269255951473 3.632681749925684 56.205041650030616 0 0 0
10322 3191 1 -0.8 2.7593193736205968 4.639108441512373 58.609924971280634 0 0 0
10318 3192 1 -0.8 2.1024342338267243 2.1120476033151037 58.25198580790444 0 0 0
10323 3193 1 -0.8 4.588719311643419 2.8402771278653094 57.84824605470668 0 0 0
10324 4180 1 -0.8 5.326050074080495 0.35808248310497315 57.18193353593506 0 0 0
10316 3195 1 -0.8 0.28017889476258023 0.2188150241757494 58.2149908161465 0 0 0
35 4579 1 -0.8 10.340605104958803 1.1671060946285317 59.75128073690203 0 0 0
10325 430 3 1.6 5.55189000259731 1.591759894373371 58.19173238060079 0 0 0
10329 659 3 1.6 8.094441059353615 3.257250884265401 57.714620985449066 0 0 0
10333 660 3 1.6 10.6348252161469 1.5173543001700895 58.205116373839836 0 0 0
10326 4179 1 -0.8 7.0934041621367445 2.0705369636962714 58.142732728041665 0 0 0
10328 4641 1 -0.8 7.767309470307752 3.669880063315208 56.19134101850906 0 0 0
10330 4642 1 -0.8 7.860428455612643 4.5498320116662025 58.66009404208518 0 0 0
10331 4643 1 -0.8 9.617895728433412 2.7019952918938355 57.7664128712929 0 0 0
10332 4644 1 -0.8 10.470483734729983 0.18136674149864485 57.30543879947741 0 0 0
52 5359 1 -0.8 15.384996854647701 1.0731192731192498 59.744279490237574 0 0 0
10337 1019 3 1.6 13.116521864667314 3.2751400189099082 57.663059764337916 0 0 0
10341 1020 3 1.6 15.607671356121282 1.5789937102162532 58.22724207077335 0 0 0
10334 4645 1 -0.8 12.158153232578847 2.043030453394354 58.07668272073712 0 0 0
10336 5421 1 -0.8 12.895104401895951 3.6115489075002887 56.09776923881092 0 0 0
10338 5422 1 -0.8 12.732427363661023 4.577198052863708 58.53886105545613 0 0 0
10339 5423 1 -0.8 14.657277004263255 2.8438502982304747 57.910483229765234 0 0 0
10340 5424 1 -0.8 15.243838548203861 0.3505223488589708 57.25307701318493 0 0 0
69 6055 1 -0.8 20.598115720602095 2.2344864634096946 60.03202568671836 0 0 0
10345 1230 3 1.6 18.258253853623813 3.0348661460403026 57.55050071298331 0 0 0
10349 1330 3 1.6 20.99938370008671 1.9793025414589427 58.49259980548151 0 0 0
10342 5425 1 -0.8 17.16805251323523 1.95442587353142 58.04261996099772 0 0 0
10344 5888 1 -0.8 17.91262768724068 3.4689429734963646 56.03904475849502 0 0 0
10346 5889 1 -0.8 18.16621089510381 4.315717583540203 58.52011734422876 0 0 0
10347 5890 1 -0.8 19.755788007744865 2.4268557690812935 57.56740428232354 0 0 0
10348 6130 1 -0.8 21.283024753202337 0.4054632047933089 58.31474844310967 0 0 0
86 6401 1 -0.8 25.675969155508383 2.1720461138636646 59.99433709011633 0 0 0
10353 1329 3 1.6 23.509734847034437 3.3541676345805307 57.14300480256092 0 0 0
10357 1460 3 1.6 26.033627117383176 1.9484068557411596 58.43681362952963 0 0 0
10352 6126 1 -0.8 23.16580445209654 3.0881385589092036 55.59716828127771 0 0 0
10354 6127 1 -0.8 23.59984384245094 4.947048670722085 57.31587587795468 0 0 0
10350 6128 1 -0.8 22.344992037216866 2.791225176433958 58.1120235188481 0 0 0
10355 6129 1 -0.8 24.935961331359014 2.6699046961478667 57.49424599534023 0 0 0
10358 6424 1 -0.8 27.50979979929826 2.54290961171132 58.14942125083301 0 0 0
10356 6425 1 -0.8 26.0158183088456 0.3496360686935039 58.168394270017146 0 0 0
103 6554 1 -0.8 30.776140452331642 2.042288875814496 59.48004402281433 0 0 0
10361 1544 3 1.6 28.69182426292422 2.935217986860735 57.12054583568938 0 0 0
10365 1545 3 1.6 31.01712118060326 1.2974335771996695 58.08146091286886 0 0 0
10360 6616 1 -0.8 28.086762362007217 3.053215034183172 55.63865601027763 0 0 0
10362 6617 1 -0.8 29.358813193225576 4.345503880056641 57.53022094529274 0 0 0
10363 6618 1 -0.8 29.832706719500155 1.7953019901092653 57.10834936806489 0 0 0
10366 6620 1 -0.8 32.46689080042209 1.5818566703874428 57.4312465709438 0 0 0
120 7010 1 -0.8 36.627982463719626 1.279587044676655 60.24001243617687 0 0 0
302 6896 1 -0.8 33.798716248036996 5.365077122322298 60.18008488697904 0 0 0
10369 1665 3 1.6 33.81039112947059 2.47988026791695 57.423246481354425 0 0 0
10377 1739 3 1.6 38.75745814460397 3.13515947682796 57.25135642553197 0 0 0
10373 1740 3 1.6 36.55913009599574 1.4663887149916657 58.64136540022291 0 0 0
10368 6893 1 -0.8 34.215567616908785 2.8211939015333507 55.89718553219571 0 0 0
10370 6894 1 -0.8 33.47516829935276 3.821351288576646 58.21329795882001 0 0 0
10371 6895 1 -0.8 35.02991469355455 1.7357858932121968 58.18390367061488 0 0 0
10376 7081 1 -0.8 38.235475151975855 3.0453440280747293 55.733590978868406 0 0 0
10374 7084 1 -0.8 37.56283643536732 2.6618049021392247 58.22740264818642 0 0 0
10372 7085 1 -0.8 37.01872817993641 0.11946815299883726 57.88663069935694 0 0 0
10476 1675 3 1.6 33.75525016481422 5.407957985340314 58.56027796642674 0 0 0
316 7086 1 -0.8 38.835017990767355 5.64814412850501 60.04310436029724 0 0 0
137 7355 1 -0.8 40.75800476810566 1.8481115978369564 59.83827200309944 0 0 0
10378 7082 1 -0.8 39.200354199056534 4.641439517040181 57.618852288634 0 0 0
10385 1884 3 1.6 43.821499236985154 3.069361040721394 57.261882157279594 0 0 0
10381 1885 3 1.6 41.26089274211646 1.6985348784995051 58.32860407658278 0 0 0
10379 7083 1 -0.8 40.07432763693276 2.1960262699037014 57.360348911449016 0 0 0
10384 7426 1 -0.8 43.37720146865052 2.6651092900999975 55.76408341644429 0 0 0
10386 7427 1 -0.8 44.06727995126289 4.666175156965109 57.40606565104753 0 0 0
10382 7428 1 -0.8 42.60635210902134 2.595962475461222 58.209036630625405 0 0 0
10380 7430 1 -0.8 41.59340546257063 0.15057571399087108 58.05547588484451 0 0 0
154 7781 1 -0.8 46.057856908913486 2.4164833470680738 60.09101687022275 0 0 0
10389 2040 3 1.6 46.36177963079704 1.8280017164831817 58.624843947303496 0 0 0
10393 2174 3 1.6 48.86590526030997 3.193452001084078 57.31574317593332 0 0 0
10387 7429 1 -0.8 45.22289146753057 2.349370454220302 57.61325093091323 0 0 0
10390 7804 1 -0.8 47.84842839711916 2.3301134037647833 58.22619940025047 0 0 0
10388 7805 1 -0.8 46.32333148051152 0.20259159122929402 58.59833505643915 0 0 0
10392 8121 1 -0.8 48.558189667261075 2.8090303827473235 55.78344998521332 0 0 0
10394 8122 1 -0.8 48.65449563178144 4.781565959230281 57.577372024387095 0 0 0
171 8059 1 -0.8 51.003588678051 2.060415219981788 60.088393118960845 0 0 0
10397 2175 3 1.6 51.46263016949635 1.9886937554210387 58.549211800330596 0 0 0
10401 2495 3 1.6 54.020278587071815 3.185413275373571 57.384710280114916 0 0 0
10395 8123 1 -0.8 50.40167708702419 2.800397879751328 57.642094070308524 0 0 0
10396 8124 1 -0.8 51.543090147765554 0.4349359643966089 58.0830126712272 0 0 0
10398 8125 1 -0.8 52.92528036298978 2.6662900655726225 58.44187113527566 0 0 0
10400 8893 1 -0.8 53.41227043345416 2.939971045827457 55.9102770867696 0 0 0
10402 8894 1 -0.8 54.325642400137966 4.75971746902923 57.65577951805198 0 0 0
188 9274 1 -0.8 55.86203341368804 1.7007068453184346 59.948412904632875 0 0 0
10403 8895 1 -0.8 55.383710869999206 2.3258247214323218 57.48094884461539 0 0 0
10409 2714 3 1.6 58.85108945535838 3.360370061270527 57.511098115675445 0 0 0
10405 2715 3 1.6 56.472893794752636 1.672914883595817 58.466944988247974 0 0 0
10411 3194 1 -0.8 60.341091515475306 2.763583911666401 57.69547913996744 0 0 0
10408 9327 1 -0.8 58.41882575564056 3.062846743344207 55.989608016481945 0 0 0
10410 9328 1 -0.8 58.810460308409894 4.9527921387205 57.80315063980085 0 0 0
10406 9329 1 -0.8 57.819995434525005 2.571642454139694 58.46763261166689 0 0 0
10404 9330 1 -0.8 56.79554059050522 0.14552902159007006 58.06393837225099 0 0 0
211 3196 1 -0.8 2.6919247174962946 6.557592080465834 60.35339071914846 0 0 0
207 3274 1 -0.8 0.22084460097921685 10.068261696244189 60.37660792391908 0 0 0
222 4221 1 -0.8 5.052310279556341 9.724448095369508 60.33125809729469 0 0 0
10419 59 3 1.6 3.049803986379695 6.212104342641354 58.830026314849 0 0 0
10414 60 3 1.6 0.6548029415164216 7.684205345314291 57.674536441395475 0 0 0
10416 80 3 1.6 0.269510773932734 10.542511696553172 58.84834917442689 0 0 0
10413 3266 1 -0.8 0.1641165957361774 7.327468692275246 56.1888552863627 0 0 0
10417 3267 1 -0.8 2.1579863703824667 7.139334856973365 57.86608049827174 0 0 0
10420 3268 1 -0.8 4.608552760049538 6.501468296269236 58.554965231442814 0 0 0
10415 3269 1 -0.8 0.5614624298560439 9.277678779262788 57.89293873890072 0 0 0
10426 460 3 1.6 5.312178908384821 10.19290205414335 58.81416729905365 0 0 0
10423 4218 1 -0.8 5.137076549512738 6.9443373147669485 56.04358555589985 0 0 0
10425 4219 1 -0.8 5.232197681469545 8.930384099977205 57.799893686989584 0 0 0
226 4646 1 -0.8 7.786196836538743 6.651574281461633 60.28682384307069 0 0 0
237 4713 1 -0.8 10.094499535421246 9.932951388611292 60.15167978922003 0 0 0
10424 450 3 1.6 5.533312730343018 7.351371194583891 57.55110731055614 0 0 0
10429 689 3 1.6 8.076401913910855 6.151238928972149 58.78509153053168 0 0 0
10434 690 3 1.6 10.56879632270593 7.3211911842198205 57.470296573273174 0 0 0
10436 710 3 1.6 10.381551185243147 10.208877550179018 58.581732284724986 0 0 0
10427 4220 1 -0.8 7.085693062964496 6.972805621279037 57.80579715796925 0 0 0
10433 4707 1 -0.8 10.316665455222465 6.837194233087536 55.95041659905371 0 0 0
10430 4708 1 -0.8 9.621863872172822 6.445848281513416 58.434769753571786 0 0 0
10435 4709 1 -0.8 10.15584111737196 8.875409468845076 57.68164664216563 0 0 0
10428 4240 1 -0.8 6.809399461286777 10.797328323080391 58.72596127726102 0 0 0
241 5426 1 -0.8 12.918404292210854 6.556502826716104 60.278666808315755 0 0 0
252 5493 1 -0.8 15.740648549708416 10.564991289104617 60.53022290652839 0 0 0
10439 1049 3 1.6 13.102229695025683 6.140009528273587 58.733994212011204 0 0 0
10444 1050 3 1.6 15.78451717488027 7.379824730791239 57.835616024669086 0 0 0
10446 1070 3 1.6 15.85709276540329 10.233320005363842 58.95746088648589 0 0 0
10437 4710 1 -0.8 12.122643088928939 7.066901124312536 57.840369623586206 0 0 0
10443 5487 1 -0.8 15.40726232394671 7.934405219755319 56.37899868440626 0 0 0
10440 5488 1 -0.8 14.648256335452968 6.32938889733895 58.30146394283435 0 0 0
10445 5489 1 -0.8 15.82334230454024 8.604387164377314 58.871014532639705 0 0 0
10438 4750 1 -0.8 11.94766923055349 10.587688060868576 58.46011191668715 0 0 0
10441 5529 1 -0.8 14.588739900777734 10.803194186101523 58.13963236144885 0 0 0
256 5891 1 -0.8 17.909557412662785 6.293135521253134 60.201272079255794 0 0 0
267 6189 1 -0.8 20.02711200472783 9.643455195615537 59.744044046405556 0 0 0
10449 1240 3 1.6 18.297181386123047 5.914991813798086 58.68677593705949 0 0 0
10454 1360 3 1.6 20.805547395686062 7.173051949346462 57.39051468953444 0 0 0
10456 1380 3 1.6 20.441978323886254 10.026790145413733 58.22304127263538 0 0 0
10447 5490 1 -0.8 17.233301386759045 6.662607547368484 57.73626419896598 0 0 0
10450 5910 1 -0.8 19.823270000523525 6.324721992149655 58.35181133527125 0 0 0
10453 6182 1 -0.8 20.695711999264894 6.614981574561558 55.88432745206487 0 0 0
10455 6185 1 -0.8 20.294296159706253 8.686801181184865 57.3473303711229 0 0 0
10448 5530 1 -0.8 17.21631465599405 10.697391198337755 58.23552289168642 0 0 0
10458 6225 1 -0.8 21.984774815542774 10.388168186836026 58.3603500865233 0 0 0
271 6131 1 -0.8 23.226379640739232 5.549203733423234 59.8355998091954 0 0 0
282 6466 1 -0.8 26.36208879322311 9.322951044091822 60.3291089722627 0 0 0
10459 1359 3 1.6 23.542935452523974 6.159173161369198 58.37269543723531 0 0 0
10464 1480 3 1.6 26.28247964034 7.210356510205673 57.47112498218935 0 0 0
10457 6183 1 -0.8 22.329766501218266 7.130549602493384 57.93509806685795 0 0 0
10460 6184 1 -0.8 25.017009901296337 6.803664877488483 58.393904396137266 0 0 0
10463 6463 1 -0.8 25.793662851159947 7.306700278486829 55.942655561218324 0 0 0
10465 6464 1 -0.8 26.75891163952767 8.661185986375857 57.90164436637851 0 0 0
10467 6465 1 -0.8 27.488759350773528 6.1480481047761355 57.66817316755414 0 0 0
10466 10127 3 1.6 26.04829991331487 9.727983404561751 58.84159450439249 0 0 0
10570 6244 1 -0.8 23.392983650404794 10.10991011198881 56.25425549490359 0 0 0
10461 6245 1 -0.8 24.48806193531738 9.715367503038458 58.606534674491634 0 0 0
10576 10127 2 0.4 25.84831075613556 10.375266511368352 58.53508009124959 0 0 0
10571 10103 3 1.6 23.439492276537077 10.553197397379815 57.77746328710084 0 0 0
286 6621 1 -0.8 29.179000625030476 5.7856718424712374 59.70141243869552 0 0 0
10468 1574 3 1.6 29.030843221624234 5.831303975653511 58.08836082329284 0 0 0
10472 1575 3 1.6 31.598471661052333 7.360699524406486 57.31053036117877 0 0 0
10471 6682 1 -0.8 32.00148172633234 7.617257503360006 55.768639089371995 0 0 0
10469 6683 1 -0.8 30.032802569293064 6.916667445600099 57.43364794078724 0 0 0
10473 6684 1 -0.8 31.92024402872191 8.632042010374231 58.21989962062764 0 0 0
10475 6685 1 -0.8 32.45326854082677 6.11444823949381 57.89569890880436 0 0 0
10474 10288 3 1.6 32.82708052877718 8.635831769685051 59.542835351161415 0 0 0
10577 10288 2 0.4 32.75022818602906 9.067736350182432 60.52510169095005 0 0 0
10578 10288 1 -0.8 33.23432517280538 9.904020949272782 60.342643029442925 0 0 0
312 7144 1 -0.8 36.21037125768955 9.22423687012535 59.66531260231851 0 0 0
459 10161 2 0.4 36.00098352524731 10.462568819014491 59.96696282296125 0 0 -1
10480 1770 3 1.6 36.228156679941634 6.777037533153041 57.18690530107667 0 0 0
10477 6915 1 -0.8 35.17103197986239 5.711535969551141 57.7912813900373 0 0 0
10479 7137 1 -0.8 36.549751664379066 6.520652212290275 55.60850505603497 0 0 0
10483 7139 1 -0.8 37.63336709340954 6.714462789568053 57.991673815880205 0 0 0
10481 7140 1 -0.8 35.71698915466429 8.268905175428243 57.253434138760824 0 0 0
10482 10156 3 1.6 35.82336601659287 9.566148851410194 58.16174468877084 0 0 0
10580 10288 1 -0.8 34.04298542301038 7.700094454470421 59.25885440007408 0 0 0
10579 10288 2 0.4 34.02426761360111 7.579204808124601 60.22694659780777 0 0 0
10484 7175 1 -0.8 37.01339153155647 10.448668783084432 57.48689452708103 0 0 0
10582 10156 1 -0.8 34.404635937119856 10.140834311775023 57.894014414875095 0 0 0
10581 10156 2 0.4 34.96785217857508 9.339597052798672 57.91611597712044 0 0 0
10588 10174 3 1.6 38.488472828139535 11.035553738409572 57.37411312972815 0 0 0
331 7431 1 -0.8 43.621327356925086 5.654766074190542 59.83186208534984 0 0 0
327 7489 1 -0.8 41.61738110248593 9.839378041425963 59.758290305088536 0 0 0
10485 1769 3 1.6 38.98266984704802 5.991907885415395 58.4794762105112 0 0 0
10495 1914 3 1.6 44.002343531337765 6.010843281776213 58.30572622109284 0 0 0
10490 1915 3 1.6 41.40036254069087 7.483068636720719 57.255133830398925 0 0 0
10492 1935 3 1.6 41.096292245140006 10.275755826133238 58.298567450758824 0 0 0
10486 7138 1 -0.8 40.28467658393006 6.934692624858256 58.28297473755992 0 0 0
10489 7482 1 -0.8 41.036180880994095 6.972649222536867 55.773067935117005 0 0 0
10493 7483 1 -0.8 42.87145759469013 6.965497182116428 57.67290808663316 0 0 0
10491 7485 1 -0.8 41.43741083668361 9.08632861697598 57.2646982002593 0 0 0
10587 7189 1 -0.8 39.180778574155845 10.879601885913207 55.92091668286173 0 0 0
10487 7190 1 -0.8 39.50295633303493 10.360509406938121 58.37729482280335 0 0 0
342 7846 1 -0.8 46.02712826663313 10.630226643119556 60.2203454555721 0 0 0
346 8126 1 -0.8 48.52558106627965 5.963321034891112 59.94158745949256 0 0 0
10500 2060 3 1.6 46.408525954145624 7.783619299802342 57.502153070332376 0 0 0
10502 2070 3 1.6 45.92878937712045 10.78920320904942 58.62204533367103 0 0 0
10505 2204 3 1.6 48.88309109125617 6.171551979106643 58.3843807914596 0 0 0
10496 7484 1 -0.8 45.41650030571898 6.810082605213838 58.336860476400226 0 0 0
10499 7843 1 -0.8 46.05441792211409 7.533763286546864 55.9451359403707 0 0 0
10501 7844 1 -0.8 46.24590957212215 9.351314262569478 57.901336373166615 0 0 0
10503 7845 1 -0.8 47.937494478403245 7.321420775942515 57.75768905414535 0 0 0
10507 8229 1 -0.8 49.44796751771107 10.858491556076247 58.30791754187138 0 0 0
357 8193 1 -0.8 51.371432697206714 10.151717292325696 59.95211944993348 0 0 0
361 8896 1 -0.8 53.560412353333454 5.915019906773069 59.923523467884145 0 0 0
10510 2205 3 1.6 51.432782689084405 7.484639447997807 57.35364866080137 0 0 0
10512 2225 3 1.6 50.99320903243735 10.42558297440169 58.41516244608547 0 0 0
10515 2505 3 1.6 54.06638740438753 6.168813630748498 58.42030627312889 0 0 0
10509 8187 1 -0.8 51.05925420262951 7.132543315455698 55.82885558107898 0 0 0
10506 8188 1 -0.8 50.42273476223837 6.66055330256919 58.30120283968852 0 0 0
10511 8189 1 -0.8 51.27024081170057 9.084937413668284 57.55357421102935 0 0 0
10513 8190 1 -0.8 52.95940256186708 7.041838712631639 57.632789929618816 0 0 0
10517 8975 1 -0.8 54.43714975227758 11.207875603891198 58.52612191931246 0 0 0
376 9331 1 -0.8 58.43719891795007 6.132291523693426 60.14752246408594 0 0 0
372 9378 1 -0.8 56.18349129254427 10.17679501550205 60.172383572988046 0 0 0
10516 8915 1 -0.8 55.41842237502111 7.046631289786933 58.54221357184718 0 0 0
10525 2744 3 1.6 58.88385853874868 6.347967833883499 58.62419196838258 0 0 0
10520 2745 3 1.6 56.41889219889107 7.8433510672100955 57.5636525843102 0 0 0
10522 2765 3 1.6 55.95072213071117 10.686886651092413 58.67106262267585 0 0 0
10526 3270 1 -0.8 60.3949415210079 6.904998297995479 58.67635634028052 0 0 0
10519 9373 1 -0.8 56.067931688498405 7.306707172089957 56.08645169306072 0 0 0
10523 9374 1 -0.8 57.941809735686306 7.45981064360025 57.92753073608877 0 0 0
10521 9375 1 -0.8 56.20157168456529 9.440795328114973 57.666488492020235 0 0 0
394 3321 1 -0.8 2.33276780061571 14.635280252221756 60.24526463347422 0 0 0
10536 109 3 1.6 2.72752531178039 14.958102633645076 58.71852637723587 0 0 0
10534 110 3 1.6 2.827961577243294 11.977118925039811 57.925611569643685 0 0 0
10530 139 3 1.6 0.2780007287390328 16.641808157229047 57.582753959660735 0 0 0
10418 3320 1 -0.8 1.5180139951147877 11.559838261455848 58.757153652228844 0 0 0
10533 3389 1 -0.8 2.652328766451837 11.485217441528214 56.412909855391604 0 0 0
10535 3392 1 -0.8 2.8793749343065866 13.586331187112911 57.894238268878105 0 0 0
10531 3393 1 -0.8 1.6797382866643615 15.957669747533027 58.00241479278634 0 0 0
10537 3394 1 -0.8 4.158945061144137 15.675754065226128 58.694475443838414 0 0 0
10421 3395 1 -0.8 4.205964477216255 11.341883543462206 58.494870392944236 0 0 0
10540 489 3 1.6 5.1556478213049415 16.299690750668255 57.60298649074338 0 0 0
10539 4297 1 -0.8 4.806711595545613 15.82173980796283 56.10443969062089 0 0 0
408 4751 1 -0.8 7.025867632445823 14.43599399192931 60.27398413894228 0 0 0
10546 739 3 1.6 7.461034588916104 14.612956880393474 58.72484703886832 0 0 0
10544 740 3 1.6 7.78035144975799 11.660416416902072 57.767143385679816 0 0 0
10550 769 3 1.6 10.243668165221864 15.760507030300149 57.996780899273354 0 0 0
10541 4299 1 -0.8 6.62661144114053 15.786221325819307 57.998105696893816 0 0 0
10431 4749 1 -0.8 9.341516026600644 11.37057864037737 58.11628333126573 0 0 0
10543 4801 1 -0.8 7.505725634310939 11.22186886009145 56.2390735781127 0 0 0
10545 4804 1 -0.8 7.34292179562237 13.21168101460553 57.92707865905401 0 0 0
10547 4805 1 -0.8 8.988712767726327 15.034969972556118 58.758305214056264 0 0 0
10549 4865 1 -0.8 9.856784737005613 15.819951061025732 56.427051143642906 0 0 0
10556 1099 3 1.6 12.690700720464154 14.337749530462453 59.20199682590815 0 0 0
10554 1100 3 1.6 13.18123176607971 11.578761275598566 58.07539244549204 0 0 0
10551 4868 1 -0.8 11.378545924423548 14.637619257891062 58.32534058529291 0 0 0
10553 5581 1 -0.8 12.891493961945162 12.092515636826107 56.585240124720784 0 0 0
10555 5584 1 -0.8 13.136924104981878 12.793953818147774 59.10789984293612 0 0 0
10557 5585 1 -0.8 13.831368295798631 15.22388426319973 58.56935933657538 0 0 0
10559 5608 1 -0.8 13.768624201530175 14.790848714107128 55.755774484812584 0 0 0
10560 10054 3 1.6 14.480367090653505 15.076154413488833 57.133065181061646 0 0 0
10561 5610 1 -0.8 15.429623522285452 13.804105410145288 57.36058678252087 0 0 0
10657 10054 2 0.4 14.508207374237264 15.656047363236846 56.29482793733308 0 0 0
436 5931 1 -0.8 16.4069324130681 12.977317882532331 59.42364925371067 0 0 0
10658 10081 2 0.4 15.88299554359379 13.451818537443618 58.139282209617015 0 0 0
10651 10277 2 0.4 11.941562415320265 16.66901557051946 56.04847835651515 0 0 0
10656 10054 1 -0.8 15.102268299227159 16.40765685379491 56.62598347223331 0 0 0
438 10073 1 -0.8 18.554548441756943 13.545385782910035 59.90254190202281 0 0 -1
578 10073 2 0.4 17.620609799384514 13.207550819821758 59.732267056190054 0 0 -1
10451 5960 1 -0.8 19.598378793255808 11.165378433429392 57.47975542538621 0 0 0
10564 1260 3 1.6 18.070037574641976 11.547588514152263 57.14401771410758 0 0 0
10563 5958 1 -0.8 17.55582908826824 11.163040434963946 55.65452975104967 0 0 0
10565 5959 1 -0.8 17.836639153881535 13.105077027939195 57.30665698330158 0 0 0
10566 10081 3 1.6 16.771662132444778 13.879633957189213 58.17596123629873 0 0 0
10567 10081 1 -0.8 17.015755787654506 15.375640578003138 58.59840337919558 0 0 0
10573 10103 1 -0.8 23.67494703530203 12.07609817810219 57.89252893797628 0 0 0
10574 10103 2 0.4 23.312511343973576 11.170320764732983 57.84776479875042 0 0 0
10575 10127 1 -0.8 26.435723180255987 11.145579538094188 58.3770632998269 0 0 0
460 10161 1 -0.8 35.833996765808806 11.451876914594687 60.06808300455564 0 0 -1
10584 10174 1 -0.8 38.62268084268038 12.514944777505141 57.81846063889205 0 0 0
10583 10174 2 0.4 38.909315650487684 11.570845832135985 57.81855260302555 0 0 0
10592 1945 3 1.6 43.35302563434298 12.040649718172412 57.34779670231832 0 0 0
10494 7525 1 -0.8 41.85861772151764 11.61405364833314 57.81448634115314 0 0 0
10593 7573 1 -0.8 43.700424874530896 13.594974510763716 57.5380824490255 0 0 0
10594 10196 3 1.6 44.271211184948086 14.67052980795662 58.58284104071793 0 0 0
10589 10196 1 -0.8 43.15160542442744 15.362403064892328 59.421948880762194 0 0 0
10659 10196 2 0.4 43.919957496799235 14.70536771693967 59.54072665060429 0 0 0
10591 7572 1 -0.8 43.604957202541776 11.526327368091653 55.84055219622469 0 0 0
477 7526 1 -0.8 44.84859561045706 13.917629870823795 59.857173203743294 0 0 0
490 8231 1 -0.8 49.59455112646237 15.544432867852306 60.384865720961145 0 0 0
10660 10200 2 0.4 46.61378692625726 16.188201587603544 55.737007841771984 0 0 0
10598 2085 3 1.6 46.77017266484967 16.142386121915834 57.579762477638475 0 0 0
10604 2254 3 1.6 49.13977557973356 15.02705017823055 58.94056250031085 0 0 0
10602 2255 3 1.6 48.60798067154661 12.197717380962752 57.966466407744996 0 0 0
10595 7574 1 -0.8 45.25397743127921 15.718366521491319 57.882302653669655 0 0 0
10497 7575 1 -0.8 44.42132190000293 11.21165214343341 58.25558470617106 0 0 0
10504 7865 1 -0.8 47.03240877058437 11.893811277185161 58.17523238117668 0 0 0
10597 7917 1 -0.8 47.22568815356202 15.568353342176868 56.14837335351184 0 0 0
10599 7919 1 -0.8 47.610373266341426 15.395875480348161 58.718502277223905 0 0 0
10601 8281 1 -0.8 48.88225787623723 12.575930988853155 56.426601797560174 0 0 0
10603 8284 1 -0.8 49.209998276546266 13.406191192863885 58.85448193331321 0 0 0
10611 8972 1 -0.8 53.752566466812205 11.39035289873793 56.026544380371476 0 0 0
504 8936 1 -0.8 54.41257642022863 14.32741769727066 59.97259270385353 0 0 0
10608 2284 3 1.6 51.54583183032061 16.25944977736309 57.56745733418094 0 0 0
10614 2534 3 1.6 53.9104234103943 14.8220733599318 58.52914135866929 0 0 0
10612 2535 3 1.6 53.45374792753104 11.964253609972255 57.50009342982541 0 0 0
10514 8230 1 -0.8 51.923492988984414 11.639598731854296 57.884985219329444 0 0 0
10605 8285 1 -0.8 50.046459029649355 15.7298644162537 57.801965243485164 0 0 0
10607 8345 1 -0.8 52.10887322608728 15.818188893229765 56.113218242775936 0 0 0
10609 8348 1 -0.8 52.478185281277646 15.523551294898866 58.6569554442834 0 0 0
10613 8973 1 -0.8 53.77888044358797 13.539749236986815 57.55380591019007 0 0 0
10615 8974 1 -0.8 54.93555197868786 15.913740413494251 57.93099255125111 0 0 0
10529 3464 1 -0.8 60.6174389632613 16.235564744238886 56.07026890208454 -1 0 0
518 9406 1 -0.8 59.09890764010556 14.265887009077705 60.34200210471762 0 0 0
10624 2794 3 1.6 58.80545150101911 14.899943481143719 58.89606409979556 0 0 0
10622 2795 3 1.6 58.456697315433026 12.128176077652377 57.71193302687632 0 0 0
10618 2824 3 1.6 56.47343491465643 16.317456617329388 57.71416410721377 0 0 0
10527 3319 1 -0.8 59.581234345368735 11.237273118637933 58.46313378575476 0 0 0
10625 3468 1 -0.8 59.8717512650619 16.06657758060047 58.57742574704602 0 0 0
10524 9405 1 -0.8 57.00210178099025 11.877308465851256 58.37349083593108 0 0 0
10621 9447 1 -0.8 58.36676728372172 11.657718460054557 56.17671475322467 0 0 0
10623 9449 1 -0.8 58.865273503236615 13.686033692681967 57.82963057500171 0 0 0
10619 9450 1 -0.8 57.35330694544638 15.588869242361053 58.84861043728861 0 0 0
10617 9492 1 -0.8 56.98883235373042 15.788635093741638 56.27891595779076 0 0 0
523 3399 1 -0.8 0.2442424100315942 18.950150569813736 60.1597603130787 0 0 0
540 4261 1 -0.8 5.1047584026498924 18.71638019510517 60.177644196703675 0 0 0
10627 140 3 1.6 0.4848531375697371 19.512880944581642 58.67688110253466 0 0 0
10631 170 3 1.6 3.09720067061724 20.887478028718082 57.7555755883506 0 0 0
10626 3467 1 -0.8 0.39366439590548397 18.256072424172743 57.66734777355719 0 0 0
10628 3470 1 -0.8 1.9450078039489382 20.206952974635612 58.65909348756217 0 0 0
10630 3539 1 -0.8 2.8817026561809245 20.348186561259528 56.2583358786377 0 0 0
10633 3545 1 -0.8 4.547905630254547 20.43483351917838 58.2830623779081 0 0 0
10635 490 3 1.6 5.396563182143843 19.115243436998654 58.64279773594306 0 0 0
10634 4298 1 -0.8 5.003070057894887 17.89995943910395 57.66746065314994 0 0 0
10637 792 3 1.6 7.596510814539018 20.53434076661617 55.355277097129616 0 0 0
10643 770 3 1.6 10.638846873744065 18.754000286679027 59.13110247580179 0 0 0
10639 795 3 1.6 8.109546223030469 20.506402112725638 58.347429379728815 0 0 0
10636 4300 1 -0.8 6.970794501409932 19.36974169340451 58.48342571541054 0 0 0
10642 4867 1 -0.8 10.15713962160761 17.25524824200917 58.70230301502074 0 0 0
10641 4869 1 -0.8 9.47513384402238 19.882754053582698 58.951415014827084 0 0 0
10638 4916 1 -0.8 8.229074466450482 20.863754540412405 56.788583149377665 0 0 0
10640 4920 1 -0.8 7.545029926181605 21.81903168093719 59.117866891744455 0 0 0
10646 5615 1 -0.8 11.016974441857448 18.824800539439924 55.7070679149263 0 0 0
10644 4870 1 -0.8 11.84575577485671 19.061784949171365 58.12655752354708 0 0 0
10647 10277 3 1.6 12.130185662981333 18.332775883547228 56.72417207315737 0 0 0
10650 10277 1 -0.8 13.347038161418762 18.87363636101809 55.93516438925259 0 0 0
10653 10277 2 0.4 12.381061063008952 18.703475200491347 55.798137036610065 0 0 0
10648 10277 1 -0.8 12.190543583337002 16.79761689091518 56.98835276580533 0 0 0
10663 10200 1 -0.8 45.52397616297303 17.006818726370312 55.28601123035957 0 0 0
580 10275 2 0.4 48.689317859165236 20.616220236835 60.53735082624699 0 0 -1
586 7886 1 -0.8 48.14740065340996 18.653234359770043 59.96603159823607 0 0 0
583 10275 1 -0.8 47.87235491232129 21.12880628573144 0.14045221092482973 0 0 0
10670 2300 3 1.6 48.93763696628046 20.89286288201033 57.90467041697162 0 0 0
10664 7918 1 -0.8 47.303382720453094 17.654925475889033 57.62987628126419 0 0 0
10667 7920 1 -0.8 47.48034802895483 20.246809057072486 58.124277354267086 0 0 0
10669 8401 1 -0.8 49.01116867373275 21.19097102706127 56.32922844397395 0 0 0
10665 9974 3 1.6 47.17360412191828 18.796514983541467 58.70948197427027 0 0 0
10662 9974 1 -0.8 45.72104305370505 18.482173494271503 59.159002675210175 0 0 0
10661 9974 2 0.4 46.528775315055306 18.20216560590626 58.65710884144965 0 0 0
10671 8405 1 -0.8 49.45938738456046 22.176994196924497 58.690413534673674 0 0 0
600 8288 1 -0.8 51.18907100982192 18.324878274951843 60.12449711748106 0 0 0
10674 2285 3 1.6 51.26448960792122 19.053498001341072 58.71286447089211 0 0 0
10678 2565 3 1.6 53.88898631485142 20.45888333595126 58.03607391610154 0 0 0
10673 8347 1 -0.8 51.694077131499256 17.847730780718873 57.69620513672081 0 0 0
10672 8349 1 -0.8 49.93358881295338 19.652726149122593 58.10703959429026 0 0 0
10675 8350 1 -0.8 52.448911580827264 20.153917084190454 58.68407878266256 0 0 0
10677 9032 1 -0.8 53.94764217086552 19.91587129393583 56.51016583240644 0 0 0
10679 9034 1 -0.8 54.18781062572321 22.046984263499045 58.00009232565606 0 0 0
10680 9035 1 -0.8 55.049839615743274 19.703219984805234 58.86779752588405 0 0 0
617 9453 1 -0.8 57.164124262241266 18.818829637366584 60.16419043273056 0 0 0
10682 2825 3 1.6 56.58161208657709 19.224862844180905 58.719343813665894 0 0 0
10686 2855 3 1.6 58.8116107290296 21.039824947219998 57.44939192765003 0 0 0
10688 3469 1 -0.8 60.08974231203421 20.628104098599614 58.339710690188156 0 0 0
10681 9494 1 -0.8 56.66098584745796 17.919764380229914 57.77044260875428 0 0 0
10683 9495 1 -0.8 57.4619943964224 20.429672293963424 58.096915359418965 0 0 0
10685 9537 1 -0.8 59.030323884572205 20.426531988516626 55.97361443673314 0 0 0
639 3471 1 -0.8 3.072461746551185 23.228141570387443 60.25276539411323 0 0 0
10632 3544 1 -0.8 2.9502719723001105 22.494339325390374 57.76690806130116 0 0 0
10694 169 3 1.6 2.7140969683308174 23.74698804258366 58.763442885066205 0 0 0
10691 190 3 1.6 0.3417603063544066 25.258092189089755 57.685638515155894 0 0 0
10693 3542 1 -0.8 1.1906793886060787 24.251503051720597 58.62282543795339 0 0 0
10695 3543 1 -0.8 3.6598257365225586 24.988397455125927 58.34190979216922 0 0 0
10690 3591 1 -0.8 0.49922261014258373 24.850817651247215 56.12984758938294 0 0 0
10692 3595 1 -0.8 0.8623563252892206 26.768235180708174 57.913150414797954 0 0 0
10697 4338 1 -0.8 5.335915048093735 24.758282281360028 56.36899349923267 0 0 0
10698 510 3 1.6 5.228264757249767 25.09768707808989 57.95459798450235 0 0 0
744 10015 3 1.6 9.614635021416385 27.786600277412536 60.408746583841065 0 0 -1
653 4871 1 -0.8 8.188551010033931 24.013183556700966 60.31433860613904 0 0 0
743 4951 1 -0.8 9.04102836502774 26.987611709952915 59.15867436186303 0 0 0
10701 794 3 1.6 7.407720185883022 23.428984206963523 59.033548939975766 0 0 0
10700 4339 1 -0.8 5.906545409552257 24.02925505930117 58.97869397264962 0 0 0
10699 4340 1 -0.8 5.840685386246934 26.573390300442952 58.170332785899305 0 0 0
10702 4919 1 -0.8 7.885005628080876 23.90314585412188 57.59303472618492 0 0 0
10704 4948 1 -0.8 9.088183259928536 23.82845469407129 55.403893187588814 0 0 0
10706 4950 1 -0.8 8.847943385533322 25.980180611084908 56.81324790513522 0 0 0
10705 9915 3 1.6 9.168945640568001 24.43242805305485 56.84993041719422 0 0 0
10709 9915 2 0.4 8.345439772607287 24.59403769174141 57.1032282212444 0 0 0
10751 10028 3 1.6 9.504103047077347 27.14393750714426 57.640669254838095 0 0 0
10754 10028 2 0.4 10.030583436856736 26.644947821189675 57.319813940008096 0 0 0
10707 9915 1 -0.8 10.369080709388063 24.002989374949436 57.768320439014296 0 0 0
10752 10028 1 -0.8 10.993881306659164 26.83804814051532 57.34993258320408 0 0 0
676 8351 1 -0.8 49.542933373250435 24.13543119523161 60.481021266115526 0 0 0
10715 10234 3 1.6 48.97128167360048 23.62942284097129 59.0809748568486 0 0 0
10713 10234 1 -0.8 47.403832954726454 23.769803923260813 58.918255168410845 0 0 0
10711 10234 2 0.4 49.567326743024864 23.128866282173743 58.58347889613862 0 0 0
690 8996 1 -0.8 53.631026713074895 23.386289191366014 60.14023289084297 0 0 0
10719 2310 3 1.6 51.138710764368504 24.750033622905654 57.29611209371443 0 0 0
10722 2564 3 1.6 53.557512612446075 23.43724026597035 58.53352649368644 0 0 0
10716 8404 1 -0.8 49.700735840466955 24.489855172255286 57.942564781401735 0 0 0
10718 8438 1 -0.8 51.0503123997647 24.65151860157516 55.668090628929136 0 0 0
10720 8439 1 -0.8 51.78052641918361 26.175308201953822 57.76936822595759 0 0 0
10721 8440 1 -0.8 52.09206920830468 23.5894805411663 57.89659803271142 0 0 0
10723 9033 1 -0.8 54.405311374723844 24.729130397412973 58.05817308539349 0 0 0
10757 10268 3 1.6 51.95274462568451 27.72647113116609 58.19154217769521 0 0 0
10687 9540 1 -0.8 58.66829782053585 22.65574056834777 57.36874607128579 0 0 0
704 9496 1 -0.8 58.72578137272052 23.380364342710248 59.855345852939884 0 0 0
775 9571 1 -0.8 56.09359032080488 27.639773236427217 60.14033333302192 0 0 0
10729 2854 3 1.6 58.45363687466204 23.917921318489785 58.361509414377196 0 0 0
10726 2875 3 1.6 55.7845907897264 25.27724346267757 57.45349024103648 0 0 0
10730 3594 1 -0.8 59.50302802984487 25.100870542114812 58.04518146059437 0 0 0
10728 9539 1 -0.8 56.97072780128029 24.527217799424673 58.25905738791522 0 0 0
10725 9568 1 -0.8 55.87122182586359 24.852924594594214 55.89740581964753 0 0 0
10727 9570 1 -0.8 55.919581923740026 26.881056638582976 57.62216006119963 0 0 0
724 3671 1 -0.8 2.7178954301712075 32.841398599859254 59.89088115852643 0 0 0
728 4341 1 -0.8 5.162564939971305 28.118548111832556 60.153234755898126 0 0 0
10736 219 3 1.6 3.106255208078323 29.710756198436737 57.51136227967405 0 0 0
10731 220 3 1.6 0.567751080958863 28.2651853648175 58.437690834212454 0 0 0
10738 249 3 1.6 2.8948937850403587 32.72849698805123 58.28523822582633 0 0 0
10735 3664 1 -0.8 2.61902343897556 29.626184199067833 55.97267557687879 0 0 0
10737 3667 1 -0.8 3.4449640424221375 31.248367577862822 57.90379229582367 0 0 0
10732 3668 1 -0.8 1.8987531683952161 29.176593186349596 58.43000722583924 0 0 0
10739 3669 1 -0.8 4.380379917562472 28.734370018883094 57.69853150930868 0 0 0
10733 3742 1 -0.8 1.484498676294877 32.98916524810454 57.53942916126244 0 0 0
751 10015 1 -0.8 11.037369678334768 28.332498643875965 60.00616253727031 0 0 -1
739 4996 1 -0.8 7.115476423624966 32.473012844232905 59.811600722470395 0 0 0
10741 530 3 1.6 5.576769641442454 28.108676868538982 58.60031782709952 0 0 0
10746 815 3 1.6 7.904360465416284 29.653740297865074 57.326875171434615 0 0 0
10748 835 3 1.6 7.49661373157714 32.55913979036286 58.24627909663018 0 0 0
10742 4380 1 -0.8 6.863087851809687 29.04483432631349 58.39571982784746 0 0 0
10743 4399 1 -0.8 6.199884305644332 32.851149604314145 57.331531119819424 0 0 0
10745 4992 1 -0.8 7.255708480018302 29.560435843926143 55.849481492055084 0 0 0
10747 4994 1 -0.8 8.208032554749682 31.19518078687758 57.737908895721255 0 0 0
10749 4995 1 -0.8 9.149667628509212 28.648537110147092 57.23714041319511 0 0 0
760 8441 1 -0.8 52.76573020601025 27.92029499364332 59.54801857852322 0 0 0
771 9076 1 -0.8 54.38800876059403 32.76635645232769 59.524966260581465 0 0 0
10756 10268 1 -0.8 50.563680387407274 28.462600504915624 58.27213112418735 0 0 0
10755 10268 2 0.4 52.86552783305511 28.108003936663735 58.59639491101494 0 0 0
10762 2585 3 1.6 54.00237822578494 29.732730673444763 57.3150670595413 0 0 0
10764 2605 3 1.6 53.67527017206321 32.66787420896172 58.080424530877586 0 0 0
10758 8480 1 -0.8 52.987719099156756 28.492723829471604 57.263015686358564 0 0 0
10761 9073 1 -0.8 54.61942582050176 29.959373673263592 55.84293987159774 0 0 0
10763 9074 1 -0.8 53.342577856525274 31.11865652605409 57.783116973196535 0 0 0
10819 8517 1 -0.8 52.29155986386991 33.39157459991545 55.316039144653885 0 0 0
10766 9115 1 -0.8 54.72086909385359 33.332290857373245 57.03914830102738 0 0 0
10816 10273 1 -0.8 50.0455697066841 33.6265112804515 56.701623868021855 0 0 0
713 3596 1 -0.8 0.06353363575024908 28.226298118909803 59.967126019460856 0 0 0
10765 9075 1 -0.8 55.179249012790656 29.326388857504014 58.333989607381035 0 0 0
786 9616 1 -0.8 58.63201348289098 33.30673445075098 59.70902874695753 0 0 0
10772 2904 3 1.6 58.740128496284925 29.689820210404836 57.62938058089905 0 0 0
10767 2905 3 1.6 56.20613749617492 28.128807645153753 58.613124153737786 0 0 0
10774 2934 3 1.6 58.61827525993437 32.652174087904385 58.24809824229578 0 0 0
10775 3670 1 -0.8 60.155230011964434 28.925913105703255 57.50925143417492 0 0 0
10771 9612 1 -0.8 58.210076535677835 30.05145002488391 56.1549624038785 0 0 0
10773 9614 1 -0.8 58.96857683933586 31.085164767423695 58.40098472278842 0 0 0
10768 9615 1 -0.8 57.70361351062269 28.709429625079952 58.38125597347266 0 0 0
10769 9659 1 -0.8 57.17334082003492 32.82031767440742 57.585463550712745 0 0 0
10776 3744 1 -0.8 59.66498681536335 33.446223379233594 57.32414482942497 0 0 0
10740 3743 1 -0.8 3.896254057886423 33.889094690607116 57.77459448373982 0 0 0
791 3746 1 -0.8 0.6118380636725225 37.55637792322576 59.55045507518103 0 0 0
805 4401 1 -0.8 5.316358952290575 37.011796849231835 59.51004676214326 0 0 0
10779 250 3 1.6 0.39506501665778926 34.11570454697063 57.14504008938169 0 0 0
10785 279 3 1.6 3.0242008360310577 38.503261409950994 56.81283499905689 0 0 0
10781 280 3 1.6 0.46621326768149796 37.061446919006436 58.02247105457006 0 0 0
10778 3739 1 -0.8 0.5275124924850234 34.587987524414714 55.613902533865655 0 0 0
10780 3745 1 -0.8 0.590201142922915 35.44326175904864 58.04608561578632 0 0 0
10782 3818 1 -0.8 1.6127250374444977 37.740283691383645 57.090600218755036 0 0 0
10786 3819 1 -0.8 4.23230947711349 37.494989372454604 57.16914075699681 0 0 0
10789 540 3 1.6 5.2731122486354645 34.11421971541685 56.95692578340623 0 0 0
10788 4398 1 -0.8 5.002481389890585 34.12879940773032 55.36941936805482 0 0 0
10784 3814 1 -0.8 3.166984796592681 38.91136477956556 55.257020860556544 0 0 0
10791 560 3 1.6 5.583201265057557 37.01581656642349 57.9247889111145 0 0 0
819 5041 1 -0.8 9.566888933814672 37.368110486170984 59.02869366965375 0 0 0
10806 10033 2 0.4 10.155288660692419 33.91789475383532 54.7534341160692 0 0 0
10750 5039 1 -0.8 8.359473321121666 33.89414126856479 58.088595080034466 0 0 0
10790 4400 1 -0.8 5.930228991264291 35.526232513192426 57.40189108581354 0 0 0
10792 4440 1 -0.8 6.734874507505419 38.11218970572334 57.70255469275278 0 0 0
10798 5037 1 -0.8 8.923697137572903 33.88922734175288 55.57125115809597 0 0 0
10800 5040 1 -0.8 8.89542149396584 36.16782876915542 56.86868451300178 0 0 0
10796 5090 1 -0.8 9.069316827188588 38.629468847519696 56.853324946064674 0 0 0
10801 9976 3 1.6 9.782844034037934 37.346070214983385 57.44067026249352 0 0 0
10799 10034 3 1.6 9.186662099643637 34.614017423183704 56.956859179811225 0 0 0
10805 9976 2 0.4 8.922599586227868 37.12098537705992 57.03436316995829 0 0 0
10804 10034 1 -0.8 10.63745832523547 34.474628516868265 57.48449805543939 0 0 0
10807 10034 2 0.4 9.680679277025687 34.594489702631094 57.352577219787534 0 0 0
10803 10033 1 -0.8 11.12625352586392 33.82720516276331 54.62530694583753 0 0 0
10802 9976 1 -0.8 11.272044629592958 37.29769855079823 56.94265910293463 0 0 0
10815 9943 3 1.6 49.03019015250654 38.6666013823879 57.09327806547062 0 0 0
10811 9943 1 -0.8 47.48599075124898 38.56440899440213 57.1856626154856 0 0 0
10809 9943 2 0.4 48.41471862252297 38.73305342402452 56.942640343781626 0 0 0
10817 8584 1 -0.8 49.71261492997158 37.266926703535695 57.437891393920765 0 0 0
10814 8580 1 -0.8 49.33561362778671 39.04032551492371 55.58393573430979 0 0 0
843 8521 1 -0.8 51.31734909927373 36.37575953127799 59.311839407060525 0 0 0
10759 8520 1 -0.8 52.36143841878689 33.56200072563497 57.9187884883371 0 0 0
10812 10273 2 0.4 51.94479915264033 34.68844760284005 57.06062636120037 0 0 0
10822 2340 3 1.6 51.20147707413517 36.75351329006827 57.72930145860842 0 0 0
10826 2615 3 1.6 53.66326722954945 38.416404453818174 57.1390783760417 0 0 0
10821 8519 1 -0.8 51.724642866626866 35.58045552447758 56.75859193817338 0 0 0
10823 8585 1 -0.8 52.138906798742 38.029872650371736 57.41577011343986 0 0 0
10825 9133 1 -0.8 53.92956006793293 38.68867432721609 55.571313116399736 0 0 0
10827 9135 1 -0.8 54.599573382309316 37.20047689697116 57.6331235147237 0 0 0
10820 10273 3 1.6 51.565645895689556 34.00889169569984 56.61515940635635 0 0 0
857 9661 1 -0.8 56.38337876068272 37.4163542438365 59.584190381624325 0 0 0
10830 2935 3 1.6 56.180834935271776 33.97879851475949 57.08013174372249 0 0 0
10836 2964 3 1.6 58.515717154887554 38.45344615097456 56.985755460327795 0 0 0
10832 2965 3 1.6 56.09962428481836 36.858053117547236 58.09725718607126 0 0 0
10837 3820 1 -0.8 59.727111232875814 37.48466991950989 57.459332409088816 0 0 0
10829 9657 1 -0.8 56.62479341641786 34.50685126932865 55.627724711891744 0 0 0
10831 9660 1 -0.8 56.276218480420695 35.254524791492 58.07412401567488 0 0 0
10835 9702 1 -0.8 58.741093655787274 38.90066118116626 55.44984610802478 0 0 0
10833 9705 1 -0.8 57.136767829400746 37.61215356687315 57.10375673018113 0 0 0
878 3821 1 -0.8 2.8568889629921896 42.00100714451449 59.160118447186875 0 0 0
10844 299 3 1.6 3.1460483531326395 41.50004782267851 57.65357441807585 0 0 0
10840 300 3 1.6 0.5231658849490742 42.841625829344835 56.771871360087786 0 0 0
10843 3817 1 -0.8 3.098981177779802 39.877311610143295 57.66278323968762 0 0 0
10839 3866 1 -0.8 0.19885318915420075 43.35428220256783 55.28368746504421 0 0 0
10842 3867 1 -0.8 1.9751208288723747 42.12423758666851 56.735741107223824 0 0 0
10845 3868 1 -0.8 4.579556369533387 42.0353416134314 57.131529698061435 0 0 0
10841 3869 1 -0.8 0.5163058074841961 44.12386212392975 57.755972281519824 0 0 0
10848 570 3 1.6 5.497638365007115 43.27694499907844 56.63302739786662 0 0 0
10847 4458 1 -0.8 5.113314558183402 43.72882194361465 55.14374408759625 0 0 0
10849 4459 1 -0.8 5.314777734873417 44.51843956323588 57.639815211264555 0 0 0
895 5091 1 -0.8 7.574334083303358 42.916127167643424 59.11742632156778 0 0 0
10795 850 3 1.6 7.618100186238929 39.25579570848123 57.00221215746774 0 0 0
10794 5087 1 -0.8 7.037529863199624 39.565393559876554 55.53633185175184 0 0 0
10852 869 3 1.6 8.0163004241254 42.22495531403091 57.72905368968065 0 0 0
10856 870 3 1.6 10.692375530507293 43.268439314640815 56.52221528951069 0 0 0
10850 4460 1 -0.8 7.045291525828601 42.83444703024174 56.603306797598904 0 0 0
10851 5089 1 -0.8 7.6948519849129084 40.63473749385034 57.82801845010075 0 0 0
10855 5127 1 -0.8 10.474873303711952 42.795842078729706 54.99554295985024 0 0 0
10853 5128 1 -0.8 9.557377612667384 42.552045021114644 57.43466995923182 0 0 0
912 5616 1 -0.8 12.430651786819169 42.257856576892834 59.65708224144418 0 0 0
10858 5130 1 -0.8 12.129246229817493 42.917460186195456 57.13631593445405 0 0 0
10859 10282 3 1.6 12.7523036716174 43.36675733727515 58.54787214898071 0 0 0
10862 10282 1 -0.8 14.253550226799655 43.73323726135182 58.55387276290146 0 0 0
10864 10282 2 0.4 13.357544508859258 44.07417753515959 58.75717958117946 0 0 0
939 8586 1 -0.8 49.79812997716301 42.006379331106345 59.42591408197316 0 0 0
937 10244 1 -0.8 47.96790069886053 40.77816421960656 60.37361181283929 0 0 -1
936 10244 2 0.4 49.07785163163949 41.52243507281858 59.84717658446295 0 0 -1
10867 10213 2 0.4 46.14172622873091 43.03705344780027 56.62596238415062 0 0 0
10876 2354 3 1.6 49.237108344993366 41.44819630225164 58.036048724569085 0 0 0
10871 7938 1 -0.8 47.174268442092774 43.66009837190443 55.832607986373034 0 0 0
10873 7939 1 -0.8 46.50585880422097 44.33071507727669 58.194579773531295 0 0 0
10874 7940 1 -0.8 47.745187460749406 41.98285624797955 57.78014608635011 0 0 0
10875 8583 1 -0.8 49.48086380783899 39.86600360759127 58.0256346565053 0 0 0
10872 10213 3 1.6 46.719471538556256 43.079244301178214 57.2307385847759 0 0 0
10869 10213 1 -0.8 45.338221970466925 42.503161793584866 56.83066771099704 0 0 0
956 9136 1 -0.8 54.47173409788713 41.77032445314147 59.607305889430684 0 0 0
10880 2355 3 1.6 51.60877915602241 42.67465562762012 56.65816928994134 0 0 0
10884 2625 3 1.6 54.06719148662237 41.34681982628038 58.09906032231268 0 0 0
10879 8622 1 -0.8 52.08751870911118 42.32082107353305 55.160239126264614 0 0 0
10877 8623 1 -0.8 50.152326567185504 42.055222824657086 56.86446412110022 0 0 0
10881 8624 1 -0.8 51.49580499893049 44.27866107592821 56.86710324176595 0 0 0
10882 8625 1 -0.8 52.652817579039095 42.03719604577499 57.721202589254666 0 0 0
10883 9134 1 -0.8 54.0125061043388 39.74034880446343 57.99889376120817 0 0 0
10885 9155 1 -0.8 55.205654715260444 41.85416115103423 57.08433993481503 0 0 0
973 9706 1 -0.8 59.41137627457226 41.49296158195483 59.702964220288386 0 0 0
10892 2984 3 1.6 58.918513693845966 41.33054655394495 58.17580689546019 0 0 0
10888 2985 3 1.6 56.462378526473806 42.85005750135475 56.971939704181914 0 0 0
10893 3870 1 -0.8 60.14124883141746 41.743315236568414 57.20785608343604 0 0 0
10891 9704 1 -0.8 58.47124632289387 39.79403172216509 57.900308126448095 0 0 0
10887 9733 1 -0.8 56.93094009510445 42.87350284341858 55.432408378150235 0 0 0
10890 9734 1 -0.8 57.670788643896316 42.333421782167896 57.9142821342069 0 0 0
10889 9735 1 -0.8 55.96504441679857 44.31881042148325 57.421781323338315 0 0 0
982 3874 1 -0.8 0.36727465554247757 46.223925093309255 59.349229731068284 0 0 0
996 4461 1 -0.8 5.130184838761405 46.469112576068376 59.37503144715216 0 0 0
10898 329 3 1.6 3.092667700406143 47.389408881629926 56.889955230981634 0 0 0
10894 330 3 1.6 0.6839370721600142 45.73338217824308 57.845283306955075 0 0 0
10897 3941 1 -0.8 2.6644529963535617 47.79066301933443 55.39468580944738 0 0 0
10899 3942 1 -0.8 2.9381703509619945 48.674167398020124 57.84756858802607 0 0 0
10895 3943 1 -0.8 2.1777262328128515 46.16777477241029 57.42113908783951 0 0 0
10900 3944 1 -0.8 4.630690289452934 46.921231658661 56.872660120545625 0 0 0
10901 580 3 1.6 5.583729544353665 46.09000461514699 57.869235998981054 0 0 0
10973 359 3 1.6 3.232035127148376 50.25572793013954 57.924022351202744 0 0 0
1011 872 3 1.6 10.450429074377396 46.49185291293041 60.40579443060846 0 0 -1
10857 5129 1 -0.8 10.498785724451167 44.861737084345215 56.577997419773276 0 0 0
1010 5133 1 -0.8 10.098228085720473 45.93305999934485 58.97084822248865 0 0 0
10905 899 3 1.6 8.058715999178137 47.67932631421676 57.00194879184028 0 0 0
10908 900 3 1.6 10.67629760471577 46.16135062215969 57.49668180578563 0 0 0
10902 4480 1 -0.8 7.118781902436988 46.486603171249406 57.56990104115316 0 0 0
10904 5182 1 -0.8 7.627108245062796 48.02886664571466 55.48339403505032 0 0 0
10906 5183 1 -0.8 7.894229102446146 48.970348221610976 57.95750342677137 0 0 0
10907 5184 1 -0.8 9.60132264130565 47.25938329230923 56.90933859218772 0 0 0
1030 9942 1 -0.8 16.38811897881125 45.39363771615711 59.90663849199163 0 0 -1
922 9942 2 0.4 15.565255669704454 45.874437643051806 59.63072425278965 0 0 -1
1024 5628 1 -0.8 14.563984546593073 46.489331483396775 58.87833116451416 0 0 0
10861 10282 1 -0.8 12.050085734281707 44.712250707025774 58.904992355329455 0 0 0
10863 10282 2 0.4 11.255617014476394 45.2956743939272 58.92759542192603 0 0 0
10916 10001 1 -0.8 14.56075830546226 45.735227995691616 56.33298008405225 0 0 0
10865 10001 2 0.4 14.469267736155178 46.66185355704184 56.68222486742457 0 0 0
10912 1120 3 1.6 12.900203198318637 48.203629976852596 56.876146573496776 0 0 0
10909 5185 1 -0.8 12.084554417928324 46.9092855493702 57.346819107420934 0 0 0
10911 5672 1 -0.8 12.536927642953112 48.6277342996419 55.36516504447387 0 0 0
10913 5673 1 -0.8 12.619748483929126 49.40453628554974 57.90446147487868 0 0 0
10914 5674 1 -0.8 14.472309022658763 47.989513834832664 56.89255075683572 0 0 0
10915 10001 3 1.6 15.177099908778288 46.66880297673635 57.419040610212214 0 0 0
10917 5675 1 -0.8 16.752414655667305 46.906463754088556 57.30242788076834 0 0 0
10919 5974 1 -0.8 17.504785137011538 48.127426237618195 55.04283468022181 0 0 0
10921 5975 1 -0.8 18.675537544026774 48.7262816665532 57.21711034675035 0 0 0
10920 10087 3 1.6 17.950873871985266 47.54020674045547 56.44257695139163 0 0 0
10923 10087 1 -0.8 18.952113714718994 46.45529719328394 55.968084325998255 0 0 0
10925 10087 2 0.4 18.38699726493958 47.248726798968754 55.81820398665828 0 0 0
10926 10117 1 -0.8 21.85623031332731 50.149433792937465 57.65857441050515 0 0 0
1046 10118 1 -0.8 23.40171756437232 49.89919965822804 60.135381512174206 0 0 -1
10931 9949 1 -0.8 28.123605760936947 49.818036500266345 58.19890989360506 0 0 0
10935 10160 1 -0.8 33.3625760222549 49.90455895089095 59.496226248784055 0 0 0
10937 10186 1 -0.8 38.94353785604903 48.508827032807545 58.65164994932184 0 0 0
1250 7621 1 -0.8 43.27662444163399 49.89996530703164 59.5981377371318 0 0 0
11053 1969 3 1.6 43.87784912109105 50.064627949099965 58.106203391765646 0 0 0
10941 7618 1 -0.8 43.50824073779563 47.57252681812511 55.6510100854084 0 0 0
10942 10222 3 1.6 44.15792791474409 47.26698975524002 57.06417488698311 0 0 0
10939 10222 1 -0.8 43.26184587123715 46.46223830752575 58.076340813004066 0 0 0
10943 7619 1 -0.8 44.57865866704559 48.68894940394438 57.658470438371964 0 0 0
1084 7941 1 -0.8 46.290435323369984 46.55745841113208 59.51950055450746 0 0 0
10938 10222 2 0.4 45.04263858268361 47.35054689443947 57.169264722377726 0 0 0
10945 2095 3 1.6 46.566827284272755 45.925238910567394 58.05443668400755 0 0 0
10949 2384 3 1.6 49.09568504647861 47.40577277153877 57.100957409308236 0 0 0
10944 7620 1 -0.8 45.56995722952692 46.562876015066465 56.97684629412334 0 0 0
10946 7960 1 -0.8 48.063629373955806 46.27938456114299 57.570471314920354 0 0 0
10948 8677 1 -0.8 48.82144408649298 47.843469309458406 55.574000746249475 0 0 0
10950 8678 1 -0.8 48.94480447081157 48.682134415998775 58.08403334179191 0 0 0
1098 8628 1 -0.8 51.0499456615145 45.35841706539666 59.28348732984012 0 0 0
10952 2385 3 1.6 51.51715674066884 45.61869412698205 57.7646541404277 0 0 0
10956 2645 3 1.6 53.86732587978913 47.34694147917503 57.03324442008966 0 0 0
11073 2655 3 1.6 53.96822870793247 50.29757878765255 57.85313361110842 0 0 0
10951 8679 1 -0.8 50.58694842186245 46.7905689769594 57.15932356875918 0 0 0
10953 8680 1 -0.8 53.02865261542666 46.175975572242166 57.75053861986794 0 0 0
10955 9193 1 -0.8 53.321171845742604 47.58314390983613 55.53543645960991 0 0 0
10957 9194 1 -0.8 53.68898124189692 48.71181544453037 57.863115353846474 0 0 0
1112 9738 1 -0.8 55.925672581275236 46.08280991210182 59.38885471084839 0 0 0
10958 9195 1 -0.8 55.40703143624793 46.87388819689137 56.977125557186355 0 0 0
10963 3014 3 1.6 58.887626072530665 47.16013794120457 56.94856140987707 0 0 0
10959 3015 3 1.6 56.294263318827426 45.83981835552168 57.83976849312869 0 0 0
11083 3044 3 1.6 59.014074999905674 50.130332979839295 57.97189010784143 0 0 0
10965 3945 1 -0.8 60.352934124062095 46.49095311473317 56.88772023560228 0 0 0
10962 9778 1 -0.8 58.42071444677311 47.469997515890476 55.44609330928075 0 0 0
10964 9779 1 -0.8 58.87702732218072 48.52933945870927 57.80160442928203 0 0 0
10960 9780 1 -0.8 57.862268115016256 46.10849405245875 57.608611450309354 0 0 0
1132 3946 1 -0.8 2.8909886487193224 50.7767115237295 59.40874007131706 0 0 0
1128 4024 1 -0.8 0.29649301093329333 55.01343880755133 59.60670528419044 0 0 0
1143 4521 1 -0.8 5.425434765849069 55.20364721636253 59.69422305688976 0 0 0
10968 360 3 1.6 0.79347892564213 51.68890528189575 57.03267208502823 0 0 0
10970 390 3 1.6 0.35456445029368017 54.53631240839911 58.0712777106453 0 0 0
10967 4016 1 -0.8 0.3123334526627803 52.08416902829568 55.55146024664696 0 0 0
10971 4017 1 -0.8 2.266448929016739 51.052796357373374 56.918590687273976 0 0 0
10974 4018 1 -0.8 4.763055991644167 50.57931107249846 57.55067673488039 0 0 0
10969 4019 1 -0.8 0.8112113210724861 52.99468413931568 57.97787495659145 0 0 0
10972 4093 1 -0.8 1.414198261405643 55.46981548263011 57.28915215265784 0 0 0
10975 4094 1 -0.8 4.048249413081377 55.14580157683421 57.494078929114934 0 0 0
10977 4518 1 -0.8 5.353053005477885 52.26411529384166 55.60499659569197 0 0 0
10979 4519 1 -0.8 5.473884912527398 53.043215059969135 58.13334562642241 0 0 0
10983 929 3 1.6 8.208701137796616 50.544776384500295 58.095026330019195 0 0 0
1147 5186 1 -0.8 7.8663692146209 51.06932971437512 59.58011490305816 0 0 0
1158 5253 1 -0.8 10.297605505075865 53.94337983554581 59.46880108489072 0 0 0
10978 600 3 1.6 5.701063757357867 51.817058481382645 57.108353347700856 0 0 0
10980 610 3 1.6 5.425032911677501 54.65767097286036 58.18178201490948 0 0 0
10988 930 3 1.6 10.599860054868227 51.80246474696565 56.72557737629965 0 0 0
10990 960 3 1.6 10.437368044470446 54.49710627663 57.95583512508896 0 0 0
10981 4520 1 -0.8 7.238511462907464 51.35377117619649 57.10218487297073 0 0 0
10982 4540 1 -0.8 6.757173000843107 55.209945027981334 57.44761194818152 0 0 0
10987 5247 1 -0.8 10.414333918274215 51.30153327656489 55.21088122674367 0 0 0
10984 5248 1 -0.8 9.736390029773558 50.859946118418414 57.71039435186147 0 0 0
10989 5249 1 -0.8 10.098538265627331 53.32427777153519 56.906650839056056 0 0 0
10985 5304 1 -0.8 9.395020850666732 55.70428038453841 57.71543416660175 0 0 0
1162 5676 1 -0.8 12.831488477392526 51.27535498868159 59.69107195663699 0 0 0
1173 5743 1 -0.8 15.472035387937611 54.28397421335946 59.59821116031915 0 0 0
10993 1149 3 1.6 13.083978236605438 50.92295377039229 58.138296838400805 0 0 0
10998 1150 3 1.6 15.840273368431523 51.75651400320134 56.87085931385829 0 0 0
11000 1180 3 1.6 15.905085966062611 54.556656827463385 58.07519340095974 0 0 0
10991 5250 1 -0.8 12.149389291294913 51.79948795242114 57.165153190543876 0 0 0
10992 5305 1 -0.8 11.976618961752534 54.97313542623091 57.775352934051234 0 0 0
10997 5737 1 -0.8 15.293756197892922 52.17445870203356 55.41659990079322 0 0 0
10994 5738 1 -0.8 14.639931790021784 51.16884691867919 57.78030047506655 0 0 0
10999 5739 1 -0.8 16.387569323017367 53.14102663751842 57.491732004273445 0 0 0
10995 5794 1 -0.8 14.610842724446082 55.167797637923975 57.3029149625351 0 0 0
1177 5976 1 -0.8 18.551843086158474 50.7537554420272 58.85291832802143 0 0 0
1188 6299 1 -0.8 20.398252944525694 54.78916897786 59.880289899715514 0 0 0
11003 1270 3 1.6 18.53489535800193 50.31116363968855 57.29284915756465 0 0 0
11008 1390 3 1.6 20.58939554017518 52.37753935229238 56.42959231831813 0 0 0
11010 1420 3 1.6 20.69413331446129 54.682630692471214 58.31034995396795 0 0 0
11001 5740 1 -0.8 17.04313888772316 50.70197200957726 56.744852626604064 0 0 0
11002 5795 1 -0.8 17.149872289243756 55.58645862075074 57.979504749672536 0 0 0
11004 5995 1 -0.8 19.583285622500636 51.13662566483056 56.40172723096534 0 0 0
11007 6292 1 -0.8 20.40948144889098 53.229215874524286 55.07054148496257 0 0 0
11009 6295 1 -0.8 20.23461374310755 53.27213458332372 57.71688682823334 0 0 0
11121 6033 1 -0.8 18.14687442952129 55.66843715842941 55.53164302995195 0 0 0
1047 10118 2 0.4 23.072889901119392 52.09785281532849 59.87230282297203 0 0 -1
11012 6359 1 -0.8 22.251497908734713 54.953145854540566 57.994391174886275 0 0 0
1192 6246 1 -0.8 22.767579188846284 52.07168571005821 58.953306388347926 0 0 0
1202 6496 1 -0.8 25.786511407752126 55.203183206154385 59.708877046237745 0 0 0
10928 9977 2 0.4 26.14620906575837 52.84094924003647 54.90559919316974 0 0 0
11013 10117 3 1.6 22.926311637797152 51.281163512979155 57.570215163415305 0 0 0
10927 10117 2 0.4 21.953782399277536 51.06354262852414 57.28310900168159 0 0 0
11018 1485 3 1.6 25.67733113111099 52.08034332439761 57.00712628345336 0 0 0
11020 1495 3 1.6 25.85338869433474 54.62170133452562 58.22028823012681 0 0 0
11011 6293 1 -0.8 22.164747028211043 52.12245874945282 56.483493355451 0 0 0
11014 6294 1 -0.8 24.46299295010605 51.027839549982744 57.17628029336134 0 0 0
11015 6360 1 -0.8 24.796185335865204 55.44157824785509 57.330006873610195 0 0 0
11017 6493 1 -0.8 25.478170603468836 52.82924508127805 55.596183875464384 0 0 0
11019 6494 1 -0.8 25.441095816640637 53.093663766778725 58.217727249496285 0 0 0
11022 6515 1 -0.8 27.327286224123586 54.6899074631271 57.5920870819423 0 0 0
11021 6495 1 -0.8 27.26645430373013 51.83092835209494 56.99257751275744 0 0 0
1050 10274 1 -0.8 30.507612994036773 50.67436640835777 59.271578212035884 0 0 -1
1206 6706 1 -0.8 28.847793016029936 52.28445062572587 58.89259301040566 0 0 0
1207 10274 3 1.6 30.022559145841576 51.99039481479422 59.927178546109445 0 0 -1
1051 10274 2 0.4 29.944777797815497 51.45316918598576 59.06247949713473 0 0 -1
1052 10274 1 -0.8 31.245867908433958 52.943785636537136 60.102890993177674 0 0 -1
1053 10274 2 0.4 31.159683989425407 53.21524152503715 59.143017727021494 0 0 -1
1216 6748 1 -0.8 31.846188887636437 55.32068068995306 59.97982294618487 0 0 0
11023 9949 3 1.6 28.548005146412677 51.2638340210806 57.718602959735875 0 0 0
10930 9949 2 0.4 27.976781511520937 52.02638955016071 57.61493013805632 0 0 0
11028 1585 3 1.6 31.24823372056923 52.190531958217065 56.92107392447394 0 0 0
11030 1615 3 1.6 31.21792348194426 54.87833756877639 58.5556309037204 0 0 0
11027 6742 1 -0.8 31.51167109180302 52.84821498310852 55.479341495949335 0 0 0
11024 6743 1 -0.8 29.82098779640262 51.46263448884873 56.78920993586556 0 0 0
11029 6744 1 -0.8 31.098105044168854 53.414921994225075 57.931963019421154 0 0 0
11031 6745 1 -0.8 32.5517368259523 51.38631160528661 57.38179206892474 0 0 0
11025 6799 1 -0.8 29.695897756964698 55.4300911575416 58.505211699821636 0 0 0
11032 6800 1 -0.8 32.11182441474599 55.69040136541342 57.450580091469064 0 0 0
11142 1614 3 1.6 28.573443977733138 55.656056649984485 57.3799753262328 0 0 0
1220 6931 1 -0.8 33.888454118838126 52.117294257666245 59.6117103166493 0 0 0
1231 7249 1 -0.8 35.97925411774972 55.391934041688415 59.667188670315994 0 0 0
10934 10160 2 0.4 33.674178793580154 50.871049874337594 59.473330035535994 0 0 0
11033 10160 3 1.6 33.64455651214659 51.05024412343911 58.47826913598725 0 0 0
11038 1795 3 1.6 36.54327375413734 51.55451373796601 57.86826178862801 0 0 0
11040 1825 3 1.6 36.012505225473454 54.60073562598268 58.251761432869834 0 0 0
11034 6950 1 -0.8 35.10461708939883 50.83507813168015 57.83026432902199 0 0 0
11035 6990 1 -0.8 34.589487102206206 54.769402703365216 57.50738924655056 0 0 0
11037 7242 1 -0.8 36.938421014776644 51.67793778907545 56.29158765288354 0 0 0
11041 7244 1 -0.8 37.73610543567033 50.836123348374436 58.6771351716798 0 0 0
11039 7245 1 -0.8 36.39762077001007 53.05883265743556 58.46035281478305 0 0 0
11042 7310 1 -0.8 37.142058127060885 55.30650943532121 57.30096889288695 0 0 0
1235 7191 1 -0.8 39.803837300999184 50.637974785425584 60.00760565457333 0 0 0
1246 7679 1 -0.8 41.27393278484569 54.73535242231494 59.91549438161204 0 0 0
11043 10186 3 1.6 39.133679075113584 50.06909025523223 58.69374105708217 0 0 0
10936 10186 2 0.4 38.94235517537275 50.661479601913754 59.572639907092345 0 0 0
11048 1970 3 1.6 41.33621923939855 51.45039083633038 57.09779738827745 0 0 0
11050 2000 3 1.6 41.093386646186296 54.26146150889922 58.369550716449695 0 0 0
11044 7243 1 -0.8 40.04551175324993 50.590991402296126 57.47751140999905 0 0 0
11045 7309 1 -0.8 39.58998400283289 54.53388612763784 57.84436850470108 0 0 0
11047 7672 1 -0.8 41.096042063328795 52.040442418055605 55.61406632072354 0 0 0
11051 7673 1 -0.8 42.682498685090636 50.54809145786227 57.128057374740614 0 0 0
11049 7675 1 -0.8 41.494543296826606 52.71645733996872 58.122326068299024 0 0 0
11052 7739 1 -0.8 42.04170760950962 55.240503211510855 57.482521396224534 0 0 0
1265 8681 1 -0.8 49.108596375889476 50.96587140278572 59.48026140838863 0 0 0
1261 8001 1 -0.8 46.02163761755757 55.23132552110013 59.7588071138977 0 0 0
11063 2414 3 1.6 48.95876665724566 50.29399914883141 58.02261954541927 0 0 0
11058 2115 3 1.6 46.328953544958516 51.852551904198954 57.34332087427573 0 0 0
11060 2125 3 1.6 46.08649351152944 54.747539157633604 58.23184232149869 0 0 0
11054 7674 1 -0.8 45.03703157058155 51.20861172456311 58.06792202394932 0 0 0
11055 7740 1 -0.8 44.604143623557135 54.793989274527654 57.61832695142587 0 0 0
11057 7998 1 -0.8 46.085364883904965 52.17330366556192 55.77643661379977 0 0 0
11059 7999 1 -0.8 46.67192763626718 53.24811500559416 58.097001317804455 0 0 0
11061 8000 1 -0.8 47.57854467964306 50.82850738679056 57.38831882651754 0 0 0
11062 8020 1 -0.8 47.02176782382158 55.7900979195264 57.449145939299164 0 0 0
11181 8797 1 -0.8 48.44109271562143 55.608233549399415 55.30083297144939 0 0 0
11065 8799 1 -0.8 49.492527167390996 54.85997636587765 57.544888682507754 0 0 0
1280 9196 1 -0.8 53.88105299169192 50.845617062117384 59.35880147207846 0 0 0
1276 8748 1 -0.8 51.209699798174704 55.082978883105554 59.47334553910896 0 0 0
11068 2415 3 1.6 51.43030481608921 51.76624135056034 56.85897515608739 0 0 0
11070 2445 3 1.6 51.013486161135404 54.566997366489716 57.96840683790257 0 0 0
11067 8742 1 -0.8 51.22223490830416 52.328829786834085 55.37016096491851 0 0 0
11064 8743 1 -0.8 50.25207276185629 50.70771972735982 57.149569727821614 0 0 0
11069 8744 1 -0.8 51.33269833129982 52.98985600289298 57.897416188686854 0 0 0
11071 8745 1 -0.8 52.880091236621624 51.05662131721343 56.93905016380721 0 0 0
11072 8800 1 -0.8 52.04986667718207 55.37342496879727 57.03123013746972 0 0 0
11075 9255 1 -0.8 54.537386352967644 54.72516773722649 57.57331227716146 0 0 0
1295 9781 1 -0.8 58.61186610432612 50.504663279381994 59.48798218913891 0 0 0
1291 9828 1 -0.8 56.264812059191215 54.98964976758846 59.51825637926255 0 0 0
11074 9215 1 -0.8 55.46110384624049 50.53778701339383 57.30836277336834 0 0 0
11078 3045 3 1.6 56.572006702046124 51.636649741125595 56.92702153814847 0 0 0
11080 3075 3 1.6 56.06594554002749 54.474573144277215 58.00723727301588 0 0 0
11084 4020 1 -0.8 60.531527995294546 50.57398597811942 57.662537664818544 0 0 0
11085 4095 1 -0.8 59.60757668167161 54.69363632393844 57.42106732461308 0 0 0
11077 9823 1 -0.8 56.30068067107664 52.105275458277326 55.41592908263417 0 0 0
11081 9824 1 -0.8 58.0279909337641 50.944948339970026 56.9934864972088 0 0 0
11079 9825 1 -0.8 56.44925946034659 52.907535822969884 57.9115285419848 0 0 0
11082 9870 1 -0.8 57.06396786006963 55.32274752217574 57.06799814720232 0 0 0
1314 4096 1 -0.8 2.853927845102093 59.41906382546753 59.989512591675485 0 0 0
11092 389 3 1.6 2.854454736190816 56.19966630546795 57.2050228826657 0 0 0
11094 419 3 1.6 3.188890625351613 59.027413597941454 58.46362050900645 0 0 0
11088 420 3 1.6 0.6824406924532432 60.321329318494506 57.324449591365784 0 0 0
11091 4091 1 -0.8 3.068885983766153 56.69193445135377 55.69200503431442 0 0 0
11093 4092 1 -0.8 2.9200515090038333 57.44587681661671 58.230062105226395 0 0 0
11087 4152 1 -0.8 0.4393890489315161 60.64840189367356 55.775156646998944 0 0 0
11089 4153 1 -0.8 2.230364087317811 59.91192874603123 57.51679685841115 0 0 0
11095 4154 1 -0.8 4.730791212282343 59.360624953466505 58.14141927359729 0 0 0
11097 4574 1 -0.8 5.517261765597574 59.58977777123996 55.6601489651197 0 0 0
1330 5306 1 -0.8 7.9907527942989205 59.43738962742627 60.10394818368662 0 0 0
11098 630 3 1.6 5.698964977974704 60.177664972050955 57.145967734659656 0 0 0
11102 959 3 1.6 7.940422871300632 56.304986791636864 57.33084672994029 0 0 0
11104 989 3 1.6 8.145701567784748 59.060475869937136 58.54840429388808 0 0 0
11108 990 3 1.6 10.736330219155702 59.97419619656236 57.15975115588693 0 0 0
11099 4575 1 -0.8 7.230657281748662 60.018045381501146 57.63017175678501 0 0 0
11101 5302 1 -0.8 7.978904154751341 56.817838590464625 55.80144029092964 0 0 0
11103 5303 1 -0.8 7.64888166242259 57.54368297817164 58.31450882802862 0 0 0
11107 5353 1 -0.8 10.505039325707827 59.55168751986858 55.618472693143325 0 0 0
11105 5354 1 -0.8 9.695862326915218 59.188340213210935 58.11046879138826 0 0 0
1346 5796 1 -0.8 12.975022789474043 59.18490862601005 60.0848012312458 0 0 0
11112 1179 3 1.6 13.180984345702951 55.949106403075355 57.320483552915796 0 0 0
11114 1209 3 1.6 13.307468891332494 58.819445685834346 58.54877617243101 0 0 0
11118 1210 3 1.6 15.698137329469853 60.19635966330863 57.195011034841464 0 0 0
11109 5355 1 -0.8 12.254166577367245 59.596884669649654 57.588571321758046 0 0 0
11111 5792 1 -0.8 12.878400678579496 56.45656154222174 55.817134035886994 0 0 0
11113 5793 1 -0.8 13.225819574130858 57.21748287194556 58.326294402399334 0 0 0
11117 5843 1 -0.8 15.51478383591084 59.652955340161974 55.694026464135014 0 0 0
11115 5844 1 -0.8 14.804669137041866 59.3088064777912 58.19922278227847 0 0 0
11005 6035 1 -0.8 19.792567412183775 55.820869137573595 57.58526256345833 0 0 0
1362 6036 1 -0.8 18.08040436256869 58.43776204994975 59.52041002784484 0 0 0
11122 1290 3 1.6 18.32082874824787 56.186444509354885 57.04013260506236 0 0 0
11124 1300 3 1.6 18.35768419242653 59.00950037752617 58.03578304217317 0 0 0
11128 1450 3 1.6 21.071832894866244 60.47764129172858 57.418583485225675 0 0 0
11119 5845 1 -0.8 17.249926416075716 60.11076280469383 57.646018377032085 0 0 0
11123 6034 1 -0.8 18.21047969531612 57.79442802059929 56.99995538223805 0 0 0
11125 6050 1 -0.8 19.864968502639005 59.59067251839228 58.01832784599622 0 0 0
11127 6398 1 -0.8 20.685512864436962 60.93246879848823 55.92372230086618 0 0 0
1378 6361 1 -0.8 23.213395034047394 59.359766739404996 59.92755581463471 0 0 0
11132 1419 3 1.6 23.299440510029598 56.01894869742037 57.40732042014432 0 0 0
11134 1449 3 1.6 23.513058439176138 58.922809970655166 58.40251243959201 0 0 0
11138 1515 3 1.6 26.101300367113886 60.342612355158764 57.356494374853014 0 0 0
11131 6357 1 -0.8 22.894343400913925 56.46055134887218 55.91460441280582 0 0 0
11133 6358 1 -0.8 23.294412677944223 57.32879861221374 58.34399353813792 0 0 0
11129 6399 1 -0.8 22.458416537980803 59.64526033415033 57.41453411930577 0 0 0
11135 6400 1 -0.8 25.034570702235577 59.2971874616626 57.98930272080713 0 0 0
11137 6549 1 -0.8 25.734203768733988 60.5973367483654 55.80648985118285 0 0 0
11139 6550 1 -0.8 27.60714620741746 59.759364632008264 57.459873206631805 0 0 0
10364 6619 1 -0.8 30.95321882295705 61.10407633103064 58.33765854382767 0 -1 0
1394 6801 1 -0.8 28.25663088364534 58.6094369575312 59.72022991758635 0 0 0
1410 6991 1 -0.8 33.10016150898729 58.98879057477089 59.775871265208714 0 0 0
11144 1644 3 1.6 28.486409899448525 58.57371240120961 58.123960469040675 0 0 0
11148 1645 3 1.6 31.11311970319936 59.859626046577475 57.33663200344078 0 0 0
11141 6797 1 -0.8 29.17587221914492 55.5106313497061 55.89058202417048 0 0 0
11143 6798 1 -0.8 28.006900577863057 57.16723430177578 57.52388833461639 0 0 0
11147 6848 1 -0.8 30.7222618466939 60.40968810433509 55.87564944259703 0 0 0
11145 6849 1 -0.8 30.058028898611052 58.736024717256065 57.78712699107585 0 0 0
11149 6850 1 -0.8 32.643859880797166 59.35273318871234 57.291275506528095 0 0 0
1426 7311 1 -0.8 38.22749307833014 59.13701374117131 59.80679800494555 0 0 0
11152 1700 3 1.6 33.644231932815515 56.01254690682923 57.11304015366195 0 0 0
11154 1710 3 1.6 33.768055241385134 58.82294141824549 58.32214398987099 0 0 0
11158 1855 3 1.6 36.389463076957156 60.13152629505322 57.33039128270824 0 0 0
11151 6988 1 -0.8 33.85240307056412 56.425684335868326 55.558603827962735 0 0 0
11153 6989 1 -0.8 34.1022474476935 57.28944056323784 57.99448023700923 0 0 0
11155 7005 1 -0.8 35.1577532596149 59.65421821155136 58.267391907819125 0 0 0
11157 7348 1 -0.8 35.76572798991783 60.37315448381842 55.86654523334025 0 0 0
11159 7350 1 -0.8 37.602992742968404 59.061045819474494 57.30854762161841 0 0 0
11164 1854 3 1.6 38.73693195275737 58.60639987313162 58.3761185377996 0 0 0
1442 7741 1 -0.8 43.65643592659284 59.48951571677389 59.65104018062102 0 0 0
11162 1824 3 1.6 38.688301310316525 55.76490826819397 57.317227186607525 0 0 0
11161 7307 1 -0.8 39.186469823199964 56.302712226764555 55.853380998084376 0 0 0
11163 7308 1 -0.8 38.858545117907774 57.00346607857407 58.34270681080225 0 0 0
11172 1999 3 1.6 43.49061618243439 55.908117059519824 57.29193858338978 0 0 0
11174 2029 3 1.6 43.877568634581266 58.79808724818163 58.20868695184331 0 0 0
11168 2030 3 1.6 41.30566113218909 60.13847059856342 57.319568228157635 0 0 0
11165 7349 1 -0.8 40.19898774810007 59.25732954087753 58.10284060721795 0 0 0
11171 7737 1 -0.8 43.683542526978265 56.38523142375864 55.76515221218856 0 0 0
11173 7738 1 -0.8 43.71024667541978 57.188530931986314 58.2645212065532 0 0 0
11167 7778 1 -0.8 40.773165064267204 60.42196855728974 55.83256033370828 0 0 0
11169 7779 1 -0.8 42.72057939483788 59.356425873766554 57.23235518642321 0 0 0
11182 2444 3 1.6 48.50500156384553 55.93238470182591 56.86333318770621 0 0 0
1458 8801 1 -0.8 48.358924229887414 58.38121730880846 59.50558680287479 0 0 0
11178 2145 3 1.6 46.40927219737071 60.42481620611508 57.48334812222952 0 0 0
11184 2474 3 1.6 48.92788769611226 58.756584499415204 58.045753021028666 0 0 0
11175 7780 1 -0.8 45.362810811595736 59.21979326385234 57.7381468301657 0 0 0
11177 8054 1 -0.8 46.08005841002659 61.05965805816363 56.04118496524205 0 0 0
11179 8055 1 -0.8 47.91130120746777 59.833065797568274 57.41134437833873 0 0 0
11183 8798 1 -0.8 49.03994135024732 57.437372790508014 57.12221836203057 0 0 0
1474 9256 1 -0.8 53.49084519155586 59.1316529348058 59.829047215504865 0 0 0
11188 2475 3 1.6 51.447111468456036 60.35163848134638 57.419218745472975 0 0 0
11192 2675 3 1.6 53.56888864619397 55.91257391972188 57.06064279089843 0 0 0
11194 2685 3 1.6 53.89452768169851 58.78030543916199 58.31239002711363 0 0 0
11187 8848 1 -0.8 50.949254235305126 60.438973368078386 55.89304921899955 0 0 0
11185 8849 1 -0.8 50.38864777325158 59.43117233299726 58.217016628047105 0 0 0
11189 8850 1 -0.8 52.901839781121744 59.64360910825661 57.38392947667046 0 0 0
11191 9253 1 -0.8 54.037624567201256 56.31652687335691 55.57851136117523 0 0 0
11193 9254 1 -0.8 53.69958510892465 57.19647838975336 58.03811022661881 0 0 0
1490 9871 1 -0.8 58.70078930493505 59.27376483222213 59.607714608111934 0 0 0
11195 9270 1 -0.8 55.436589790899895 59.21919344281829 58.08928399790653 0 0 0
11202 3074 3 1.6 58.57603441411464 55.874465176166986 57.05148234295989 0 0 0
11204 3104 3 1.6 58.977256556028316 58.67341177972109 58.13905575139907 0 0 0
11198 3105 3 1.6 56.50510089506167 60.14248704920631 57.300234710470534 0 0 0
11205 4155 1 -0.8 60.48181566460781 59.05811579894196 57.72435409447943 0 0 0
11201 9868 1 -0.8 58.920348364380644 56.41894690555606 55.578794757369465 0 0 0
11203 9869 1 -0.8 58.76660948664743 57.077092951422365 58.11029800218204 0 0 0
11197 9899 1 -0.8 55.93190342619948 60.458029446478626 55.83730099820048 0 0 0
11199 9900 1 -0.8 57.89770757066271 59.340393948089165 57.14841221083723 0 0 0

Velocities

10 0 0 0
2 0 0 0
12 0 0 0
4 0 0 0
6 0 0 0
7 0 0 0
11 0 0 0
15 0 0 0
3 0 0 0
8 0 0 0
9 0 0 0
17 0 0 0
5 0 0 0
22 0 0 0
19 0 0 0
21 0 0 0
23 0 0 0
27 0 0 0
36 0 0 0
29 0 0 0
38 0 0 0
40 0 0 0
24 0 0 0
20 0 0 0
26 0 0 0
25 0 0 0
32 0 0 0
28 0 0 0
37 0 0 0
30 0 0 0
39 0 0 0
44 0 0 0
53 0 0 0
46 0 0 0
55 0 0 0
57 0 0 0
41 0 0 0
43 0 0 0
42 0 0 0
49 0 0 0
45 0 0 0
54 0 0 0
56 0 0 0
61 0 0 0
70 0 0 0
72 0 0 0
74 0 0 0
58 0 0 0
60 0 0 0
59 0 0 0
66 0 0 0
64 0 0 0
68 0 0 0
71 0 0 0
73 0 0 0
80 0 0 0
87 0 0 0
89 0 0 0
91 0 0 0
75 0 0 0
79 0 0 0
83 0 0 0
81 0 0 0
76 0 0 0
85 0 0 0
92 0 0 0
88 0 0 0
94 0 0 0
90 0 0 0
93 0 0 0
78 0 0 0
84 0 0 0
95 0 0 0
104 0 0 0
97 0 0 0
106 0 0 0
108 0 0 0
100 0 0 0
96 0 0 0
105 0 0 0
109 0 0 0
98 0 0 0
102 0 0 0
107 0 0 0
113 0 0 0
112 0 0 0
114 0 0 0
121 0 0 0
123 0 0 0
125 0 0 0
117 0 0 0
115 0 0 0
119 0 0 0
126 0 0 0
122 0 0 0
132 0 0 0
124 0 0 0
129 0 0 0
131 0 0 0
130 0 0 0
146 0 0 0
138 0 0 0
148 0 0 0
140 0 0 0
142 0 0 0
134 0 0 0
143 0 0 0
147 0 0 0
139 0 0 0
144 0 0 0
141 0 0 0
155 0 0 0
157 0 0 0
159 0 0 0
163 0 0 0
165 0 0 0
151 0 0 0
160 0 0 0
156 0 0 0
162 0 0 0
158 0 0 0
161 0 0 0
164 0 0 0
166 0 0 0
153 0 0 0
172 0 0 0
174 0 0 0
176 0 0 0
180 0 0 0
182 0 0 0
168 0 0 0
173 0 0 0
177 0 0 0
170 0 0 0
175 0 0 0
178 0 0 0
181 0 0 0
183 0 0 0
185 0 0 0
197 0 0 0
189 0 0 0
199 0 0 0
191 0 0 0
193 0 0 0
202 0 0 0
194 0 0 0
198 0 0 0
190 0 0 0
195 0 0 0
196 0 0 0
192 0 0 0
204 0 0 0
212 0 0 0
214 0 0 0
208 0 0 0
216 0 0 0
213 0 0 0
210 0 0 0
215 0 0 0
219 0 0 0
218 0 0 0
220 0 0 0
34 0 0 0
223 0 0 0
227 0 0 0
229 0 0 0
238 0 0 0
231 0 0 0
225 0 0 0
228 0 0 0
233 0 0 0
234 0 0 0
230 0 0 0
51 0 0 0
235 0 0 0
242 0 0 0
244 0 0 0
253 0 0 0
246 0 0 0
240 0 0 0
243 0 0 0
250 0 0 0
248 0 0 0
249 0 0 0
245 0 0 0
257 0 0 0
259 0 0 0
268 0 0 0
255 0 0 0
258 0 0 0
264 0 0 0
260 0 0 0
449 0 0 0
77 0 0 0
272 0 0 0
274 0 0 0
276 0 0 0
273 0 0 0
270 0 0 0
275 0 0 0
279 0 0 0
277 0 0 0
278 0 0 0
283 0 0 0
454 0 0 0
269 0 0 0
280 0 0 0
285 0 0 0
111 0 0 0
287 0 0 0
289 0 0 0
288 0 0 0
295 0 0 0
299 0 0 0
294 0 0 0
290 0 0 0
300 0 0 0
298 0 0 0
291 0 0 0
292 0 0 0
457 0 0 0
456 0 0 0
455 0 0 0
297 0 0 0
128 0 0 0
303 0 0 0
305 0 0 0
304 0 0 0
309 0 0 0
306 0 0 0
310 0 0 0
315 0 0 0
320 0 0 0
307 0 0 0
301 0 0 0
313 0 0 0
458 0 0 0
317 0 0 0
318 0 0 0
136 0 0 0
145 0 0 0
319 0 0 0
321 0 0 0
322 0 0 0
332 0 0 0
334 0 0 0
328 0 0 0
336 0 0 0
324 0 0 0
323 0 0 0
325 0 0 0
330 0 0 0
335 0 0 0
337 0 0 0
333 0 0 0
343 0 0 0
347 0 0 0
349 0 0 0
351 0 0 0
339 0 0 0
338 0 0 0
345 0 0 0
348 0 0 0
350 0 0 0
352 0 0 0
179 0 0 0
358 0 0 0
362 0 0 0
364 0 0 0
366 0 0 0
355 0 0 0
353 0 0 0
354 0 0 0
360 0 0 0
363 0 0 0
365 0 0 0
367 0 0 0
187 0 0 0
369 0 0 0
368 0 0 0
377 0 0 0
379 0 0 0
373 0 0 0
381 0 0 0
383 0 0 0
384 0 0 0
378 0 0 0
370 0 0 0
375 0 0 0
380 0 0 0
382 0 0 0
395 0 0 0
386 0 0 0
385 0 0 0
396 0 0 0
392 0 0 0
398 0 0 0
387 0 0 0
400 0 0 0
399 0 0 0
401 0 0 0
537 0 0 0
402 0 0 0
409 0 0 0
414 0 0 0
416 0 0 0
406 0 0 0
405 0 0 0
413 0 0 0
410 0 0 0
412 0 0 0
415 0 0 0
423 0 0 0
428 0 0 0
430 0 0 0
420 0 0 0
419 0 0 0
427 0 0 0
424 0 0 0
426 0 0 0
429 0 0 0
422 0 0 0
434 0 0 0
440 0 0 0
441 0 0 0
443 0 0 0
437 0 0 0
442 0 0 0
445 0 0 0
444 0 0 0
446 0 0 0
447 0 0 0
448 0 0 0
439 0 0 0
453 0 0 0
466 0 0 0
469 0 0 0
474 0 0 0
471 0 0 0
470 0 0 0
467 0 0 0
464 0 0 0
472 0 0 0
468 0 0 0
465 0 0 0
473 0 0 0
478 0 0 0
475 0 0 0
482 0 0 0
484 0 0 0
491 0 0 0
480 0 0 0
481 0 0 0
488 0 0 0
483 0 0 0
485 0 0 0
492 0 0 0
579 0 0 0
479 0 0 0
496 0 0 0
498 0 0 0
505 0 0 0
495 0 0 0
494 0 0 0
497 0 0 0
502 0 0 0
499 0 0 0
506 0 0 0
508 0 0 0
519 0 0 0
510 0 0 0
512 0 0 0
522 0 0 0
509 0 0 0
520 0 0 0
516 0 0 0
511 0 0 0
513 0 0 0
532 0 0 0
524 0 0 0
534 0 0 0
528 0 0 0
530 0 0 0
533 0 0 0
538 0 0 0
525 0 0 0
535 0 0 0
541 0 0 0
545 0 0 0
542 0 0 0
531 0 0 0
554 0 0 0
543 0 0 0
549 0 0 0
558 0 0 0
551 0 0 0
562 0 0 0
547 0 0 0
544 0 0 0
555 0 0 0
550 0 0 0
559 0 0 0
561 0 0 0
560 0 0 0
666 0 0 0
557 0 0 0
564 0 0 0
567 0 0 0
566 0 0 0
572 0 0 0
574 0 0 0
664 0 0 0
592 0 0 0
591 0 0 0
593 0 0 0
587 0 0 0
599 0 0 0
582 0 0 0
601 0 0 0
603 0 0 0
605 0 0 0
609 0 0 0
611 0 0 0
598 0 0 0
602 0 0 0
607 0 0 0
606 0 0 0
604 0 0 0
608 0 0 0
610 0 0 0
612 0 0 0
616 0 0 0
585 0 0 0
527 0 0 0
615 0 0 0
626 0 0 0
618 0 0 0
628 0 0 0
620 0 0 0
622 0 0 0
632 0 0 0
624 0 0 0
627 0 0 0
619 0 0 0
629 0 0 0
621 0 0 0
526 0 0 0
640 0 0 0
642 0 0 0
644 0 0 0
641 0 0 0
636 0 0 0
645 0 0 0
634 0 0 0
638 0 0 0
643 0 0 0
647 0 0 0
646 0 0 0
654 0 0 0
656 0 0 0
658 0 0 0
650 0 0 0
651 0 0 0
652 0 0 0
655 0 0 0
659 0 0 0
661 0 0 0
657 0 0 0
660 0 0 0
674 0 0 0
672 0 0 0
673 0 0 0
682 0 0 0
677 0 0 0
670 0 0 0
668 0 0 0
681 0 0 0
669 0 0 0
678 0 0 0
680 0 0 0
679 0 0 0
691 0 0 0
693 0 0 0
695 0 0 0
687 0 0 0
684 0 0 0
683 0 0 0
689 0 0 0
692 0 0 0
694 0 0 0
769 0 0 0
685 0 0 0
696 0 0 0
698 0 0 0
705 0 0 0
707 0 0 0
709 0 0 0
710 0 0 0
712 0 0 0
706 0 0 0
701 0 0 0
699 0 0 0
708 0 0 0
702 0 0 0
714 0 0 0
716 0 0 0
718 0 0 0
725 0 0 0
722 0 0 0
715 0 0 0
721 0 0 0
720 0 0 0
727 0 0 0
733 0 0 0
732 0 0 0
719 0 0 0
731 0 0 0
729 0 0 0
740 0 0 0
730 0 0 0
736 0 0 0
735 0 0 0
745 0 0 0
742 0 0 0
747 0 0 0
741 0 0 0
749 0 0 0
746 0 0 0
748 0 0 0
753 0 0 0
752 0 0 0
755 0 0 0
750 0 0 0
754 0 0 0
759 0 0 0
757 0 0 0
758 0 0 0
756 0 0 0
761 0 0 0
772 0 0 0
762 0 0 0
764 0 0 0
768 0 0 0
766 0 0 0
767 0 0 0
773 0 0 0
765 0 0 0
763 0 0 0
774 0 0 0
703 0 0 0
717 0 0 0
776 0 0 0
778 0 0 0
780 0 0 0
787 0 0 0
789 0 0 0
784 0 0 0
777 0 0 0
783 0 0 0
779 0 0 0
797 0 0 0
799 0 0 0
792 0 0 0
796 0 0 0
795 0 0 0
803 0 0 0
798 0 0 0
794 0 0 0
802 0 0 0
793 0 0 0
790 0 0 0
806 0 0 0
811 0 0 0
813 0 0 0
815 0 0 0
808 0 0 0
809 0 0 0
807 0 0 0
810 0 0 0
817 0 0 0
812 0 0 0
816 0 0 0
814 0 0 0
821 0 0 0
820 0 0 0
825 0 0 0
822 0 0 0
833 0 0 0
837 0 0 0
832 0 0 0
828 0 0 0
831 0 0 0
836 0 0 0
835 0 0 0
827 0 0 0
834 0 0 0
829 0 0 0
844 0 0 0
849 0 0 0
851 0 0 0
853 0 0 0
841 0 0 0
846 0 0 0
845 0 0 0
847 0 0 0
848 0 0 0
850 0 0 0
852 0 0 0
854 0 0 0
945 0 0 0
953 0 0 0
855 0 0 0
863 0 0 0
865 0 0 0
858 0 0 0
868 0 0 0
869 0 0 0
862 0 0 0
861 0 0 0
864 0 0 0
860 0 0 0
859 0 0 0
970 0 0 0
884 0 0 0
870 0 0 0
872 0 0 0
879 0 0 0
881 0 0 0
883 0 0 0
876 0 0 0
871 0 0 0
873 0 0 0
880 0 0 0
885 0 0 0
877 0 0 0
886 0 0 0
887 0 0 0
888 0 0 0
889 0 0 0
874 0 0 0
890 0 0 0
824 0 0 0
891 0 0 0
904 0 0 0
896 0 0 0
908 0 0 0
893 0 0 0
892 0 0 0
894 0 0 0
902 0 0 0
905 0 0 0
901 0 0 0
907 0 0 0
897 0 0 0
903 0 0 0
906 0 0 0
911 0 0 0
909 0 0 0
914 0 0 0
913 0 0 0
919 0 0 0
921 0 0 0
918 0 0 0
910 0 0 0
926 0 0 0
929 0 0 0
928 0 0 0
927 0 0 0
942 0 0 0
944 0 0 0
938 0 0 0
941 0 0 0
940 0 0 0
948 0 0 0
950 0 0 0
952 0 0 0
957 0 0 0
959 0 0 0
961 0 0 0
946 0 0 0
954 0 0 0
949 0 0 0
951 0 0 0
947 0 0 0
955 0 0 0
962 0 0 0
963 0 0 0
958 0 0 0
964 0 0 0
965 0 0 0
967 0 0 0
974 0 0 0
976 0 0 0
978 0 0 0
980 0 0 0
979 0 0 0
981 0 0 0
971 0 0 0
966 0 0 0
975 0 0 0
972 0 0 0
1109 0 0 0
969 0 0 0
968 0 0 0
882 0 0 0
983 0 0 0
985 0 0 0
987 0 0 0
988 0 0 0
993 0 0 0
984 0 0 0
991 0 0 0
989 0 0 0
990 0 0 0
995 0 0 0
986 0 0 0
997 0 0 0
998 0 0 0
1001 0 0 0
992 0 0 0
994 0 0 0
1126 0 0 0
900 0 0 0
1000 0 0 0
898 0 0 0
899 0 0 0
999 0 0 0
1013 0 0 0
1015 0 0 0
1002 0 0 0
1004 0 0 0
1003 0 0 0
1007 0 0 0
1012 0 0 0
1008 0 0 0
1009 0 0 0
1014 0 0 0
1005 0 0 0
915 0 0 0
920 0 0 0
1021 0 0 0
916 0 0 0
917 0 0 0
1027 0 0 0
1029 0 0 0
1016 0 0 0
1018 0 0 0
1017 0 0 0
1026 0 0 0
1019 0 0 0
1022 0 0 0
1023 0 0 0
1028 0 0 0
1025 0 0 0
1031 0 0 0
1020 0 0 0
1178 0 0 0
1032 0 0 0
1035 0 0 0
1036 0 0 0
1040 0 0 0
1042 0 0 0
1044 0 0 0
1037 0 0 0
1041 0 0 0
1068 0 0 0
1064 0 0 0
1229 0 0 0
1063 0 0 0
1061 0 0 0
1059 0 0 0
1065 0 0 0
1062 0 0 0
1060 0 0 0
925 0 0 0
1078 0 0 0
1075 0 0 0
1076 0 0 0
1070 0 0 0
1074 0 0 0
1072 0 0 0
1069 0 0 0
1079 0 0 0
924 0 0 0
923 0 0 0
930 0 0 0
931 0 0 0
943 0 0 0
1085 0 0 0
1087 0 0 0
1089 0 0 0
1081 0 0 0
1082 0 0 0
1083 0 0 0
1090 0 0 0
1086 0 0 0
1092 0 0 0
1088 0 0 0
1091 0 0 0
1093 0 0 0
1096 0 0 0
1094 0 0 0
960 0 0 0
1099 0 0 0
1101 0 0 0
1103 0 0 0
1281 0 0 0
1095 0 0 0
1100 0 0 0
1104 0 0 0
1097 0 0 0
1102 0 0 0
1106 0 0 0
1274 0 0 0
1105 0 0 0
1110 0 0 0
1107 0 0 0
1123 0 0 0
977 0 0 0
1111 0 0 0
1113 0 0 0
1296 0 0 0
1115 0 0 0
1117 0 0 0
1125 0 0 0
1124 0 0 0
1118 0 0 0
1114 0 0 0
1119 0 0 0
1120 0 0 0
1116 0 0 0
1122 0 0 0
1121 0 0 0
1133 0 0 0
1135 0 0 0
1129 0 0 0
1137 0 0 0
1134 0 0 0
1130 0 0 0
1131 0 0 0
1136 0 0 0
1140 0 0 0
1139 0 0 0
1127 0 0 0
1156 0 0 0
1148 0 0 0
1144 0 0 0
1150 0 0 0
1159 0 0 0
1152 0 0 0
1146 0 0 0
1149 0 0 0
1154 0 0 0
1155 0 0 0
1151 0 0 0
1157 0 0 0
1145 0 0 0
1163 0 0 0
1171 0 0 0
1165 0 0 0
1174 0 0 0
1167 0 0 0
1161 0 0 0
1164 0 0 0
1169 0 0 0
1170 0 0 0
1166 0 0 0
1160 0 0 0
1039 0 0 0
1038 0 0 0
1043 0 0 0
1045 0 0 0
1180 0 0 0
1182 0 0 0
1189 0 0 0
1176 0 0 0
1179 0 0 0
1185 0 0 0
1181 0 0 0
1184 0 0 0
1183 0 0 0
1368 0 0 0
1186 0 0 0
1193 0 0 0
1195 0 0 0
1197 0 0 0
1203 0 0 0
1194 0 0 0
1191 0 0 0
1196 0 0 0
1200 0 0 0
1199 0 0 0
1205 0 0 0
1198 0 0 0
1209 0 0 0
1217 0 0 0
1211 0 0 0
1208 0 0 0
1213 0 0 0
1218 0 0 0
1214 0 0 0
1210 0 0 0
1219 0 0 0
1212 0 0 0
1215 0 0 0
1056 0 0 0
1058 0 0 0
1221 0 0 0
1057 0 0 0
1067 0 0 0
1066 0 0 0
1223 0 0 0
1225 0 0 0
1238 0 0 0
1232 0 0 0
1240 0 0 0
1222 0 0 0
1228 0 0 0
1224 0 0 0
1237 0 0 0
1233 0 0 0
1234 0 0 0
1239 0 0 0
1236 0 0 0
1251 0 0 0
1071 0 0 0
1244 0 0 0
1253 0 0 0
1247 0 0 0
1255 0 0 0
1243 0 0 0
1242 0 0 0
1252 0 0 0
1249 0 0 0
1254 0 0 0
1245 0 0 0
1266 0 0 0
1256 0 0 0
1262 0 0 0
1268 0 0 0
1270 0 0 0
1258 0 0 0
1257 0 0 0
1263 0 0 0
1264 0 0 0
1267 0 0 0
1269 0 0 0
1277 0 0 0
1283 0 0 0
1285 0 0 0
1272 0 0 0
1278 0 0 0
1273 0 0 0
1279 0 0 0
1282 0 0 0
1284 0 0 0
1275 0 0 0
1286 0 0 0
1287 0 0 0
1288 0 0 0
1298 0 0 0
1292 0 0 0
1300 0 0 0
1302 0 0 0
1303 0 0 0
1297 0 0 0
1293 0 0 0
1294 0 0 0
1299 0 0 0
1480 0 0 0
1290 0 0 0
1304 0 0 0
1315 0 0 0
1305 0 0 0
1307 0 0 0
1316 0 0 0
1312 0 0 0
1319 0 0 0
1310 0 0 0
1311 0 0 0
1318 0 0 0
1306 0 0 0
1320 0 0 0
1322 0 0 0
1336 0 0 0
1321 0 0 0
1323 0 0 0
1331 0 0 0
1337 0 0 0
1339 0 0 0
1327 0 0 0
1326 0 0 0
1332 0 0 0
1335 0 0 0
1334 0 0 0
1338 0 0 0
1340 0 0 0
1347 0 0 0
1353 0 0 0
1355 0 0 0
1343 0 0 0
1342 0 0 0
1348 0 0 0
1351 0 0 0
1352 0 0 0
1350 0 0 0
1354 0 0 0
1356 0 0 0
1344 0 0 0
63 0 0 0
62 0 0 0
1363 0 0 0
1369 0 0 0
1371 0 0 0
1359 0 0 0
1358 0 0 0
1364 0 0 0
1367 0 0 0
1366 0 0 0
1370 0 0 0
1379 0 0 0
1385 0 0 0
1387 0 0 0
1380 0 0 0
1383 0 0 0
1374 0 0 0
1375 0 0 0
1382 0 0 0
1384 0 0 0
1391 0 0 0
1386 0 0 0
1390 0 0 0
1388 0 0 0
1395 0 0 0
1401 0 0 0
1403 0 0 0
1396 0 0 0
1399 0 0 0
1400 0 0 0
1398 0 0 0
1402 0 0 0
1407 0 0 0
1406 0 0 0
1411 0 0 0
1427 0 0 0
1417 0 0 0
1419 0 0 0
1412 0 0 0
1415 0 0 0
1414 0 0 0
1424 0 0 0
1416 0 0 0
1422 0 0 0
1423 0 0 0
1418 0 0 0
1421 0 0 0
1428 0 0 0
1443 0 0 0
1433 0 0 0
1435 0 0 0
1429 0 0 0
1430 0 0 0
1444 0 0 0
1440 0 0 0
1432 0 0 0
1438 0 0 0
1439 0 0 0
1434 0 0 0
1449 0 0 0
1451 0 0 0
1459 0 0 0
1447 0 0 0
1446 0 0 0
1448 0 0 0
1455 0 0 0
1450 0 0 0
1454 0 0 0
1452 0 0 0
1460 0 0 0
1465 0 0 0
1467 0 0 0
1475 0 0 0
1463 0 0 0
1464 0 0 0
1462 0 0 0
1466 0 0 0
1471 0 0 0
1468 0 0 0
1470 0 0 0
1476 0 0 0
1479 0 0 0
1478 0 0 0
1473 0 0 0
1477 0 0 0
1491 0 0 0
1481 0 0 0
1483 0 0 0
1494 0 0 0
1493 0 0 0
1495 0 0 0
1492 0 0 0
1486 0 0 0
1487 0 0 0
1482 0 0 0
16 0 0 0
14 0 0 0
13 0 0 0
1500 0 0 0
1497 0 0 0
1499 0 0 0
1501 0 0 0
1498 0 0 0
1502 0 0 0
1496 0 0 0
31 0 0 0
33 0 0 0
1328 0 0 0
1504 0 0 0
1507 0 0 0
1511 0 0 0
1505 0 0 0
1503 0 0 0
1506 0 0 0
1508 0 0 0
1509 0 0 0
1510 0 0 0
48 0 0 0
47 0 0 0
50 0 0 0
1514 0 0 0
1518 0 0 0
1512 0 0 0
1513 0 0 0
1515 0 0 0
1516 0 0 0
1517 0 0 0
65 0 0 0
67 0 0 0
1521 0 0 0
1525 0 0 0
1519 0 0 0
1520 0 0 0
1522 0 0 0
1523 0 0 0
1524 0 0 0
82 0 0 0
1376 0 0 0
1528 0 0 0
1532 0 0 0
1527 0 0 0
1529 0 0 0
1526 0 0 0
1530 0 0 0
1533 0 0 0
1531 0 0 0
1392 0 0 0
99 0 0 0
101 0 0 0
110 0 0 0
1535 0 0 0
1539 0 0 0
1534 0 0 0
1536 0 0 0
1537 0 0 0
1540 0 0 0
1408 0 0 0
116 0 0 0
118 0 0 0
127 0 0 0
1542 0 0 0
1549 0 0 0
1546 0 0 0
1541 0 0 0
1543 0 0 0
1544 0 0 0
1547 0 0 0
1545 0 0 0
1637 0 0 0
1550 0 0 0
133 0 0 0
150 0 0 0
135 0 0 0
149 0 0 0
1548 0 0 0
1556 0 0 0
1553 0 0 0
1551 0 0 0
1555 0 0 0
1557 0 0 0
1554 0 0 0
1552 0 0 0
152 0 0 0
167 0 0 0
1456 0 0 0
1560 0 0 0
1563 0 0 0
1558 0 0 0
1561 0 0 0
1559 0 0 0
1562 0 0 0
1564 0 0 0
184 0 0 0
169 0 0 0
1567 0 0 0
1570 0 0 0
1565 0 0 0
1566 0 0 0
1568 0 0 0
1569 0 0 0
1571 0 0 0
1572 0 0 0
200 0 0 0
186 0 0 0
201 0 0 0
203 0 0 0
1577 0 0 0
1574 0 0 0
1579 0 0 0
1576 0 0 0
1578 0 0 0
1575 0 0 0
1573 0 0 0
217 0 0 0
206 0 0 0
205 0 0 0
209 0 0 0
1586 0 0 0
1581 0 0 0
1583 0 0 0
1580 0 0 0
1584 0 0 0
1587 0 0 0
1582 0 0 0
1589 0 0 0
1591 0 0 0
1592 0 0 0
221 0 0 0
236 0 0 0
224 0 0 0
232 0 0 0
1590 0 0 0
1595 0 0 0
1599 0 0 0
1601 0 0 0
1593 0 0 0
1598 0 0 0
1596 0 0 0
1600 0 0 0
1594 0 0 0
251 0 0 0
239 0 0 0
247 0 0 0
1604 0 0 0
1608 0 0 0
1610 0 0 0
1602 0 0 0
1607 0 0 0
1605 0 0 0
1609 0 0 0
261 0 0 0
262 0 0 0
265 0 0 0
266 0 0 0
254 0 0 0
263 0 0 0
1613 0 0 0
1617 0 0 0
1619 0 0 0
1611 0 0 0
1614 0 0 0
1616 0 0 0
1618 0 0 0
1612 0 0 0
281 0 0 0
284 0 0 0
1622 0 0 0
1626 0 0 0
1620 0 0 0
1623 0 0 0
1625 0 0 0
1627 0 0 0
1629 0 0 0
1628 0 0 0
1717 0 0 0
1624 0 0 0
450 0 0 0
452 0 0 0
1718 0 0 0
1719 0 0 0
1716 0 0 0
1720 0 0 0
296 0 0 0
293 0 0 0
1630 0 0 0
1633 0 0 0
1632 0 0 0
1631 0 0 0
1634 0 0 0
1636 0 0 0
1635 0 0 0
1724 0 0 0
311 0 0 0
308 0 0 0
314 0 0 0
1640 0 0 0
1638 0 0 0
1639 0 0 0
1643 0 0 0
1641 0 0 0
1642 0 0 0
1644 0 0 0
1726 0 0 0
1728 0 0 0
1727 0 0 0
2437 0 0 0
326 0 0 0
329 0 0 0
1645 0 0 0
1654 0 0 0
1649 0 0 0
1651 0 0 0
1646 0 0 0
1648 0 0 0
1652 0 0 0
1650 0 0 0
1730 0 0 0
1731 0 0 0
1647 0 0 0
341 0 0 0
340 0 0 0
344 0 0 0
1658 0 0 0
1660 0 0 0
1663 0 0 0
1655 0 0 0
1657 0 0 0
1659 0 0 0
1661 0 0 0
1734 0 0 0
1656 0 0 0
356 0 0 0
359 0 0 0
1667 0 0 0
1669 0 0 0
1672 0 0 0
1666 0 0 0
1664 0 0 0
1668 0 0 0
1670 0 0 0
1665 0 0 0
371 0 0 0
374 0 0 0
1673 0 0 0
1681 0 0 0
1676 0 0 0
1678 0 0 0
1682 0 0 0
1675 0 0 0
1679 0 0 0
1677 0 0 0
388 0 0 0
389 0 0 0
393 0 0 0
390 0 0 0
391 0 0 0
397 0 0 0
404 0 0 0
1690 0 0 0
1688 0 0 0
1685 0 0 0
1585 0 0 0
1687 0 0 0
1689 0 0 0
1686 0 0 0
1691 0 0 0
1588 0 0 0
1684 0 0 0
1693 0 0 0
1692 0 0 0
403 0 0 0
417 0 0 0
407 0 0 0
418 0 0 0
411 0 0 0
1698 0 0 0
1696 0 0 0
1701 0 0 0
1694 0 0 0
1597 0 0 0
1695 0 0 0
1697 0 0 0
1699 0 0 0
1700 0 0 0
431 0 0 0
1606 0 0 0
421 0 0 0
425 0 0 0
432 0 0 0
571 0 0 0
1706 0 0 0
1704 0 0 0
1603 0 0 0
1702 0 0 0
1703 0 0 0
1705 0 0 0
1707 0 0 0
1708 0 0 0
1709 0 0 0
1710 0 0 0
1786 0 0 0
1615 0 0 0
435 0 0 0
433 0 0 0
1712 0 0 0
1711 0 0 0
1713 0 0 0
1714 0 0 0
1715 0 0 0
1788 0 0 0
451 0 0 0
1621 0 0 0
1729 0 0 0
463 0 0 0
462 0 0 0
461 0 0 0
1735 0 0 0
1653 0 0 0
1733 0 0 0
1732 0 0 0
1736 0 0 0
476 0 0 0
489 0 0 0
487 0 0 0
486 0 0 0
584 0 0 0
581 0 0 0
1737 0 0 0
1740 0 0 0
1745 0 0 0
1743 0 0 0
1738 0 0 0
1662 0 0 0
1739 0 0 0
1741 0 0 0
1742 0 0 0
1744 0 0 0
500 0 0 0
503 0 0 0
493 0 0 0
501 0 0 0
614 0 0 0
1748 0 0 0
1753 0 0 0
1751 0 0 0
1671 0 0 0
1746 0 0 0
1747 0 0 0
1749 0 0 0
1750 0 0 0
1752 0 0 0
1754 0 0 0
1674 0 0 0
515 0 0 0
1683 0 0 0
507 0 0 0
517 0 0 0
514 0 0 0
521 0 0 0
1761 0 0 0
1759 0 0 0
1756 0 0 0
1762 0 0 0
1680 0 0 0
1758 0 0 0
1760 0 0 0
1757 0 0 0
1755 0 0 0
536 0 0 0
529 0 0 0
539 0 0 0
1764 0 0 0
1767 0 0 0
1763 0 0 0
1765 0 0 0
1766 0 0 0
1769 0 0 0
552 0 0 0
565 0 0 0
553 0 0 0
546 0 0 0
548 0 0 0
556 0 0 0
1771 0 0 0
1778 0 0 0
1774 0 0 0
1770 0 0 0
1772 0 0 0
1777 0 0 0
1776 0 0 0
1773 0 0 0
1775 0 0 0
568 0 0 0
563 0 0 0
569 0 0 0
570 0 0 0
573 0 0 0
575 0 0 0
576 0 0 0
577 0 0 0
1779 0 0 0
1780 0 0 0
1781 0 0 0
1784 0 0 0
1783 0 0 0
1782 0 0 0
1785 0 0 0
1787 0 0 0
594 0 0 0
590 0 0 0
595 0 0 0
596 0 0 0
589 0 0 0
588 0 0 0
1789 0 0 0
1791 0 0 0
1793 0 0 0
1796 0 0 0
1792 0 0 0
1790 0 0 0
613 0 0 0
597 0 0 0
1795 0 0 0
1794 0 0 0
1799 0 0 0
1802 0 0 0
1798 0 0 0
1797 0 0 0
1800 0 0 0
1801 0 0 0
1803 0 0 0
633 0 0 0
623 0 0 0
630 0 0 0
631 0 0 0
625 0 0 0
1804 0 0 0
1806 0 0 0
1809 0 0 0
1811 0 0 0
1805 0 0 0
1807 0 0 0
1808 0 0 0
637 0 0 0
635 0 0 0
649 0 0 0
1768 0 0 0
1816 0 0 0
1813 0 0 0
1815 0 0 0
1817 0 0 0
1812 0 0 0
1814 0 0 0
1819 0 0 0
1818 0 0 0
648 0 0 0
662 0 0 0
663 0 0 0
665 0 0 0
667 0 0 0
1822 0 0 0
1821 0 0 0
1820 0 0 0
1823 0 0 0
1824 0 0 0
1826 0 0 0
1825 0 0 0
1828 0 0 0
1827 0 0 0
1831 0 0 0
671 0 0 0
675 0 0 0
686 0 0 0
688 0 0 0
697 0 0 0
1834 0 0 0
1837 0 0 0
1832 0 0 0
1833 0 0 0
1835 0 0 0
1836 0 0 0
1838 0 0 0
1867 0 0 0
1866 0 0 0
1868 0 0 0
700 0 0 0
711 0 0 0
1810 0 0 0
1843 0 0 0
1840 0 0 0
1844 0 0 0
1842 0 0 0
1839 0 0 0
1841 0 0 0
723 0 0 0
726 0 0 0
1849 0 0 0
1845 0 0 0
1851 0 0 0
1848 0 0 0
1850 0 0 0
1846 0 0 0
1852 0 0 0
2674 0 0 0
1847 0 0 0
1854 0 0 0
734 0 0 0
818 0 0 0
737 0 0 0
1865 0 0 0
738 0 0 0
1858 0 0 0
1860 0 0 0
1855 0 0 0
1856 0 0 0
1857 0 0 0
1859 0 0 0
1861 0 0 0
1863 0 0 0
823 0 0 0
1864 0 0 0
770 0 0 0
1872 0 0 0
1874 0 0 0
1869 0 0 0
1870 0 0 0
1871 0 0 0
1873 0 0 0
1875 0 0 0
788 0 0 0
781 0 0 0
785 0 0 0
782 0 0 0
1881 0 0 0
1877 0 0 0
1883 0 0 0
1884 0 0 0
1880 0 0 0
1882 0 0 0
1878 0 0 0
2712 0 0 0
1879 0 0 0
804 0 0 0
801 0 0 0
800 0 0 0
1853 0 0 0
1887 0 0 0
1892 0 0 0
1889 0 0 0
1886 0 0 0
1888 0 0 0
1891 0 0 0
1890 0 0 0
1893 0 0 0
1895 0 0 0
1894 0 0 0
1896 0 0 0
1907 0 0 0
826 0 0 0
1862 0 0 0
1897 0 0 0
1900 0 0 0
1898 0 0 0
1902 0 0 0
1904 0 0 0
1901 0 0 0
2731 0 0 0
1903 0 0 0
1905 0 0 0
1909 0 0 0
1908 0 0 0
1906 0 0 0
839 0 0 0
830 0 0 0
1914 0 0 0
1911 0 0 0
1910 0 0 0
1913 0 0 0
838 0 0 0
842 0 0 0
840 0 0 0
1876 0 0 0
1915 0 0 0
1912 0 0 0
1920 0 0 0
1923 0 0 0
1917 0 0 0
1919 0 0 0
1916 0 0 0
1921 0 0 0
1922 0 0 0
1924 0 0 0
1918 0 0 0
856 0 0 0
867 0 0 0
866 0 0 0
1885 0 0 0
1926 0 0 0
1931 0 0 0
1928 0 0 0
1932 0 0 0
1925 0 0 0
1927 0 0 0
1929 0 0 0
1930 0 0 0
875 0 0 0
1938 0 0 0
1937 0 0 0
1933 0 0 0
1936 0 0 0
1939 0 0 0
1935 0 0 0
1941 0 0 0
1940 0 0 0
1942 0 0 0
2762 0 0 0
1899 0 0 0
1945 0 0 0
1948 0 0 0
1943 0 0 0
1944 0 0 0
1947 0 0 0
2771 0 0 0
1946 0 0 0
1949 0 0 0
1950 0 0 0
1953 0 0 0
1954 0 0 0
1951 0 0 0
1952 0 0 0
932 0 0 0
935 0 0 0
933 0 0 0
1957 0 0 0
1964 0 0 0
1959 0 0 0
1962 0 0 0
1963 0 0 0
2796 0 0 0
1960 0 0 0
1958 0 0 0
1965 0 0 0
1967 0 0 0
1971 0 0 0
1966 0 0 0
1968 0 0 0
1969 0 0 0
1970 0 0 0
2805 0 0 0
1972 0 0 0
1934 0 0 0
1978 0 0 0
1974 0 0 0
1979 0 0 0
1977 0 0 0
1973 0 0 0
1976 0 0 0
1975 0 0 0
1141 0 0 0
1983 0 0 0
1980 0 0 0
2044 0 0 0
1982 0 0 0
1984 0 0 0
1981 0 0 0
1985 0 0 0
2820 0 0 0
2829 0 0 0
1986 0 0 0
1006 0 0 0
1989 0 0 0
1992 0 0 0
1987 0 0 0
1988 0 0 0
1990 0 0 0
1991 0 0 0
2838 0 0 0
1999 0 0 0
1956 0 0 0
1995 0 0 0
1993 0 0 0
1994 0 0 0
1996 0 0 0
1997 0 0 0
1998 0 0 0
1033 0 0 0
1034 0 0 0
2000 0 0 0
2001 0 0 0
2003 0 0 0
2002 0 0 0
2005 0 0 0
2004 0 0 0
2006 0 0 0
2008 0 0 0
2011 0 0 0
1080 0 0 0
1077 0 0 0
1073 0 0 0
2018 0 0 0
2015 0 0 0
2014 0 0 0
1961 0 0 0
2017 0 0 0
934 0 0 0
2016 0 0 0
2020 0 0 0
2023 0 0 0
2019 0 0 0
2021 0 0 0
2022 0 0 0
2024 0 0 0
1108 0 0 0
2026 0 0 0
2029 0 0 0
2134 0 0 0
2025 0 0 0
2892 0 0 0
2027 0 0 0
2028 0 0 0
2030 0 0 0
2031 0 0 0
1289 0 0 0
2035 0 0 0
2032 0 0 0
2037 0 0 0
2034 0 0 0
2036 0 0 0
2033 0 0 0
2045 0 0 0
1138 0 0 0
2039 0 0 0
2041 0 0 0
2038 0 0 0
2042 0 0 0
2040 0 0 0
2043 0 0 0
2046 0 0 0
2047 0 0 0
2913 0 0 0
2053 0 0 0
1142 0 0 0
1153 0 0 0
2048 0 0 0
2050 0 0 0
2057 0 0 0
2059 0 0 0
2049 0 0 0
2051 0 0 0
2052 0 0 0
2056 0 0 0
2054 0 0 0
2058 0 0 0
2055 0 0 0
2062 0 0 0
1172 0 0 0
1168 0 0 0
2066 0 0 0
2068 0 0 0
2060 0 0 0
2061 0 0 0
2065 0 0 0
2063 0 0 0
2067 0 0 0
2064 0 0 0
1187 0 0 0
1175 0 0 0
2071 0 0 0
2075 0 0 0
2077 0 0 0
2069 0 0 0
2070 0 0 0
2072 0 0 0
2074 0 0 0
2076 0 0 0
2173 0 0 0
1190 0 0 0
1204 0 0 0
1048 0 0 0
1049 0 0 0
1201 0 0 0
2949 0 0 0
2080 0 0 0
2007 0 0 0
2084 0 0 0
2086 0 0 0
2078 0 0 0
2081 0 0 0
2079 0 0 0
2082 0 0 0
2083 0 0 0
2085 0 0 0
2087 0 0 0
2088 0 0 0
1055 0 0 0
1054 0 0 0
2958 0 0 0
2089 0 0 0
2009 0 0 0
2010 0 0 0
2093 0 0 0
2095 0 0 0
2092 0 0 0
2090 0 0 0
2094 0 0 0
2096 0 0 0
2097 0 0 0
2189 0 0 0
2863 0 0 0
1393 0 0 0
1230 0 0 0
1227 0 0 0
1226 0 0 0
1241 0 0 0
1409 0 0 0
2967 0 0 0
2098 0 0 0
2102 0 0 0
2104 0 0 0
2099 0 0 0
2100 0 0 0
2101 0 0 0
2105 0 0 0
2103 0 0 0
2106 0 0 0
1248 0 0 0
2107 0 0 0
2116 0 0 0
2111 0 0 0
2113 0 0 0
2108 0 0 0
2109 0 0 0
2110 0 0 0
2114 0 0 0
2112 0 0 0
2115 0 0 0
1259 0 0 0
1260 0 0 0
1271 0 0 0
2125 0 0 0
2120 0 0 0
2122 0 0 0
2117 0 0 0
2118 0 0 0
2119 0 0 0
2121 0 0 0
2123 0 0 0
2124 0 0 0
2994 0 0 0
2129 0 0 0
2131 0 0 0
2128 0 0 0
2126 0 0 0
2130 0 0 0
2132 0 0 0
2127 0 0 0
2133 0 0 0
2135 0 0 0
3000 0 0 0
1301 0 0 0
1489 0 0 0
2143 0 0 0
2136 0 0 0
2138 0 0 0
2140 0 0 0
2144 0 0 0
2145 0 0 0
2137 0 0 0
2141 0 0 0
2139 0 0 0
2142 0 0 0
1313 0 0 0
1309 0 0 0
1317 0 0 0
1308 0 0 0
2150 0 0 0
2152 0 0 0
2147 0 0 0
2149 0 0 0
2151 0 0 0
2146 0 0 0
2148 0 0 0
2153 0 0 0
2154 0 0 0
1325 0 0 0
1329 0 0 0
1341 0 0 0
1324 0 0 0
1333 0 0 0
2155 0 0 0
2158 0 0 0
2160 0 0 0
2163 0 0 0
2156 0 0 0
2157 0 0 0
2159 0 0 0
2162 0 0 0
2161 0 0 0
2166 0 0 0
1345 0 0 0
1357 0 0 0
1349 0 0 0
2168 0 0 0
2171 0 0 0
2164 0 0 0
2165 0 0 0
2167 0 0 0
2170 0 0 0
2169 0 0 0
2073 0 0 0
1361 0 0 0
1373 0 0 0
1360 0 0 0
1365 0 0 0
1372 0 0 0
2174 0 0 0
2176 0 0 0
2179 0 0 0
2172 0 0 0
2175 0 0 0
2177 0 0 0
2178 0 0 0
1377 0 0 0
1389 0 0 0
1381 0 0 0
2182 0 0 0
2184 0 0 0
2187 0 0 0
2181 0 0 0
2183 0 0 0
2180 0 0 0
2185 0 0 0
2186 0 0 0
2188 0 0 0
1404 0 0 0
2091 0 0 0
2190 0 0 0
1405 0 0 0
1397 0 0 0
1538 0 0 0
2192 0 0 0
2195 0 0 0
2191 0 0 0
2194 0 0 0
2193 0 0 0
2196 0 0 0
2197 0 0 0
2198 0 0 0
1413 0 0 0
1420 0 0 0
2200 0 0 0
2203 0 0 0
2199 0 0 0
2201 0 0 0
2205 0 0 0
2202 0 0 0
2204 0 0 0
2207 0 0 0
1425 0 0 0
1441 0 0 0
1437 0 0 0
1431 0 0 0
1436 0 0 0
2206 0 0 0
2208 0 0 0
2214 0 0 0
2216 0 0 0
2211 0 0 0
2209 0 0 0
2213 0 0 0
2210 0 0 0
2212 0 0 0
2215 0 0 0
1453 0 0 0
1457 0 0 0
1445 0 0 0
2219 0 0 0
2222 0 0 0
2224 0 0 0
2217 0 0 0
2218 0 0 0
2220 0 0 0
2221 0 0 0
2223 0 0 0
1469 0 0 0
1461 0 0 0
1472 0 0 0
2227 0 0 0
2230 0 0 0
2232 0 0 0
2226 0 0 0
2225 0 0 0
2228 0 0 0
2229 0 0 0
2231 0 0 0
1485 0 0 0
1488 0 0 0
1484 0 0 0
2233 0 0 0
2238 0 0 0
2240 0 0 0
2235 0 0 0
2241 0 0 0
2237 0 0 0
2239 0 0 0
2234 0 0 0
2236 0 0 0
2242 0 0 0
2253 0 0 0
2249 0 0 0
2243 0 0 0
2245 0 0 0
2247 0 0 0
2250 0 0 0
2251 0 0 0
2244 0 0 0
2248 0 0 0
2252 0 0 0
2246 0 0 0
2257 0 0 0
2264 0 0 0
2254 0 0 0
2256 0 0 0
2260 0 0 0
2265 0 0 0
2267 0 0 0
2258 0 0 0
2255 0 0 0
2259 0 0 0
2262 0 0 0
2261 0 0 0
2266 0 0 0
2268 0 0 0
2275 0 0 0
2271 0 0 0
2276 0 0 0
2278 0 0 0
2269 0 0 0
2273 0 0 0
2272 0 0 0
2277 0 0 0
2274 0 0 0
2279 0 0 0
2286 0 0 0
2282 0 0 0
2287 0 0 0
2289 0 0 0
2280 0 0 0
2284 0 0 0
2283 0 0 0
2288 0 0 0
2290 0 0 0
2281 0 0 0
2291 0 0 0
2297 0 0 0
2293 0 0 0
2298 0 0 0
2300 0 0 0
2294 0 0 0
2295 0 0 0
2302 0 0 0
2299 0 0 0
2303 0 0 0
2301 0 0 0
2305 0 0 0
2308 0 0 0
2304 0 0 0
2309 0 0 0
2311 0 0 0
2306 0 0 0
2310 0 0 0
2313 0 0 0
2312 0 0 0
2314 0 0 0
2319 0 0 0
2431 0 0 0
2315 0 0 0
2320 0 0 0
2322 0 0 0
2317 0 0 0
2324 0 0 0
2321 0 0 0
2325 0 0 0
2323 0 0 0
2318 0 0 0
2330 0 0 0
2326 0 0 0
2327 0 0 0
2331 0 0 0
2333 0 0 0
2328 0 0 0
2335 0 0 0
2332 0 0 0
2336 0 0 0
2334 0 0 0
2440 0 0 0
2337 0 0 0
2341 0 0 0
2342 0 0 0
2344 0 0 0
2348 0 0 0
2339 0 0 0
2340 0 0 0
2346 0 0 0
2343 0 0 0
2345 0 0 0
2349 0 0 0
2352 0 0 0
2353 0 0 0
2355 0 0 0
2359 0 0 0
2350 0 0 0
2354 0 0 0
2357 0 0 0
2356 0 0 0
2358 0 0 0
2360 0 0 0
2363 0 0 0
2361 0 0 0
2362 0 0 0
2370 0 0 0
2364 0 0 0
2366 0 0 0
2372 0 0 0
2368 0 0 0
2371 0 0 0
2365 0 0 0
2367 0 0 0
2373 0 0 0
2377 0 0 0
2374 0 0 0
2383 0 0 0
2378 0 0 0
2380 0 0 0
2375 0 0 0
2379 0 0 0
2376 0 0 0
2381 0 0 0
2382 0 0 0
2386 0 0 0
2392 0 0 0
2263 0 0 0
2384 0 0 0
2387 0 0 0
2389 0 0 0
2393 0 0 0
2385 0 0 0
2388 0 0 0
2391 0 0 0
2390 0 0 0
2270 0 0 0
2395 0 0 0
2401 0 0 0
2396 0 0 0
2398 0 0 0
2402 0 0 0
2394 0 0 0
2397 0 0 0
2400 0 0 0
2399 0 0 0
2404 0 0 0
2410 0 0 0
2285 0 0 0
2405 0 0 0
2407 0 0 0
2411 0 0 0
2403 0 0 0
2406 0 0 0
2409 0 0 0
2408 0 0 0
1721 0 0 0
2413 0 0 0
2292 0 0 0
2419 0 0 0
2296 0 0 0
2414 0 0 0
2416 0 0 0
2415 0 0 0
2412 0 0 0
2417 0 0 0
2418 0 0 0
2421 0 0 0
2420 0 0 0
2519 0 0 0
2520 0 0 0
2422 0 0 0
2428 0 0 0
2307 0 0 0
2423 0 0 0
2425 0 0 0
2424 0 0 0
2427 0 0 0
2426 0 0 0
2430 0 0 0
2429 0 0 0
2522 0 0 0
2521 0 0 0
3472 0 0 0
1723 0 0 0
1722 0 0 0
1725 0 0 0
2432 0 0 0
2434 0 0 0
2433 0 0 0
2436 0 0 0
2435 0 0 0
2442 0 0 0
2439 0 0 0
2438 0 0 0
2523 0 0 0
3474 0 0 0
2441 0 0 0
2443 0 0 0
2449 0 0 0
2446 0 0 0
2329 0 0 0
2444 0 0 0
2450 0 0 0
2452 0 0 0
2447 0 0 0
2445 0 0 0
2451 0 0 0
2448 0 0 0
2453 0 0 0
2347 0 0 0
2455 0 0 0
2458 0 0 0
2456 0 0 0
2459 0 0 0
2461 0 0 0
2454 0 0 0
2457 0 0 0
2460 0 0 0
2462 0 0 0
2464 0 0 0
2467 0 0 0
2351 0 0 0
2465 0 0 0
2468 0 0 0
2470 0 0 0
2463 0 0 0
2466 0 0 0
2469 0 0 0
2471 0 0 0
2476 0 0 0
2473 0 0 0
2369 0 0 0
2472 0 0 0
2477 0 0 0
2479 0 0 0
2474 0 0 0
2481 0 0 0
2478 0 0 0
2475 0 0 0
2480 0 0 0
2486 0 0 0
2487 0 0 0
2483 0 0 0
2482 0 0 0
2488 0 0 0
2485 0 0 0
2489 0 0 0
2484 0 0 0
2492 0 0 0
2490 0 0 0
2494 0 0 0
2491 0 0 0
2495 0 0 0
2499 0 0 0
2493 0 0 0
2498 0 0 0
2496 0 0 0
2497 0 0 0
2500 0 0 0
2502 0 0 0
2503 0 0 0
2507 0 0 0
2501 0 0 0
2506 0 0 0
2504 0 0 0
2505 0 0 0
2508 0 0 0
2510 0 0 0
2509 0 0 0
2513 0 0 0
2514 0 0 0
2516 0 0 0
2511 0 0 0
2512 0 0 0
2515 0 0 0
2517 0 0 0
2518 0 0 0
2588 0 0 0
2524 0 0 0
2528 0 0 0
2531 0 0 0
2530 0 0 0
2529 0 0 0
2527 0 0 0
2526 0 0 0
2532 0 0 0
2534 0 0 0
2589 0 0 0
2533 0 0 0
2540 0 0 0
2537 0 0 0
2541 0 0 0
2535 0 0 0
2536 0 0 0
2539 0 0 0
2538 0 0 0
2542 0 0 0
2548 0 0 0
2545 0 0 0
2549 0 0 0
2544 0 0 0
2543 0 0 0
2546 0 0 0
2547 0 0 0
2556 0 0 0
2551 0 0 0
2557 0 0 0
2553 0 0 0
2559 0 0 0
2552 0 0 0
2558 0 0 0
2555 0 0 0
2554 0 0 0
2560 0 0 0
2569 0 0 0
2566 0 0 0
2561 0 0 0
2563 0 0 0
2565 0 0 0
2567 0 0 0
2568 0 0 0
2570 0 0 0
2571 0 0 0
2564 0 0 0
2578 0 0 0
2572 0 0 0
2575 0 0 0
2579 0 0 0
2574 0 0 0
2573 0 0 0
2577 0 0 0
2576 0 0 0
2580 0 0 0
2582 0 0 0
2581 0 0 0
2637 0 0 0
2583 0 0 0
2585 0 0 0
2584 0 0 0
2586 0 0 0
2587 0 0 0
2594 0 0 0
2590 0 0 0
2597 0 0 0
2596 0 0 0
2598 0 0 0
2595 0 0 0
2592 0 0 0
2600 0 0 0
2550 0 0 0
2593 0 0 0
2591 0 0 0
2601 0 0 0
2603 0 0 0
2606 0 0 0
2599 0 0 0
2602 0 0 0
2605 0 0 0
2604 0 0 0
2607 0 0 0
2650 0 0 0
2609 0 0 0
2562 0 0 0
2608 0 0 0
2615 0 0 0
2610 0 0 0
2617 0 0 0
2614 0 0 0
2616 0 0 0
2611 0 0 0
2620 0 0 0
2668 0 0 0
2621 0 0 0
2623 0 0 0
2622 0 0 0
2618 0 0 0
2625 0 0 0
2619 0 0 0
2624 0 0 0
2626 0 0 0
2629 0 0 0
2630 0 0 0
2632 0 0 0
2627 0 0 0
2628 0 0 0
2631 0 0 0
2634 0 0 0
2635 0 0 0
2633 0 0 0
2686 0 0 0
2636 0 0 0
1830 0 0 0
1829 0 0 0
2642 0 0 0
2641 0 0 0
2638 0 0 0
2646 0 0 0
2643 0 0 0
2652 0 0 0
2697 0 0 0
2645 0 0 0
2647 0 0 0
2640 0 0 0
2644 0 0 0
2639 0 0 0
2653 0 0 0
2655 0 0 0
2648 0 0 0
2649 0 0 0
2651 0 0 0
2654 0 0 0
2658 0 0 0
2656 0 0 0
2698 0 0 0
2613 0 0 0
2661 0 0 0
2612 0 0 0
2657 0 0 0
2662 0 0 0
2664 0 0 0
2666 0 0 0
2663 0 0 0
2659 0 0 0
2660 0 0 0
2665 0 0 0
2677 0 0 0
2669 0 0 0
2671 0 0 0
2675 0 0 0
2670 0 0 0
2673 0 0 0
2672 0 0 0
2676 0 0 0
2678 0 0 0
2680 0 0 0
2679 0 0 0
2681 0 0 0
2683 0 0 0
2684 0 0 0
2682 0 0 0
2688 0 0 0
2685 0 0 0
2690 0 0 0
2687 0 0 0
2689 0 0 0
2693 0 0 0
2694 0 0 0
2691 0 0 0
2692 0 0 0
3704 0 0 0
3706 0 0 0
2703 0 0 0
2696 0 0 0
2695 0 0 0
2704 0 0 0
2699 0 0 0
2701 0 0 0
2702 0 0 0
2705 0 0 0
2700 0 0 0
3712 0 0 0
2706 0 0 0
2667 0 0 0
2707 0 0 0
2709 0 0 0
2713 0 0 0
2714 0 0 0
2708 0 0 0
2711 0 0 0
2710 0 0 0
2715 0 0 0
2720 0 0 0
2716 0 0 0
2719 0 0 0
2718 0 0 0
2722 0 0 0
2721 0 0 0
2717 0 0 0
2723 0 0 0
2724 0 0 0
2728 0 0 0
2726 0 0 0
2727 0 0 0
2730 0 0 0
2729 0 0 0
2733 0 0 0
2732 0 0 0
2735 0 0 0
3850 0 0 0
2734 0 0 0
2741 0 0 0
2738 0 0 0
2743 0 0 0
2740 0 0 0
2737 0 0 0
2739 0 0 0
2736 0 0 0
2744 0 0 0
2748 0 0 0
2742 0 0 0
2745 0 0 0
2746 0 0 0
2747 0 0 0
2749 0 0 0
2750 0 0 0
2751 0 0 0
2756 0 0 0
2752 0 0 0
2758 0 0 0
2755 0 0 0
2754 0 0 0
2757 0 0 0
2753 0 0 0
2759 0 0 0
2763 0 0 0
2765 0 0 0
2761 0 0 0
2760 0 0 0
2764 0 0 0
2767 0 0 0
2769 0 0 0
3820 0 0 0
2768 0 0 0
2827 0 0 0
3814 0 0 0
3824 0 0 0
3827 0 0 0
3828 0 0 0
2725 0 0 0
1955 0 0 0
2777 0 0 0
2772 0 0 0
2770 0 0 0
2776 0 0 0
2778 0 0 0
2773 0 0 0
3772 0 0 0
3838 0 0 0
3843 0 0 0
3841 0 0 0
3842 0 0 0
3834 0 0 0
2780 0 0 0
2783 0 0 0
2779 0 0 0
2782 0 0 0
2781 0 0 0
2785 0 0 0
2786 0 0 0
2845 0 0 0
3851 0 0 0
3852 0 0 0
3854 0 0 0
2789 0 0 0
2788 0 0 0
2791 0 0 0
2790 0 0 0
2799 0 0 0
2798 0 0 0
2800 0 0 0
2797 0 0 0
2795 0 0 0
2794 0 0 0
3871 0 0 0
2802 0 0 0
2806 0 0 0
2808 0 0 0
2801 0 0 0
2804 0 0 0
2803 0 0 0
2810 0 0 0
2807 0 0 0
2890 0 0 0
2814 0 0 0
2811 0 0 0
2815 0 0 0
2819 0 0 0
2813 0 0 0
2812 0 0 0
2816 0 0 0
2817 0 0 0
3895 0 0 0
2766 0 0 0
2821 0 0 0
2823 0 0 0
2825 0 0 0
2822 0 0 0
2826 0 0 0
2828 0 0 0
2824 0 0 0
2832 0 0 0
2833 0 0 0
2831 0 0 0
2774 0 0 0
2775 0 0 0
2830 0 0 0
2839 0 0 0
2841 0 0 0
2834 0 0 0
2835 0 0 0
2836 0 0 0
2837 0 0 0
2842 0 0 0
2923 0 0 0
3913 0 0 0
3915 0 0 0
2847 0 0 0
2784 0 0 0
2787 0 0 0
2840 0 0 0
2850 0 0 0
2843 0 0 0
2844 0 0 0
2849 0 0 0
2846 0 0 0
2851 0 0 0
2848 0 0 0
2852 0 0 0
2941 0 0 0
2853 0 0 0
2854 0 0 0
2855 0 0 0
2857 0 0 0
3946 0 0 0
3947 0 0 0
2861 0 0 0
2867 0 0 0
2873 0 0 0
2871 0 0 0
2870 0 0 0
2869 0 0 0
3954 0 0 0
3953 0 0 0
3952 0 0 0
2013 0 0 0
2880 0 0 0
2879 0 0 0
2878 0 0 0
2877 0 0 0
2875 0 0 0
2986 0 0 0
2792 0 0 0
2883 0 0 0
2793 0 0 0
2884 0 0 0
2886 0 0 0
2881 0 0 0
2882 0 0 0
2888 0 0 0
2885 0 0 0
2887 0 0 0
2891 0 0 0
3968 0 0 0
3969 0 0 0
2809 0 0 0
2893 0 0 0
2895 0 0 0
3004 0 0 0
2894 0 0 0
2897 0 0 0
2896 0 0 0
2898 0 0 0
2900 0 0 0
2899 0 0 0
2901 0 0 0
2818 0 0 0
2902 0 0 0
3013 0 0 0
2904 0 0 0
2908 0 0 0
2909 0 0 0
2906 0 0 0
2903 0 0 0
2907 0 0 0
2905 0 0 0
3989 0 0 0
2910 0 0 0
2919 0 0 0
2914 0 0 0
2916 0 0 0
2911 0 0 0
2915 0 0 0
2912 0 0 0
2917 0 0 0
2918 0 0 0
3018 0 0 0
2922 0 0 0
2928 0 0 0
2920 0 0 0
2925 0 0 0
2929 0 0 0
2921 0 0 0
2924 0 0 0
2927 0 0 0
2926 0 0 0
3034 0 0 0
2931 0 0 0
2937 0 0 0
2932 0 0 0
2934 0 0 0
2938 0 0 0
2930 0 0 0
2933 0 0 0
2936 0 0 0
2935 0 0 0
2856 0 0 0
2858 0 0 0
2940 0 0 0
2946 0 0 0
2859 0 0 0
2943 0 0 0
2947 0 0 0
2939 0 0 0
2942 0 0 0
2945 0 0 0
2944 0 0 0
3050 0 0 0
3945 0 0 0
2955 0 0 0
2950 0 0 0
2860 0 0 0
2952 0 0 0
2956 0 0 0
2951 0 0 0
2948 0 0 0
2953 0 0 0
2954 0 0 0
2957 0 0 0
2862 0 0 0
2964 0 0 0
2959 0 0 0
2864 0 0 0
2865 0 0 0
2961 0 0 0
2965 0 0 0
2960 0 0 0
2963 0 0 0
2962 0 0 0
2966 0 0 0
2973 0 0 0
2866 0 0 0
2868 0 0 0
2872 0 0 0
2968 0 0 0
2970 0 0 0
2979 0 0 0
2974 0 0 0
2969 0 0 0
2972 0 0 0
2971 0 0 0
2978 0 0 0
2975 0 0 0
2980 0 0 0
3956 0 0 0
3955 0 0 0
2977 0 0 0
2976 0 0 0
2012 0 0 0
2985 0 0 0
2982 0 0 0
2876 0 0 0
2988 0 0 0
2983 0 0 0
2981 0 0 0
2987 0 0 0
2984 0 0 0
2989 0 0 0
2889 0 0 0
2991 0 0 0
2995 0 0 0
2992 0 0 0
2997 0 0 0
2990 0 0 0
2993 0 0 0
2996 0 0 0
2998 0 0 0
3003 0 0 0
3001 0 0 0
3006 0 0 0
2999 0 0 0
3002 0 0 0
3005 0 0 0
3007 0 0 0
4135 0 0 0
3012 0 0 0
3009 0 0 0
3008 0 0 0
3015 0 0 0
3010 0 0 0
3017 0 0 0
3014 0 0 0
3011 0 0 0
3016 0 0 0
3106 0 0 0
3022 0 0 0
3023 0 0 0
3019 0 0 0
3024 0 0 0
3021 0 0 0
3025 0 0 0
3020 0 0 0
3028 0 0 0
3030 0 0 0
3027 0 0 0
3031 0 0 0
3035 0 0 0
3026 0 0 0
3029 0 0 0
3032 0 0 0
3033 0 0 0
3036 0 0 0
3038 0 0 0
3039 0 0 0
3043 0 0 0
3037 0 0 0
3040 0 0 0
3042 0 0 0
3041 0 0 0
3044 0 0 0
3046 0 0 0
3047 0 0 0
3051 0 0 0
3045 0 0 0
3048 0 0 0
3049 0 0 0
3052 0 0 0
3054 0 0 0
3055 0 0 0
3059 0 0 0
3056 0 0 0
3053 0 0 0
3057 0 0 0
3058 0 0 0
3061 0 0 0
3060 0 0 0
3062 0 0 0
3063 0 0 0
3067 0 0 0
3064 0 0 0
3066 0 0 0
3065 0 0 0
3068 0 0 0
3069 0 0 0
3070 0 0 0
3072 0 0 0
3078 0 0 0
2316 0 0 0
3071 0 0 0
3079 0 0 0
3075 0 0 0
3073 0 0 0
3080 0 0 0
3074 0 0 0
3077 0 0 0
3076 0 0 0
3087 0 0 0
3083 0 0 0
3081 0 0 0
3088 0 0 0
3082 0 0 0
3085 0 0 0
3084 0 0 0
2338 0 0 0
3086 0 0 0
3094 0 0 0
3091 0 0 0
3095 0 0 0
3089 0 0 0
3090 0 0 0
3093 0 0 0
3092 0 0 0
3096 0 0 0
3102 0 0 0
3099 0 0 0
3103 0 0 0
3098 0 0 0
3097 0 0 0
3100 0 0 0
3101 0 0 0
3104 0 0 0
3110 0 0 0
3105 0 0 0
3111 0 0 0
3107 0 0 0
3113 0 0 0
3112 0 0 0
3109 0 0 0
3108 0 0 0
3118 0 0 0
3120 0 0 0
3122 0 0 0
3115 0 0 0
3119 0 0 0
3117 0 0 0
3125 0 0 0
3121 0 0 0
3123 0 0 0
3116 0 0 0
3124 0 0 0
3114 0 0 0
3127 0 0 0
3130 0 0 0
3132 0 0 0
3134 0 0 0
4353 0 0 0
3139 0 0 0
3128 0 0 0
3126 0 0 0
3129 0 0 0
3131 0 0 0
3137 0 0 0
3133 0 0 0
3135 0 0 0
3136 0 0 0
4182 0 0 0
3138 0 0 0
4175 0 0 0
3142 0 0 0
3144 0 0 0
3146 0 0 0
3151 0 0 0
3140 0 0 0
3141 0 0 0
3143 0 0 0
3149 0 0 0
3145 0 0 0
3148 0 0 0
3150 0 0 0
4197 0 0 0
3154 0 0 0
3156 0 0 0
3158 0 0 0
4373 0 0 0
3163 0 0 0
3152 0 0 0
3153 0 0 0
3155 0 0 0
3161 0 0 0
3157 0 0 0
3159 0 0 0
3160 0 0 0
3162 0 0 0
3165 0 0 0
3164 0 0 0
3166 0 0 0
3168 0 0 0
3170 0 0 0
3175 0 0 0
3167 0 0 0
3173 0 0 0
3169 0 0 0
3171 0 0 0
3172 0 0 0
3176 0 0 0
3174 0 0 0
3177 0 0 0
3178 0 0 0
3180 0 0 0
3182 0 0 0
3187 0 0 0
3179 0 0 0
3185 0 0 0
3181 0 0 0
3183 0 0 0
3186 0 0 0
3188 0 0 0
3189 0 0 0
3190 0 0 0
3192 0 0 0
3194 0 0 0
3206 0 0 0
3199 0 0 0
3191 0 0 0
3197 0 0 0
3193 0 0 0
3195 0 0 0
3196 0 0 0
3203 0 0 0
3201 0 0 0
3207 0 0 0
3200 0 0 0
3198 0 0 0
3204 0 0 0
3202 0 0 0
3205 0 0 0
3216 0 0 0
3218 0 0 0
4413 0 0 0
3211 0 0 0
3209 0 0 0
3208 0 0 0
3213 0 0 0
3219 0 0 0
3212 0 0 0
3210 0 0 0
3215 0 0 0
3217 0 0 0
3223 0 0 0
3226 0 0 0
3228 0 0 0
3230 0 0 0
3221 0 0 0
3224 0 0 0
3222 0 0 0
3225 0 0 0
3227 0 0 0
3229 0 0 0
3231 0 0 0
3232 0 0 0
3371 0 0 0
4433 0 0 0
3235 0 0 0
3238 0 0 0
3240 0 0 0
3242 0 0 0
3233 0 0 0
3234 0 0 0
3236 0 0 0
3237 0 0 0
3239 0 0 0
3241 0 0 0
3243 0 0 0
3244 0 0 0
3245 0 0 0
3250 0 0 0
3252 0 0 0
3254 0 0 0
3247 0 0 0
3256 0 0 0
3257 0 0 0
3251 0 0 0
3249 0 0 0
3253 0 0 0
3255 0 0 0
3248 0 0 0
3246 0 0 0
3397 0 0 0
3259 0 0 0
3261 0 0 0
3266 0 0 0
3258 0 0 0
3264 0 0 0
3260 0 0 0
3263 0 0 0
3262 0 0 0
3267 0 0 0
3269 0 0 0
3272 0 0 0
3271 0 0 0
3273 0 0 0
3270 0 0 0
3274 0 0 0
3285 0 0 0
3287 0 0 0
3279 0 0 0
3277 0 0 0
3275 0 0 0
3276 0 0 0
3284 0 0 0
3282 0 0 0
3286 0 0 0
3288 0 0 0
3280 0 0 0
3283 0 0 0
3298 0 0 0
3300 0 0 0
3292 0 0 0
3290 0 0 0
3289 0 0 0
3297 0 0 0
3295 0 0 0
3299 0 0 0
3301 0 0 0
3293 0 0 0
3305 0 0 0
3311 0 0 0
3313 0 0 0
4493 0 0 0
3303 0 0 0
3302 0 0 0
3308 0 0 0
3306 0 0 0
3310 0 0 0
3312 0 0 0
3314 0 0 0
3309 0 0 0
3318 0 0 0
3324 0 0 0
3326 0 0 0
3316 0 0 0
3315 0 0 0
3319 0 0 0
3321 0 0 0
3323 0 0 0
3325 0 0 0
3327 0 0 0
3467 0 0 0
3468 0 0 0
3320 0 0 0
4612 0 0 0
3329 0 0 0
3328 0 0 0
3335 0 0 0
4507 0 0 0
3337 0 0 0
3334 0 0 0
3333 0 0 0
3340 0 0 0
3336 0 0 0
3332 0 0 0
3338 0 0 0
3339 0 0 0
3330 0 0 0
3331 0 0 0
4617 0 0 0
4517 0 0 0
3346 0 0 0
3348 0 0 0
3343 0 0 0
3344 0 0 0
3345 0 0 0
3351 0 0 0
3347 0 0 0
3350 0 0 0
3349 0 0 0
3342 0 0 0
3341 0 0 0
3352 0 0 0
3358 0 0 0
3353 0 0 0
3354 0 0 0
3359 0 0 0
3361 0 0 0
3366 0 0 0
3355 0 0 0
3356 0 0 0
3364 0 0 0
3360 0 0 0
3363 0 0 0
3362 0 0 0
3367 0 0 0
3480 0 0 0
3476 0 0 0
3483 0 0 0
3365 0 0 0
3481 0 0 0
4537 0 0 0
3372 0 0 0
3374 0 0 0
3379 0 0 0
3368 0 0 0
3369 0 0 0
3377 0 0 0
3373 0 0 0
3375 0 0 0
3380 0 0 0
3378 0 0 0
3501 0 0 0
3385 0 0 0
3387 0 0 0
3392 0 0 0
3384 0 0 0
3382 0 0 0
3390 0 0 0
3386 0 0 0
3381 0 0 0
3388 0 0 0
3394 0 0 0
3393 0 0 0
3514 0 0 0
3395 0 0 0
3398 0 0 0
3400 0 0 0
3405 0 0 0
3408 0 0 0
3403 0 0 0
3399 0 0 0
3401 0 0 0
3406 0 0 0
3417 0 0 0
3410 0 0 0
3419 0 0 0
3414 0 0 0
3415 0 0 0
3418 0 0 0
3421 0 0 0
3420 0 0 0
3416 0 0 0
3423 0 0 0
3425 0 0 0
3427 0 0 0
3424 0 0 0
3426 0 0 0
3430 0 0 0
3436 0 0 0
3432 0 0 0
3438 0 0 0
3440 0 0 0
3428 0 0 0
3429 0 0 0
3434 0 0 0
3431 0 0 0
3437 0 0 0
3433 0 0 0
3439 0 0 0
3557 0 0 0
3296 0 0 0
3443 0 0 0
3449 0 0 0
3445 0 0 0
3441 0 0 0
3442 0 0 0
3447 0 0 0
3444 0 0 0
3450 0 0 0
3446 0 0 0
3452 0 0 0
3453 0 0 0
3451 0 0 0
3570 0 0 0
3577 0 0 0
3456 0 0 0
3458 0 0 0
3454 0 0 0
3460 0 0 0
3457 0 0 0
3459 0 0 0
3461 0 0 0
3462 0 0 0
3317 0 0 0
3464 0 0 0
3463 0 0 0
3469 0 0 0
3465 0 0 0
3466 0 0 0
3470 0 0 0
3471 0 0 0
3478 0 0 0
3479 0 0 0
2525 0 0 0
3482 0 0 0
3477 0 0 0
3487 0 0 0
3489 0 0 0
3486 0 0 0
3490 0 0 0
3485 0 0 0
3484 0 0 0
3488 0 0 0
3493 0 0 0
3497 0 0 0
3500 0 0 0
3502 0 0 0
3491 0 0 0
3492 0 0 0
3498 0 0 0
3494 0 0 0
3496 0 0 0
3503 0 0 0
3495 0 0 0
3586 0 0 0
3581 0 0 0
3582 0 0 0
3506 0 0 0
3508 0 0 0
3510 0 0 0
3513 0 0 0
3515 0 0 0
3391 0 0 0
3504 0 0 0
3507 0 0 0
3511 0 0 0
3505 0 0 0
3509 0 0 0
3516 0 0 0
3518 0 0 0
3608 0 0 0
3412 0 0 0
3411 0 0 0
3413 0 0 0
3517 0 0 0
3526 0 0 0
3519 0 0 0
3528 0 0 0
3521 0 0 0
3523 0 0 0
3409 0 0 0
3530 0 0 0
3524 0 0 0
3527 0 0 0
3520 0 0 0
3529 0 0 0
3522 0 0 0
3534 0 0 0
3537 0 0 0
3539 0 0 0
3541 0 0 0
3538 0 0 0
3543 0 0 0
3532 0 0 0
3536 0 0 0
3540 0 0 0
3545 0 0 0
3544 0 0 0
3547 0 0 0
3551 0 0 0
3553 0 0 0
3561 0 0 0
3555 0 0 0
3548 0 0 0
3546 0 0 0
3550 0 0 0
3552 0 0 0
3560 0 0 0
3559 0 0 0
3554 0 0 0
3562 0 0 0
3564 0 0 0
3565 0 0 0
3563 0 0 0
3566 0 0 0
3568 0 0 0
3567 0 0 0
3572 0 0 0
3575 0 0 0
3569 0 0 0
3573 0 0 0
3576 0 0 0
3571 0 0 0
3574 0 0 0
3578 0 0 0
3579 0 0 0
3580 0 0 0
4686 0 0 0
3588 0 0 0
3587 0 0 0
3589 0 0 0
3593 0 0 0
4692 0 0 0
4689 0 0 0
3590 0 0 0
3585 0 0 0
3584 0 0 0
3592 0 0 0
3591 0 0 0
3598 0 0 0
3602 0 0 0
3604 0 0 0
3606 0 0 0
3594 0 0 0
3599 0 0 0
3595 0 0 0
3600 0 0 0
3596 0 0 0
3601 0 0 0
3603 0 0 0
3610 0 0 0
3605 0 0 0
3616 0 0 0
3618 0 0 0
3612 0 0 0
3620 0 0 0
3622 0 0 0
3623 0 0 0
3624 0 0 0
3613 0 0 0
3617 0 0 0
3611 0 0 0
3615 0 0 0
3619 0 0 0
3621 0 0 0
3542 0 0 0
3533 0 0 0
3626 0 0 0
3632 0 0 0
3628 0 0 0
3631 0 0 0
3627 0 0 0
3634 0 0 0
3636 0 0 0
3638 0 0 0
3635 0 0 0
3637 0 0 0
3556 0 0 0
3642 0 0 0
3641 0 0 0
3645 0 0 0
3643 0 0 0
3644 0 0 0
3647 0 0 0
3649 0 0 0
3646 0 0 0
3648 0 0 0
3650 0 0 0
3652 0 0 0
3651 0 0 0
3653 0 0 0
4793 0 0 0
4790 0 0 0
3655 0 0 0
3657 0 0 0
3656 0 0 0
3654 0 0 0
3661 0 0 0
3663 0 0 0
3667 0 0 0
3660 0 0 0
3658 0 0 0
3659 0 0 0
3662 0 0 0
3666 0 0 0
3664 0 0 0
3665 0 0 0
3668 0 0 0
3669 0 0 0
4800 0 0 0
3625 0 0 0
3671 0 0 0
3677 0 0 0
3673 0 0 0
3679 0 0 0
3678 0 0 0
3670 0 0 0
3676 0 0 0
3672 0 0 0
3674 0 0 0
3686 0 0 0
3680 0 0 0
3688 0 0 0
4771 0 0 0
3685 0 0 0
3683 0 0 0
3687 0 0 0
3691 0 0 0
3681 0 0 0
3689 0 0 0
3690 0 0 0
3684 0 0 0
3693 0 0 0
4775 0 0 0
3692 0 0 0
3698 0 0 0
3694 0 0 0
3699 0 0 0
3701 0 0 0
3696 0 0 0
3695 0 0 0
3700 0 0 0
3707 0 0 0
3702 0 0 0
3703 0 0 0
4785 0 0 0
3708 0 0 0
3709 0 0 0
3765 0 0 0
3768 0 0 0
3717 0 0 0
3711 0 0 0
3710 0 0 0
3718 0 0 0
3720 0 0 0
4806 0 0 0
3713 0 0 0
3715 0 0 0
3714 0 0 0
3716 0 0 0
3723 0 0 0
3719 0 0 0
3721 0 0 0
3722 0 0 0
3724 0 0 0
3789 0 0 0
3731 0 0 0
3725 0 0 0
3733 0 0 0
4810 0 0 0
4816 0 0 0
3736 0 0 0
3735 0 0 0
3737 0 0 0
3730 0 0 0
3728 0 0 0
3732 0 0 0
3726 0 0 0
3734 0 0 0
3727 0 0 0
3729 0 0 0
3738 0 0 0
3744 0 0 0
3740 0 0 0
3746 0 0 0
3748 0 0 0
4820 0 0 0
3742 0 0 0
3739 0 0 0
3745 0 0 0
3749 0 0 0
3741 0 0 0
3747 0 0 0
3743 0 0 0
3750 0 0 0
3753 0 0 0
4828 0 0 0
3754 0 0 0
3825 0 0 0
3770 0 0 0
3751 0 0 0
3697 0 0 0
3757 0 0 0
3759 0 0 0
3761 0 0 0
3755 0 0 0
3752 0 0 0
3756 0 0 0
3762 0 0 0
3758 0 0 0
3767 0 0 0
3763 0 0 0
3766 0 0 0
3764 0 0 0
4836 0 0 0
3771 0 0 0
3769 0 0 0
4840 0 0 0
3776 0 0 0
3773 0 0 0
3777 0 0 0
3784 0 0 0
3778 0 0 0
3775 0 0 0
3794 0 0 0
3780 0 0 0
3781 0 0 0
3782 0 0 0
3774 0 0 0
3785 0 0 0
3779 0 0 0
3788 0 0 0
4850 0 0 0
3796 0 0 0
3798 0 0 0
3786 0 0 0
3792 0 0 0
3791 0 0 0
3787 0 0 0
3793 0 0 0
3795 0 0 0
3797 0 0 0
3800 0 0 0
3790 0 0 0
3872 0 0 0
3799 0 0 0
3801 0 0 0
3807 0 0 0
3803 0 0 0
3809 0 0 0
3811 0 0 0
4858 0 0 0
3812 0 0 0
3813 0 0 0
3805 0 0 0
3802 0 0 0
3808 0 0 0
3804 0 0 0
3810 0 0 0
3806 0 0 0
3900 0 0 0
3816 0 0 0
4868 0 0 0
3818 0 0 0
3815 0 0 0
3823 0 0 0
3822 0 0 0
3817 0 0 0
3821 0 0 0
3826 0 0 0
3830 0 0 0
3832 0 0 0
3829 0 0 0
3831 0 0 0
3833 0 0 0
3760 0 0 0
3844 0 0 0
4876 0 0 0
3846 0 0 0
3836 0 0 0
3835 0 0 0
3839 0 0 0
3837 0 0 0
3845 0 0 0
3840 0 0 0
3847 0 0 0
3848 0 0 0
3849 0 0 0
3853 0 0 0
3855 0 0 0
3857 0 0 0
3859 0 0 0
4902 0 0 0
3869 0 0 0
3865 0 0 0
3868 0 0 0
3870 0 0 0
3864 0 0 0
3862 0 0 0
3860 0 0 0
3866 0 0 0
3861 0 0 0
3783 0 0 0
3875 0 0 0
3877 0 0 0
3879 0 0 0
4910 0 0 0
3885 0 0 0
3876 0 0 0
3881 0 0 0
3874 0 0 0
3878 0 0 0
3883 0 0 0
3873 0 0 0
3880 0 0 0
3882 0 0 0
3884 0 0 0
3887 0 0 0
3888 0 0 0
3819 0 0 0
3886 0 0 0
3889 0 0 0
3891 0 0 0
4918 0 0 0
3893 0 0 0
3899 0 0 0
3902 0 0 0
3901 0 0 0
3890 0 0 0
3898 0 0 0
3897 0 0 0
3892 0 0 0
3896 0 0 0
3894 0 0 0
3907 0 0 0
3909 0 0 0
4924 0 0 0
3903 0 0 0
3906 0 0 0
3905 0 0 0
3908 0 0 0
3912 0 0 0
3910 0 0 0
3904 0 0 0
3911 0 0 0
3999 0 0 0
4933 0 0 0
5023 0 0 0
3917 0 0 0
3919 0 0 0
4942 0 0 0
3923 0 0 0
5033 0 0 0
3914 0 0 0
4012 0 0 0
3916 0 0 0
3922 0 0 0
3918 0 0 0
3920 0 0 0
3921 0 0 0
4025 0 0 0
4022 0 0 0
3927 0 0 0
3929 0 0 0
3933 0 0 0
5043 0 0 0
3924 0 0 0
3925 0 0 0
3926 0 0 0
3932 0 0 0
3928 0 0 0
3930 0 0 0
3931 0 0 0
3934 0 0 0
3944 0 0 0
4951 0 0 0
3935 0 0 0
3937 0 0 0
3939 0 0 0
3936 0 0 0
3941 0 0 0
3940 0 0 0
3938 0 0 0
3942 0 0 0
4956 0 0 0
4969 0 0 0
2874 0 0 0
3963 0 0 0
5103 0 0 0
3962 0 0 0
3960 0 0 0
3958 0 0 0
3957 0 0 0
3961 0 0 0
3959 0 0 0
3966 0 0 0
3858 0 0 0
3856 0 0 0
3863 0 0 0
3964 0 0 0
3965 0 0 0
3973 0 0 0
3975 0 0 0
3967 0 0 0
3970 0 0 0
3971 0 0 0
3972 0 0 0
3974 0 0 0
3976 0 0 0
3867 0 0 0
4992 0 0 0
5001 0 0 0
3979 0 0 0
3983 0 0 0
3985 0 0 0
5123 0 0 0
3978 0 0 0
3977 0 0 0
3980 0 0 0
4127 0 0 0
3981 0 0 0
3982 0 0 0
3984 0 0 0
3986 0 0 0
3988 0 0 0
3987 0 0 0
3993 0 0 0
3995 0 0 0
5010 0 0 0
5133 0 0 0
3997 0 0 0
3998 0 0 0
3992 0 0 0
3991 0 0 0
3994 0 0 0
3996 0 0 0
3990 0 0 0
4140 0 0 0
4000 0 0 0
4002 0 0 0
4007 0 0 0
5019 0 0 0
4005 0 0 0
4001 0 0 0
4004 0 0 0
4009 0 0 0
4003 0 0 0
4008 0 0 0
4010 0 0 0
4006 0 0 0
4011 0 0 0
4014 0 0 0
4015 0 0 0
4016 0 0 0
4013 0 0 0
5029 0 0 0
4026 0 0 0
4028 0 0 0
4020 0 0 0
5039 0 0 0
4018 0 0 0
4017 0 0 0
4019 0 0 0
4023 0 0 0
4027 0 0 0
4029 0 0 0
4021 0 0 0
4024 0 0 0
4178 0 0 0
4038 0 0 0
4039 0 0 0
4041 0 0 0
4033 0 0 0
4031 0 0 0
4030 0 0 0
4032 0 0 0
4036 0 0 0
4040 0 0 0
4035 0 0 0
4042 0 0 0
4034 0 0 0
4037 0 0 0
5049 0 0 0
3943 0 0 0
4051 0 0 0
4046 0 0 0
4052 0 0 0
4054 0 0 0
4044 0 0 0
4043 0 0 0
4049 0 0 0
4047 0 0 0
4050 0 0 0
4053 0 0 0
4055 0 0 0
4045 0 0 0
3948 0 0 0
3949 0 0 0
4059 0 0 0
4066 0 0 0
5069 0 0 0
4057 0 0 0
4056 0 0 0
4060 0 0 0
4062 0 0 0
4063 0 0 0
4069 0 0 0
4065 0 0 0
4067 0 0 0
4068 0 0 0
4070 0 0 0
4064 0 0 0
5073 0 0 0
4968 0 0 0
3951 0 0 0
3950 0 0 0
4078 0 0 0
4071 0 0 0
4074 0 0 0
4081 0 0 0
4077 0 0 0
4073 0 0 0
4079 0 0 0
4080 0 0 0
4072 0 0 0
4075 0 0 0
4082 0 0 0
4076 0 0 0
4237 0 0 0
5083 0 0 0
4088 0 0 0
4083 0 0 0
4089 0 0 0
4091 0 0 0
4096 0 0 0
5089 0 0 0
4085 0 0 0
4086 0 0 0
4084 0 0 0
4087 0 0 0
4094 0 0 0
4090 0 0 0
4093 0 0 0
4092 0 0 0
4097 0 0 0
4095 0 0 0
4101 0 0 0
4102 0 0 0
4104 0 0 0
4109 0 0 0
5099 0 0 0
4098 0 0 0
4099 0 0 0
4100 0 0 0
4107 0 0 0
4103 0 0 0
4106 0 0 0
4105 0 0 0
4110 0 0 0
4108 0 0 0
5113 0 0 0
4114 0 0 0
4115 0 0 0
4117 0 0 0
5109 0 0 0
4122 0 0 0
4111 0 0 0
4112 0 0 0
4113 0 0 0
4120 0 0 0
4116 0 0 0
4118 0 0 0
4119 0 0 0
4121 0 0 0
4123 0 0 0
4296 0 0 0
4124 0 0 0
4128 0 0 0
4130 0 0 0
5119 0 0 0
4125 0 0 0
4133 0 0 0
4129 0 0 0
4131 0 0 0
4132 0 0 0
4126 0 0 0
4134 0 0 0
4137 0 0 0
4136 0 0 0
4139 0 0 0
4138 0 0 0
4141 0 0 0
4143 0 0 0
4148 0 0 0
5129 0 0 0
4151 0 0 0
4150 0 0 0
4152 0 0 0
4146 0 0 0
4142 0 0 0
4145 0 0 0
4144 0 0 0
4149 0 0 0
4147 0 0 0
4161 0 0 0
4163 0 0 0
4153 0 0 0
4155 0 0 0
4157 0 0 0
4160 0 0 0
4167 0 0 0
4158 0 0 0
4165 0 0 0
4162 0 0 0
4154 0 0 0
4156 0 0 0
4159 0 0 0
4166 0 0 0
4171 0 0 0
4164 0 0 0
4168 0 0 0
4170 0 0 0
4172 0 0 0
4176 0 0 0
4183 0 0 0
4185 0 0 0
5150 0 0 0
4187 0 0 0
4173 0 0 0
4169 0 0 0
4174 0 0 0
4180 0 0 0
4177 0 0 0
4179 0 0 0
4184 0 0 0
4186 0 0 0
4181 0 0 0
4193 0 0 0
4191 0 0 0
4198 0 0 0
4200 0 0 0
4202 0 0 0
4188 0 0 0
4190 0 0 0
4189 0 0 0
4195 0 0 0
4192 0 0 0
4199 0 0 0
4201 0 0 0
4196 0 0 0
4194 0 0 0
4206 0 0 0
4208 0 0 0
4213 0 0 0
4215 0 0 0
4217 0 0 0
4203 0 0 0
4205 0 0 0
4204 0 0 0
4212 0 0 0
4210 0 0 0
4207 0 0 0
4211 0 0 0
4214 0 0 0
4216 0 0 0
4220 0 0 0
4222 0 0 0
4219 0 0 0
4221 0 0 0
4223 0 0 0
4228 0 0 0
4230 0 0 0
4232 0 0 0
4227 0 0 0
4218 0 0 0
4225 0 0 0
4224 0 0 0
4226 0 0 0
4233 0 0 0
4229 0 0 0
4235 0 0 0
4231 0 0 0
4234 0 0 0
5174 0 0 0
4236 0 0 0
4238 0 0 0
4243 0 0 0
4245 0 0 0
5182 0 0 0
4247 0 0 0
4242 0 0 0
4240 0 0 0
4239 0 0 0
4244 0 0 0
4248 0 0 0
4246 0 0 0
4250 0 0 0
4241 0 0 0
4249 0 0 0
4251 0 0 0
4253 0 0 0
5190 0 0 0
4258 0 0 0
4260 0 0 0
4262 0 0 0
4257 0 0 0
4255 0 0 0
4252 0 0 0
4254 0 0 0
4256 0 0 0
4265 0 0 0
4263 0 0 0
4259 0 0 0
4261 0 0 0
4264 0 0 0
4266 0 0 0
4267 0 0 0
3214 0 0 0
4268 0 0 0
4281 0 0 0
4283 0 0 0
4273 0 0 0
4275 0 0 0
4277 0 0 0
4272 0 0 0
4270 0 0 0
4271 0 0 0
4280 0 0 0
4278 0 0 0
4282 0 0 0
4284 0 0 0
4274 0 0 0
4276 0 0 0
4288 0 0 0
4290 0 0 0
4292 0 0 0
4298 0 0 0
4287 0 0 0
4285 0 0 0
4286 0 0 0
4293 0 0 0
4289 0 0 0
4295 0 0 0
4291 0 0 0
4297 0 0 0
4299 0 0 0
4301 0 0 0
4303 0 0 0
4305 0 0 0
4307 0 0 0
4311 0 0 0
4313 0 0 0
5222 0 0 0
4302 0 0 0
4300 0 0 0
4304 0 0 0
4308 0 0 0
4306 0 0 0
4310 0 0 0
4309 0 0 0
4312 0 0 0
4314 0 0 0
4316 0 0 0
4317 0 0 0
4315 0 0 0
4326 0 0 0
4328 0 0 0
4318 0 0 0
4320 0 0 0
5230 0 0 0
4322 0 0 0
4330 0 0 0
4332 0 0 0
4331 0 0 0
4325 0 0 0
4323 0 0 0
4327 0 0 0
4329 0 0 0
4319 0 0 0
4321 0 0 0
4324 0 0 0
4333 0 0 0
4343 0 0 0
4340 0 0 0
4335 0 0 0
4337 0 0 0
4338 0 0 0
4341 0 0 0
4336 0 0 0
4339 0 0 0
4342 0 0 0
4344 0 0 0
4345 0 0 0
4347 0 0 0
4350 0 0 0
4355 0 0 0
4357 0 0 0
4348 0 0 0
4346 0 0 0
4349 0 0 0
4354 0 0 0
4351 0 0 0
4356 0 0 0
3147 0 0 0
4363 0 0 0
4360 0 0 0
4365 0 0 0
4367 0 0 0
4358 0 0 0
4359 0 0 0
4364 0 0 0
4361 0 0 0
4366 0 0 0
4370 0 0 0
4375 0 0 0
4377 0 0 0
4368 0 0 0
4371 0 0 0
4374 0 0 0
4376 0 0 0
5271 0 0 0
4369 0 0 0
4383 0 0 0
4380 0 0 0
4385 0 0 0
4387 0 0 0
4378 0 0 0
4381 0 0 0
4379 0 0 0
4384 0 0 0
4388 0 0 0
4386 0 0 0
4389 0 0 0
4498 0 0 0
4382 0 0 0
4393 0 0 0
3184 0 0 0
4390 0 0 0
4395 0 0 0
4397 0 0 0
4394 0 0 0
4391 0 0 0
4396 0 0 0
4398 0 0 0
4392 0 0 0
4399 0 0 0
5289 0 0 0
4403 0 0 0
4400 0 0 0
4410 0 0 0
4405 0 0 0
4407 0 0 0
4401 0 0 0
4402 0 0 0
4404 0 0 0
4408 0 0 0
4406 0 0 0
4409 0 0 0
5298 0 0 0
4420 0 0 0
4415 0 0 0
4417 0 0 0
4411 0 0 0
4414 0 0 0
4418 0 0 0
4416 0 0 0
4419 0 0 0
5307 0 0 0
4423 0 0 0
3220 0 0 0
5310 0 0 0
4425 0 0 0
4427 0 0 0
4430 0 0 0
4421 0 0 0
4422 0 0 0
4424 0 0 0
4428 0 0 0
4426 0 0 0
4429 0 0 0
5319 0 0 0
5316 0 0 0
4435 0 0 0
4437 0 0 0
4440 0 0 0
4434 0 0 0
4431 0 0 0
4436 0 0 0
4438 0 0 0
4432 0 0 0
4439 0 0 0
4441 0 0 0
4442 0 0 0
4443 0 0 0
4334 0 0 0
4450 0 0 0
4445 0 0 0
4447 0 0 0
4451 0 0 0
4444 0 0 0
4448 0 0 0
4446 0 0 0
4457 0 0 0
4453 0 0 0
3268 0 0 0
4459 0 0 0
4461 0 0 0
4455 0 0 0
4458 0 0 0
4460 0 0 0
4454 0 0 0
4456 0 0 0
4462 0 0 0
4465 0 0 0
4464 0 0 0
4463 0 0 0
3281 0 0 0
4467 0 0 0
4473 0 0 0
4352 0 0 0
4469 0 0 0
4471 0 0 0
4475 0 0 0
4466 0 0 0
4468 0 0 0
4470 0 0 0
4474 0 0 0
4472 0 0 0
4483 0 0 0
3294 0 0 0
4477 0 0 0
4362 0 0 0
4479 0 0 0
4481 0 0 0
4485 0 0 0
4476 0 0 0
4478 0 0 0
4480 0 0 0
4484 0 0 0
4482 0 0 0
4487 0 0 0
3307 0 0 0
3304 0 0 0
4372 0 0 0
4489 0 0 0
4491 0 0 0
4495 0 0 0
4486 0 0 0
4488 0 0 0
4490 0 0 0
4492 0 0 0
4494 0 0 0
4497 0 0 0
4503 0 0 0
3322 0 0 0
4610 0 0 0
4499 0 0 0
4501 0 0 0
4500 0 0 0
4496 0 0 0
4502 0 0 0
4504 0 0 0
4506 0 0 0
4505 0 0 0
4613 0 0 0
4611 0 0 0
5379 0 0 0
4513 0 0 0
4616 0 0 0
3473 0 0 0
4509 0 0 0
4511 0 0 0
4508 0 0 0
4510 0 0 0
4514 0 0 0
4512 0 0 0
4516 0 0 0
4515 0 0 0
4518 0 0 0
4520 0 0 0
4615 0 0 0
4614 0 0 0
4523 0 0 0
4618 0 0 0
3475 0 0 0
4519 0 0 0
4521 0 0 0
4529 0 0 0
4531 0 0 0
4522 0 0 0
4530 0 0 0
4524 0 0 0
4526 0 0 0
4525 0 0 0
4621 0 0 0
4619 0 0 0
4527 0 0 0
4533 0 0 0
4412 0 0 0
4528 0 0 0
4539 0 0 0
4541 0 0 0
4535 0 0 0
4532 0 0 0
4538 0 0 0
4540 0 0 0
4534 0 0 0
4536 0 0 0
4624 0 0 0
4543 0 0 0
4547 0 0 0
3376 0 0 0
4545 0 0 0
4549 0 0 0
4551 0 0 0
4542 0 0 0
4544 0 0 0
4546 0 0 0
4548 0 0 0
4550 0 0 0
4553 0 0 0
4557 0 0 0
3389 0 0 0
3383 0 0 0
3396 0 0 0
4555 0 0 0
4559 0 0 0
4561 0 0 0
4554 0 0 0
4552 0 0 0
4556 0 0 0
4558 0 0 0
4560 0 0 0
4562 0 0 0
4567 0 0 0
4563 0 0 0
3407 0 0 0
3402 0 0 0
4452 0 0 0
4449 0 0 0
4569 0 0 0
4571 0 0 0
4565 0 0 0
4572 0 0 0
4568 0 0 0
4570 0 0 0
4564 0 0 0
4566 0 0 0
4576 0 0 0
3265 0 0 0
3422 0 0 0
4578 0 0 0
4574 0 0 0
4573 0 0 0
4577 0 0 0
4579 0 0 0
4575 0 0 0
4580 0 0 0
4582 0 0 0
4581 0 0 0
4584 0 0 0
3278 0 0 0
3435 0 0 0
4586 0 0 0
4590 0 0 0
4583 0 0 0
4589 0 0 0
4585 0 0 0
4587 0 0 0
4588 0 0 0
3291 0 0 0
4592 0 0 0
3448 0 0 0
3455 0 0 0
4594 0 0 0
4598 0 0 0
4591 0 0 0
4597 0 0 0
4593 0 0 0
4595 0 0 0
4596 0 0 0
4599 0 0 0
4600 0 0 0
4604 0 0 0
4684 0 0 0
4601 0 0 0
4605 0 0 0
4606 0 0 0
4602 0 0 0
4603 0 0 0
4607 0 0 0
4608 0 0 0
4609 0 0 0
4683 0 0 0
4620 0 0 0
3357 0 0 0
4630 0 0 0
4628 0 0 0
4685 0 0 0
4627 0 0 0
4632 0 0 0
4629 0 0 0
4626 0 0 0
4625 0 0 0
4623 0 0 0
4622 0 0 0
4637 0 0 0
3370 0 0 0
3499 0 0 0
4631 0 0 0
4635 0 0 0
4639 0 0 0
4633 0 0 0
4634 0 0 0
4636 0 0 0
4638 0 0 0
4640 0 0 0
4645 0 0 0
3512 0 0 0
4643 0 0 0
4647 0 0 0
4642 0 0 0
4641 0 0 0
4644 0 0 0
4646 0 0 0
4648 0 0 0
4649 0 0 0
4653 0 0 0
3531 0 0 0
3404 0 0 0
3525 0 0 0
4655 0 0 0
4651 0 0 0
4657 0 0 0
4650 0 0 0
4654 0 0 0
4656 0 0 0
4652 0 0 0
4658 0 0 0
3535 0 0 0
4664 0 0 0
4660 0 0 0
4659 0 0 0
4663 0 0 0
4665 0 0 0
4661 0 0 0
4668 0 0 0
4667 0 0 0
4669 0 0 0
4666 0 0 0
4674 0 0 0
3549 0 0 0
3558 0 0 0
4672 0 0 0
4676 0 0 0
4671 0 0 0
4675 0 0 0
4673 0 0 0
4677 0 0 0
4678 0 0 0
4679 0 0 0
4680 0 0 0
4732 0 0 0
3583 0 0 0
4687 0 0 0
4696 0 0 0
4693 0 0 0
4695 0 0 0
4694 0 0 0
4690 0 0 0
3597 0 0 0
3607 0 0 0
4698 0 0 0
4691 0 0 0
4688 0 0 0
4700 0 0 0
4702 0 0 0
4704 0 0 0
4699 0 0 0
4697 0 0 0
4701 0 0 0
4703 0 0 0
4747 0 0 0
4705 0 0 0
3609 0 0 0
4706 0 0 0
3614 0 0 0
4712 0 0 0
4708 0 0 0
4710 0 0 0
4713 0 0 0
4707 0 0 0
4711 0 0 0
4709 0 0 0
3633 0 0 0
4662 0 0 0
4716 0 0 0
3630 0 0 0
3629 0 0 0
4718 0 0 0
4720 0 0 0
4717 0 0 0
4719 0 0 0
4714 0 0 0
4721 0 0 0
4715 0 0 0
4722 0 0 0
5602 0 0 0
3639 0 0 0
4670 0 0 0
4725 0 0 0
3640 0 0 0
4727 0 0 0
4729 0 0 0
4723 0 0 0
4724 0 0 0
4726 0 0 0
4728 0 0 0
4730 0 0 0
4731 0 0 0
4786 0 0 0
4740 0 0 0
4738 0 0 0
4734 0 0 0
4737 0 0 0
4736 0 0 0
4739 0 0 0
4743 0 0 0
4749 0 0 0
4742 0 0 0
4735 0 0 0
4741 0 0 0
5621 0 0 0
4744 0 0 0
4751 0 0 0
4753 0 0 0
4745 0 0 0
4746 0 0 0
4748 0 0 0
4750 0 0 0
4752 0 0 0
4802 0 0 0
4801 0 0 0
3675 0 0 0
4758 0 0 0
4754 0 0 0
4755 0 0 0
4760 0 0 0
4762 0 0 0
4763 0 0 0
4764 0 0 0
4759 0 0 0
4761 0 0 0
4756 0 0 0
4757 0 0 0
3682 0 0 0
4765 0 0 0
4767 0 0 0
4769 0 0 0
4773 0 0 0
4768 0 0 0
4770 0 0 0
5638 0 0 0
4772 0 0 0
4774 0 0 0
4779 0 0 0
4777 0 0 0
4776 0 0 0
4778 0 0 0
4781 0 0 0
3705 0 0 0
4783 0 0 0
4780 0 0 0
4788 0 0 0
4784 0 0 0
5654 0 0 0
4782 0 0 0
4787 0 0 0
4789 0 0 0
4794 0 0 0
4795 0 0 0
4791 0 0 0
4792 0 0 0
4799 0 0 0
4797 0 0 0
4798 0 0 0
4796 0 0 0
4808 0 0 0
4803 0 0 0
4805 0 0 0
5661 0 0 0
4807 0 0 0
4809 0 0 0
4804 0 0 0
4766 0 0 0
4812 0 0 0
4814 0 0 0
4818 0 0 0
4819 0 0 0
4811 0 0 0
4813 0 0 0
4815 0 0 0
5669 0 0 0
4817 0 0 0
4826 0 0 0
4822 0 0 0
4825 0 0 0
4824 0 0 0
4827 0 0 0
5680 0 0 0
4821 0 0 0
4823 0 0 0
4830 0 0 0
4829 0 0 0
4831 0 0 0
4842 0 0 0
4834 0 0 0
4832 0 0 0
4833 0 0 0
4835 0 0 0
5689 0 0 0
4837 0 0 0
4839 0 0 0
4838 0 0 0
4843 0 0 0
4841 0 0 0
4846 0 0 0
4848 0 0 0
4844 0 0 0
4852 0 0 0
4856 0 0 0
4849 0 0 0
4851 0 0 0
4853 0 0 0
4854 0 0 0
4855 0 0 0
4857 0 0 0
5713 0 0 0
4864 0 0 0
4860 0 0 0
4865 0 0 0
4863 0 0 0
4862 0 0 0
5722 0 0 0
4859 0 0 0
4861 0 0 0
4866 0 0 0
4870 0 0 0
4872 0 0 0
4867 0 0 0
5728 0 0 0
4869 0 0 0
4871 0 0 0
4873 0 0 0
4874 0 0 0
5735 0 0 0
4882 0 0 0
4878 0 0 0
4880 0 0 0
4875 0 0 0
5739 0 0 0
4881 0 0 0
5750 0 0 0
4877 0 0 0
4879 0 0 0
4885 0 0 0
5746 0 0 0
4884 0 0 0
4889 0 0 0
4891 0 0 0
4883 0 0 0
4887 0 0 0
4886 0 0 0
4890 0 0 0
4892 0 0 0
4896 0 0 0
4895 0 0 0
4903 0 0 0
4905 0 0 0
4904 0 0 0
4901 0 0 0
4900 0 0 0
4908 0 0 0
4912 0 0 0
4914 0 0 0
4907 0 0 0
4909 0 0 0
5776 0 0 0
4911 0 0 0
4915 0 0 0
4913 0 0 0
4916 0 0 0
4920 0 0 0
4922 0 0 0
4923 0 0 0
4917 0 0 0
5787 0 0 0
4919 0 0 0
4921 0 0 0
5008 0 0 0
4926 0 0 0
4928 0 0 0
4925 0 0 0
4929 0 0 0
4931 0 0 0
4927 0 0 0
4930 0 0 0
4932 0 0 0
5798 0 0 0
4934 0 0 0
5805 0 0 0
4935 0 0 0
4937 0 0 0
4944 0 0 0
4946 0 0 0
4938 0 0 0
4936 0 0 0
4939 0 0 0
4943 0 0 0
4940 0 0 0
4945 0 0 0
5034 0 0 0
4941 0 0 0
5812 0 0 0
4888 0 0 0
5757 0 0 0
4893 0 0 0
4894 0 0 0
5045 0 0 0
4955 0 0 0
4947 0 0 0
4948 0 0 0
4952 0 0 0
4949 0 0 0
4954 0 0 0
4950 0 0 0
4953 0 0 0
5760 0 0 0
4957 0 0 0
5819 0 0 0
5055 0 0 0
4958 0 0 0
4959 0 0 0
4960 0 0 0
4962 0 0 0
4961 0 0 0
5054 0 0 0
4966 0 0 0
4965 0 0 0
4964 0 0 0
4970 0 0 0
4977 0 0 0
4975 0 0 0
4976 0 0 0
4982 0 0 0
5837 0 0 0
4981 0 0 0
4980 0 0 0
4979 0 0 0
4984 0 0 0
4989 0 0 0
5843 0 0 0
4988 0 0 0
4987 0 0 0
4985 0 0 0
4899 0 0 0
4906 0 0 0
5772 0 0 0
4994 0 0 0
4996 0 0 0
4990 0 0 0
4991 0 0 0
4993 0 0 0
4997 0 0 0
4995 0 0 0
4998 0 0 0
5851 0 0 0
5783 0 0 0
5003 0 0 0
5005 0 0 0
5125 0 0 0
5002 0 0 0
4999 0 0 0
5004 0 0 0
5006 0 0 0
5000 0 0 0
5007 0 0 0
5858 0 0 0
5009 0 0 0
5794 0 0 0
5012 0 0 0
5135 0 0 0
5014 0 0 0
5017 0 0 0
5018 0 0 0
5011 0 0 0
5015 0 0 0
5013 0 0 0
5016 0 0 0
5865 0 0 0
5025 0 0 0
5024 0 0 0
5027 0 0 0
5021 0 0 0
5026 0 0 0
5020 0 0 0
5022 0 0 0
5028 0 0 0
5030 0 0 0
5139 0 0 0
5035 0 0 0
5031 0 0 0
5037 0 0 0
5041 0 0 0
5032 0 0 0
5036 0 0 0
5040 0 0 0
5038 0 0 0
5884 0 0 0
5044 0 0 0
5047 0 0 0
5051 0 0 0
5042 0 0 0
5046 0 0 0
5050 0 0 0
5048 0 0 0
5892 0 0 0
5163 0 0 0
5053 0 0 0
5059 0 0 0
4048 0 0 0
4963 0 0 0
5057 0 0 0
5061 0 0 0
5052 0 0 0
5056 0 0 0
5058 0 0 0
5060 0 0 0
5062 0 0 0
5171 0 0 0
5063 0 0 0
4967 0 0 0
4061 0 0 0
4058 0 0 0
5064 0 0 0
5065 0 0 0
5067 0 0 0
5071 0 0 0
5066 0 0 0
5068 0 0 0
5070 0 0 0
5072 0 0 0
5179 0 0 0
5908 0 0 0
5079 0 0 0
5074 0 0 0
5075 0 0 0
4971 0 0 0
4972 0 0 0
4973 0 0 0
5077 0 0 0
5081 0 0 0
5076 0 0 0
5080 0 0 0
5078 0 0 0
5082 0 0 0
5093 0 0 0
4974 0 0 0
5084 0 0 0
4978 0 0 0
5085 0 0 0
5087 0 0 0
5097 0 0 0
5091 0 0 0
5086 0 0 0
5088 0 0 0
5096 0 0 0
5090 0 0 0
5092 0 0 0
5839 0 0 0
5094 0 0 0
4983 0 0 0
5095 0 0 0
5105 0 0 0
4986 0 0 0
5104 0 0 0
5107 0 0 0
5101 0 0 0
5098 0 0 0
5106 0 0 0
5100 0 0 0
5102 0 0 0
5938 0 0 0
5930 0 0 0
5840 0 0 0
5115 0 0 0
5114 0 0 0
5111 0 0 0
5117 0 0 0
5108 0 0 0
5110 0 0 0
5112 0 0 0
5116 0 0 0
5946 0 0 0
5124 0 0 0
5121 0 0 0
5127 0 0 0
5120 0 0 0
5118 0 0 0
5122 0 0 0
5126 0 0 0
5128 0 0 0
5954 0 0 0
5134 0 0 0
5137 0 0 0
5131 0 0 0
5138 0 0 0
5136 0 0 0
5130 0 0 0
5132 0 0 0
5962 0 0 0
5227 0 0 0
5142 0 0 0
5144 0 0 0
5140 0 0 0
5145 0 0 0
5143 0 0 0
5141 0 0 0
5146 0 0 0
5148 0 0 0
5147 0 0 0
5977 0 0 0
5152 0 0 0
5156 0 0 0
5149 0 0 0
5153 0 0 0
5151 0 0 0
5154 0 0 0
5988 0 0 0
5158 0 0 0
5155 0 0 0
5160 0 0 0
5164 0 0 0
5157 0 0 0
5161 0 0 0
5159 0 0 0
5162 0 0 0
4209 0 0 0
5166 0 0 0
5168 0 0 0
5172 0 0 0
5165 0 0 0
5169 0 0 0
5167 0 0 0
5170 0 0 0
5176 0 0 0
5180 0 0 0
5177 0 0 0
5175 0 0 0
5173 0 0 0
5178 0 0 0
5181 0 0 0
5283 0 0 0
5184 0 0 0
5188 0 0 0
5185 0 0 0
5187 0 0 0
5183 0 0 0
5186 0 0 0
5189 0 0 0
6032 0 0 0
5193 0 0 0
5198 0 0 0
5192 0 0 0
5200 0 0 0
5196 0 0 0
5191 0 0 0
5194 0 0 0
5201 0 0 0
5195 0 0 0
5197 0 0 0
6043 0 0 0
4269 0 0 0
5206 0 0 0
4279 0 0 0
5199 0 0 0
5208 0 0 0
5204 0 0 0
5202 0 0 0
5209 0 0 0
5203 0 0 0
5207 0 0 0
5205 0 0 0
5214 0 0 0
4294 0 0 0
5212 0 0 0
5216 0 0 0
5210 0 0 0
5211 0 0 0
5213 0 0 0
6065 0 0 0
5217 0 0 0
5215 0 0 0
5220 0 0 0
5224 0 0 0
5219 0 0 0
5218 0 0 0
5221 0 0 0
6076 0 0 0
5225 0 0 0
5223 0 0 0
5226 0 0 0
5232 0 0 0
5228 0 0 0
5234 0 0 0
5233 0 0 0
5231 0 0 0
5229 0 0 0
6087 0 0 0
5238 0 0 0
5235 0 0 0
5244 0 0 0
5239 0 0 0
5241 0 0 0
5236 0 0 0
5240 0 0 0
5237 0 0 0
5243 0 0 0
5242 0 0 0
5245 0 0 0
5253 0 0 0
5248 0 0 0
5250 0 0 0
5254 0 0 0
5246 0 0 0
5249 0 0 0
5252 0 0 0
5251 0 0 0
5987 0 0 0
5247 0 0 0
5262 0 0 0
5256 0 0 0
5257 0 0 0
5259 0 0 0
5263 0 0 0
5255 0 0 0
5258 0 0 0
5261 0 0 0
5260 0 0 0
5265 0 0 0
5266 0 0 0
5268 0 0 0
5272 0 0 0
5264 0 0 0
5267 0 0 0
5270 0 0 0
5269 0 0 0
5273 0 0 0
5375 0 0 0
5280 0 0 0
5274 0 0 0
5275 0 0 0
5277 0 0 0
5281 0 0 0
5276 0 0 0
5279 0 0 0
5278 0 0 0
5282 0 0 0
6016 0 0 0
5284 0 0 0
5286 0 0 0
5290 0 0 0
5285 0 0 0
5288 0 0 0
5287 0 0 0
5291 0 0 0
6172 0 0 0
6171 0 0 0
5292 0 0 0
5293 0 0 0
5295 0 0 0
5302 0 0 0
5304 0 0 0
5299 0 0 0
5294 0 0 0
5297 0 0 0
5296 0 0 0
5303 0 0 0
5300 0 0 0
5305 0 0 0
6042 0 0 0
6197 0 0 0
5301 0 0 0
5311 0 0 0
5313 0 0 0
5308 0 0 0
5306 0 0 0
5312 0 0 0
5309 0 0 0
6210 0 0 0
6208 0 0 0
6200 0 0 0
6211 0 0 0
5314 0 0 0
5317 0 0 0
5320 0 0 0
5322 0 0 0
5315 0 0 0
5318 0 0 0
5321 0 0 0
5323 0 0 0
6223 0 0 0
6221 0 0 0
5325 0 0 0
5326 0 0 0
5329 0 0 0
5331 0 0 0
5324 0 0 0
5327 0 0 0
5330 0 0 0
5333 0 0 0
5332 0 0 0
6082 0 0 0
6086 0 0 0
6236 0 0 0
5328 0 0 0
6234 0 0 0
5337 0 0 0
5334 0 0 0
5338 0 0 0
5340 0 0 0
5335 0 0 0
5342 0 0 0
5339 0 0 0
5336 0 0 0
5341 0 0 0
5347 0 0 0
5344 0 0 0
5348 0 0 0
5343 0 0 0
5346 0 0 0
5345 0 0 0
5349 0 0 0
5350 0 0 0
5352 0 0 0
5351 0 0 0
5353 0 0 0
5355 0 0 0
5360 0 0 0
5356 0 0 0
5354 0 0 0
5358 0 0 0
5361 0 0 0
5357 0 0 0
5359 0 0 0
5363 0 0 0
5368 0 0 0
5364 0 0 0
5362 0 0 0
5367 0 0 0
5366 0 0 0
5369 0 0 0
5365 0 0 0
5371 0 0 0
5372 0 0 0
5376 0 0 0
5370 0 0 0
5374 0 0 0
5373 0 0 0
5377 0 0 0
5378 0 0 0
5380 0 0 0
5384 0 0 0
5381 0 0 0
5382 0 0 0
5383 0 0 0
5386 0 0 0
5385 0 0 0
5481 0 0 0
5480 0 0 0
5483 0 0 0
5387 0 0 0
5392 0 0 0
5391 0 0 0
5390 0 0 0
5394 0 0 0
5393 0 0 0
5388 0 0 0
5389 0 0 0
5484 0 0 0
5396 0 0 0
5403 0 0 0
5400 0 0 0
5404 0 0 0
5398 0 0 0
5399 0 0 0
5402 0 0 0
5401 0 0 0
5397 0 0 0
5395 0 0 0
5485 0 0 0
5405 0 0 0
5408 0 0 0
5412 0 0 0
5406 0 0 0
5407 0 0 0
5410 0 0 0
5409 0 0 0
5413 0 0 0
5411 0 0 0
5489 0 0 0
5419 0 0 0
5416 0 0 0
5420 0 0 0
5414 0 0 0
5415 0 0 0
5418 0 0 0
5417 0 0 0
5421 0 0 0
5422 0 0 0
5427 0 0 0
5424 0 0 0
5428 0 0 0
5423 0 0 0
5426 0 0 0
5425 0 0 0
5429 0 0 0
5430 0 0 0
5435 0 0 0
5432 0 0 0
5436 0 0 0
5438 0 0 0
5431 0 0 0
5434 0 0 0
5433 0 0 0
5437 0 0 0
5439 0 0 0
5448 0 0 0
5445 0 0 0
5440 0 0 0
5442 0 0 0
5444 0 0 0
5447 0 0 0
5446 0 0 0
5441 0 0 0
5443 0 0 0
5451 0 0 0
5452 0 0 0
5535 0 0 0
5457 0 0 0
5449 0 0 0
5454 0 0 0
5458 0 0 0
5460 0 0 0
5453 0 0 0
5450 0 0 0
5456 0 0 0
5455 0 0 0
5459 0 0 0
5461 0 0 0
5546 0 0 0
5466 0 0 0
5463 0 0 0
5467 0 0 0
5462 0 0 0
5465 0 0 0
5464 0 0 0
5468 0 0 0
5470 0 0 0
5469 0 0 0
5557 0 0 0
5562 0 0 0
5475 0 0 0
5472 0 0 0
5471 0 0 0
5474 0 0 0
5473 0 0 0
5476 0 0 0
5478 0 0 0
5477 0 0 0
5479 0 0 0
5482 0 0 0
6480 0 0 0
6481 0 0 0
5487 0 0 0
5493 0 0 0
5488 0 0 0
5486 0 0 0
5491 0 0 0
5495 0 0 0
5497 0 0 0
5494 0 0 0
5492 0 0 0
5490 0 0 0
5496 0 0 0
5499 0 0 0
5500 0 0 0
5505 0 0 0
5498 0 0 0
5504 0 0 0
5501 0 0 0
5503 0 0 0
5506 0 0 0
5502 0 0 0
5565 0 0 0
5564 0 0 0
5508 0 0 0
5509 0 0 0
5511 0 0 0
5514 0 0 0
5507 0 0 0
5510 0 0 0
5513 0 0 0
5512 0 0 0
5515 0 0 0
5574 0 0 0
5517 0 0 0
5516 0 0 0
5523 0 0 0
5518 0 0 0
5520 0 0 0
5525 0 0 0
5522 0 0 0
5524 0 0 0
5519 0 0 0
5521 0 0 0
5530 0 0 0
5526 0 0 0
5531 0 0 0
5533 0 0 0
5527 0 0 0
5528 0 0 0
5532 0 0 0
5529 0 0 0
5536 0 0 0
5534 0 0 0
4733 0 0 0
5541 0 0 0
5548 0 0 0
5538 0 0 0
5542 0 0 0
5544 0 0 0
5549 0 0 0
5539 0 0 0
5540 0 0 0
5543 0 0 0
5547 0 0 0
5545 0 0 0
5550 0 0 0
5551 0 0 0
4682 0 0 0
5552 0 0 0
4681 0 0 0
5553 0 0 0
5554 0 0 0
5556 0 0 0
5558 0 0 0
5560 0 0 0
5555 0 0 0
5559 0 0 0
5561 0 0 0
5563 0 0 0
6575 0 0 0
6577 0 0 0
6576 0 0 0
5569 0 0 0
5570 0 0 0
5568 0 0 0
5571 0 0 0
5572 0 0 0
5567 0 0 0
5566 0 0 0
5585 0 0 0
5580 0 0 0
5573 0 0 0
5581 0 0 0
5583 0 0 0
5578 0 0 0
5575 0 0 0
5579 0 0 0
5582 0 0 0
5584 0 0 0
5586 0 0 0
5591 0 0 0
5587 0 0 0
5592 0 0 0
5594 0 0 0
5596 0 0 0
5597 0 0 0
5589 0 0 0
5593 0 0 0
5590 0 0 0
5595 0 0 0
5588 0 0 0
5599 0 0 0
5603 0 0 0
5598 0 0 0
5601 0 0 0
5600 0 0 0
5604 0 0 0
5606 0 0 0
5605 0 0 0
5607 0 0 0
5537 0 0 0
5609 0 0 0
5610 0 0 0
5608 0 0 0
5612 0 0 0
5611 0 0 0
5614 0 0 0
5613 0 0 0
5615 0 0 0
5616 0 0 0
5650 0 0 0
6645 0 0 0
6644 0 0 0
6647 0 0 0
6646 0 0 0
6650 0 0 0
5577 0 0 0
5576 0 0 0
5628 0 0 0
5622 0 0 0
5620 0 0 0
5618 0 0 0
5625 0 0 0
5629 0 0 0
5624 0 0 0
5623 0 0 0
5627 0 0 0
5626 0 0 0
5630 0 0 0
6657 0 0 0
5665 0 0 0
6659 0 0 0
5635 0 0 0
5632 0 0 0
5636 0 0 0
5637 0 0 0
5631 0 0 0
5634 0 0 0
5633 0 0 0
5646 0 0 0
5643 0 0 0
5639 0 0 0
5642 0 0 0
5641 0 0 0
5645 0 0 0
5644 0 0 0
5640 0 0 0
5647 0 0 0
5651 0 0 0
5648 0 0 0
5649 0 0 0
5653 0 0 0
5652 0 0 0
5656 0 0 0
5655 0 0 0
5658 0 0 0
5657 0 0 0
5697 0 0 0
5617 0 0 0
5619 0 0 0
5660 0 0 0
5659 0 0 0
5666 0 0 0
5663 0 0 0
5664 0 0 0
5668 0 0 0
5667 0 0 0
5662 0 0 0
5674 0 0 0
5670 0 0 0
5676 0 0 0
5673 0 0 0
5672 0 0 0
5675 0 0 0
5671 0 0 0
6744 0 0 0
6751 0 0 0
6741 0 0 0
5677 0 0 0
5681 0 0 0
5683 0 0 0
5679 0 0 0
5678 0 0 0
5682 0 0 0
5685 0 0 0
5686 0 0 0
5687 0 0 0
5733 0 0 0
6761 0 0 0
6759 0 0 0
6763 0 0 0
5684 0 0 0
6752 0 0 0
5690 0 0 0
5692 0 0 0
5688 0 0 0
5694 0 0 0
5696 0 0 0
5691 0 0 0
5693 0 0 0
5695 0 0 0
5699 0 0 0
6773 0 0 0
6776 0 0 0
6784 0 0 0
6771 0 0 0
5704 0 0 0
5708 0 0 0
5707 0 0 0
5703 0 0 0
5701 0 0 0
5705 0 0 0
5702 0 0 0
5700 0 0 0
6790 0 0 0
6788 0 0 0
6787 0 0 0
4847 0 0 0
4845 0 0 0
5706 0 0 0
5710 0 0 0
5714 0 0 0
5716 0 0 0
5709 0 0 0
5712 0 0 0
5711 0 0 0
5715 0 0 0
5718 0 0 0
5717 0 0 0
5774 0 0 0
5781 0 0 0
6791 0 0 0
6789 0 0 0
6803 0 0 0
6795 0 0 0
6794 0 0 0
5719 0 0 0
5723 0 0 0
5725 0 0 0
5727 0 0 0
5721 0 0 0
5720 0 0 0
5724 0 0 0
5726 0 0 0
5792 0 0 0
6815 0 0 0
6813 0 0 0
6806 0 0 0
5729 0 0 0
5731 0 0 0
5736 0 0 0
5737 0 0 0
5730 0 0 0
5734 0 0 0
5732 0 0 0
5738 0 0 0
5740 0 0 0
5741 0 0 0
5743 0 0 0
6818 0 0 0
6828 0 0 0
6829 0 0 0
5742 0 0 0
5698 0 0 0
5753 0 0 0
5744 0 0 0
5745 0 0 0
5748 0 0 0
5752 0 0 0
5749 0 0 0
5754 0 0 0
5751 0 0 0
5756 0 0 0
6840 0 0 0
6832 0 0 0
6839 0 0 0
5747 0 0 0
5755 0 0 0
5759 0 0 0
5762 0 0 0
5763 0 0 0
5765 0 0 0
5771 0 0 0
5770 0 0 0
5766 0 0 0
5769 0 0 0
5767 0 0 0
6856 0 0 0
6868 0 0 0
5777 0 0 0
5779 0 0 0
5784 0 0 0
5778 0 0 0
5775 0 0 0
5782 0 0 0
5780 0 0 0
5785 0 0 0
6869 0 0 0
6879 0 0 0
6872 0 0 0
5786 0 0 0
5788 0 0 0
5790 0 0 0
5795 0 0 0
5796 0 0 0
5797 0 0 0
5789 0 0 0
5793 0 0 0
5791 0 0 0
6880 0 0 0
6890 0 0 0
5802 0 0 0
5799 0 0 0
5801 0 0 0
5800 0 0 0
5804 0 0 0
5803 0 0 0
5872 0 0 0
6898 0 0 0
6901 0 0 0
5806 0 0 0
5809 0 0 0
5813 0 0 0
5807 0 0 0
5808 0 0 0
5811 0 0 0
5810 0 0 0
5888 0 0 0
6841 0 0 0
6910 0 0 0
6913 0 0 0
5758 0 0 0
5816 0 0 0
5820 0 0 0
5814 0 0 0
5815 0 0 0
5818 0 0 0
5817 0 0 0
6922 0 0 0
6925 0 0 0
5827 0 0 0
5821 0 0 0
5826 0 0 0
5823 0 0 0
5822 0 0 0
5825 0 0 0
5824 0 0 0
5828 0 0 0
5829 0 0 0
5830 0 0 0
6935 0 0 0
6938 0 0 0
6937 0 0 0
5838 0 0 0
5836 0 0 0
5835 0 0 0
5847 0 0 0
5846 0 0 0
5934 0 0 0
5845 0 0 0
5844 0 0 0
5842 0 0 0
5841 0 0 0
6962 0 0 0
5773 0 0 0
4898 0 0 0
4897 0 0 0
5764 0 0 0
5761 0 0 0
5768 0 0 0
5848 0 0 0
5849 0 0 0
5852 0 0 0
5855 0 0 0
5850 0 0 0
5853 0 0 0
5854 0 0 0
5856 0 0 0
6963 0 0 0
6975 0 0 0
6966 0 0 0
5859 0 0 0
5862 0 0 0
5857 0 0 0
5860 0 0 0
5861 0 0 0
5863 0 0 0
6987 0 0 0
6978 0 0 0
5864 0 0 0
6985 0 0 0
6990 0 0 0
5869 0 0 0
5866 0 0 0
5871 0 0 0
5868 0 0 0
5867 0 0 0
5870 0 0 0
5958 0 0 0
6999 0 0 0
7002 0 0 0
5876 0 0 0
5880 0 0 0
5873 0 0 0
5877 0 0 0
5875 0 0 0
5878 0 0 0
5879 0 0 0
5881 0 0 0
5882 0 0 0
7019 0 0 0
7004 0 0 0
7009 0 0 0
7020 0 0 0
5889 0 0 0
5885 0 0 0
5883 0 0 0
5887 0 0 0
5890 0 0 0
5886 0 0 0
7034 0 0 0
7035 0 0 0
5896 0 0 0
5897 0 0 0
5893 0 0 0
5891 0 0 0
5895 0 0 0
5898 0 0 0
5894 0 0 0
5900 0 0 0
5904 0 0 0
5901 0 0 0
5905 0 0 0
5899 0 0 0
5903 0 0 0
5902 0 0 0
5906 0 0 0
5907 0 0 0
7064 0 0 0
7061 0 0 0
5831 0 0 0
5832 0 0 0
5909 0 0 0
5910 0 0 0
5911 0 0 0
5914 0 0 0
5913 0 0 0
5912 0 0 0
7069 0 0 0
5915 0 0 0
5834 0 0 0
5833 0 0 0
5916 0 0 0
5918 0 0 0
5921 0 0 0
5920 0 0 0
5917 0 0 0
5919 0 0 0
7094 0 0 0
7091 0 0 0
7248 0 0 0
5926 0 0 0
5922 0 0 0
5923 0 0 0
5927 0 0 0
5931 0 0 0
5925 0 0 0
5924 0 0 0
5929 0 0 0
5928 0 0 0
5932 0 0 0
6039 0 0 0
7109 0 0 0
7106 0 0 0
7110 0 0 0
5935 0 0 0
5939 0 0 0
5933 0 0 0
5937 0 0 0
5936 0 0 0
5940 0 0 0
7124 0 0 0
7131 0 0 0
7284 0 0 0
7123 0 0 0
5942 0 0 0
5943 0 0 0
5947 0 0 0
5941 0 0 0
5945 0 0 0
5944 0 0 0
5948 0 0 0
7139 0 0 0
7136 0 0 0
7146 0 0 0
7151 0 0 0
5950 0 0 0
5951 0 0 0
5955 0 0 0
5949 0 0 0
5953 0 0 0
5952 0 0 0
5957 0 0 0
5956 0 0 0
7154 0 0 0
7166 0 0 0
5874 0 0 0
5959 0 0 0
5963 0 0 0
5965 0 0 0
5961 0 0 0
5960 0 0 0
5964 0 0 0
7169 0 0 0
7174 0 0 0
5966 0 0 0
5973 0 0 0
5967 0 0 0
5969 0 0 0
5972 0 0 0
5976 0 0 0
5971 0 0 0
5975 0 0 0
5974 0 0 0
5970 0 0 0
5981 0 0 0
5978 0 0 0
5980 0 0 0
5984 0 0 0
5989 0 0 0
5991 0 0 0
5982 0 0 0
5979 0 0 0
5983 0 0 0
5986 0 0 0
5985 0 0 0
5990 0 0 0
5992 0 0 0
5999 0 0 0
5995 0 0 0
6000 0 0 0
6002 0 0 0
5993 0 0 0
5994 0 0 0
5998 0 0 0
5997 0 0 0
5996 0 0 0
6001 0 0 0
6003 0 0 0
6010 0 0 0
6006 0 0 0
6011 0 0 0
6013 0 0 0
6004 0 0 0
6005 0 0 0
6009 0 0 0
6008 0 0 0
6007 0 0 0
6012 0 0 0
6014 0 0 0
6015 0 0 0
6021 0 0 0
6017 0 0 0
6022 0 0 0
6024 0 0 0
6020 0 0 0
6019 0 0 0
6018 0 0 0
6026 0 0 0
6023 0 0 0
6027 0 0 0
6025 0 0 0
7247 0 0 0
6028 0 0 0
6033 0 0 0
6035 0 0 0
6031 0 0 0
6030 0 0 0
6029 0 0 0
6034 0 0 0
6037 0 0 0
6038 0 0 0
6036 0 0 0
7257 0 0 0
6050 0 0 0
6044 0 0 0
6046 0 0 0
6041 0 0 0
6040 0 0 0
6049 0 0 0
6048 0 0 0
6051 0 0 0
6045 0 0 0
6047 0 0 0
7267 0 0 0
6054 0 0 0
6061 0 0 0
6055 0 0 0
6057 0 0 0
6053 0 0 0
6052 0 0 0
6060 0 0 0
6059 0 0 0
6056 0 0 0
6058 0 0 0
7281 0 0 0
6073 0 0 0
6062 0 0 0
6066 0 0 0
6068 0 0 0
6072 0 0 0
6064 0 0 0
6063 0 0 0
6070 0 0 0
6067 0 0 0
6071 0 0 0
6069 0 0 0
7293 0 0 0
7296 0 0 0
6077 0 0 0
6079 0 0 0
6083 0 0 0
6075 0 0 0
6074 0 0 0
6078 0 0 0
6081 0 0 0
6080 0 0 0
6085 0 0 0
6084 0 0 0
5968 0 0 0
6094 0 0 0
6088 0 0 0
6090 0 0 0
6096 0 0 0
6097 0 0 0
6093 0 0 0
6092 0 0 0
6095 0 0 0
6089 0 0 0
6091 0 0 0
6106 0 0 0
6099 0 0 0
6101 0 0 0
6107 0 0 0
6104 0 0 0
6109 0 0 0
6098 0 0 0
6100 0 0 0
6103 0 0 0
6108 0 0 0
6110 0 0 0
6111 0 0 0
6113 0 0 0
6112 0 0 0
6114 0 0 0
7338 0 0 0
6119 0 0 0
6125 0 0 0
6127 0 0 0
7348 0 0 0
6117 0 0 0
6116 0 0 0
6115 0 0 0
6118 0 0 0
6120 0 0 0
6122 0 0 0
6126 0 0 0
6121 0 0 0
6128 0 0 0
6278 0 0 0
6132 0 0 0
6138 0 0 0
7352 0 0 0
6140 0 0 0
7358 0 0 0
6130 0 0 0
6129 0 0 0
6131 0 0 0
6133 0 0 0
6135 0 0 0
6139 0 0 0
6134 0 0 0
6141 0 0 0
6136 0 0 0
6145 0 0 0
7362 0 0 0
6151 0 0 0
6153 0 0 0
7368 0 0 0
6143 0 0 0
6142 0 0 0
6146 0 0 0
6148 0 0 0
6147 0 0 0
6150 0 0 0
6152 0 0 0
6154 0 0 0
6158 0 0 0
7372 0 0 0
6164 0 0 0
6166 0 0 0
7378 0 0 0
6159 0 0 0
6156 0 0 0
6161 0 0 0
6155 0 0 0
6160 0 0 0
6157 0 0 0
6162 0 0 0
6169 0 0 0
6163 0 0 0
6165 0 0 0
6168 0 0 0
6167 0 0 0
6170 0 0 0
6177 0 0 0
7382 0 0 0
6179 0 0 0
7388 0 0 0
6174 0 0 0
6176 0 0 0
6182 0 0 0
6178 0 0 0
6173 0 0 0
6180 0 0 0
6181 0 0 0
6183 0 0 0
6185 0 0 0
6184 0 0 0
7392 0 0 0
6190 0 0 0
6192 0 0 0
7398 0 0 0
6187 0 0 0
6186 0 0 0
6198 0 0 0
6195 0 0 0
6191 0 0 0
6194 0 0 0
6193 0 0 0
6349 0 0 0
6350 0 0 0
7402 0 0 0
6203 0 0 0
7412 0 0 0
6205 0 0 0
7408 0 0 0
6199 0 0 0
6202 0 0 0
6204 0 0 0
6207 0 0 0
6206 0 0 0
6209 0 0 0
6379 0 0 0
6216 0 0 0
6218 0 0 0
7418 0 0 0
7422 0 0 0
6213 0 0 0
6212 0 0 0
6215 0 0 0
6217 0 0 0
6220 0 0 0
6219 0 0 0
6224 0 0 0
6229 0 0 0
6231 0 0 0
7428 0 0 0
7432 0 0 0
6226 0 0 0
6228 0 0 0
6230 0 0 0
6225 0 0 0
6232 0 0 0
6233 0 0 0
6235 0 0 0
6237 0 0 0
6239 0 0 0
6409 0 0 0
6238 0 0 0
6249 0 0 0
6242 0 0 0
6244 0 0 0
7438 0 0 0
6252 0 0 0
6251 0 0 0
6250 0 0 0
6247 0 0 0
6241 0 0 0
6243 0 0 0
6246 0 0 0
6245 0 0 0
6248 0 0 0
6424 0 0 0
7442 0 0 0
6262 0 0 0
6254 0 0 0
6264 0 0 0
6256 0 0 0
6258 0 0 0
6259 0 0 0
6266 0 0 0
6263 0 0 0
6255 0 0 0
6257 0 0 0
6260 0 0 0
6272 0 0 0
6268 0 0 0
6271 0 0 0
6123 0 0 0
6269 0 0 0
6273 0 0 0
6277 0 0 0
6284 0 0 0
6279 0 0 0
6286 0 0 0
7459 0 0 0
6288 0 0 0
6270 0 0 0
6274 0 0 0
6275 0 0 0
6281 0 0 0
6280 0 0 0
6287 0 0 0
6282 0 0 0
6276 0 0 0
6283 0 0 0
6285 0 0 0
6299 0 0 0
6292 0 0 0
6294 0 0 0
6301 0 0 0
7467 0 0 0
6303 0 0 0
6289 0 0 0
6290 0 0 0
6296 0 0 0
6293 0 0 0
6300 0 0 0
6295 0 0 0
6302 0 0 0
6297 0 0 0
6298 0 0 0
6144 0 0 0
6149 0 0 0
6307 0 0 0
6309 0 0 0
7475 0 0 0
6314 0 0 0
6316 0 0 0
6318 0 0 0
6304 0 0 0
6305 0 0 0
6311 0 0 0
6308 0 0 0
6310 0 0 0
6312 0 0 0
6315 0 0 0
6317 0 0 0
6319 0 0 0
6313 0 0 0
6322 0 0 0
6324 0 0 0
7483 0 0 0
6329 0 0 0
6326 0 0 0
6323 0 0 0
6325 0 0 0
6320 0 0 0
6327 0 0 0
6330 0 0 0
6334 0 0 0
6332 0 0 0
6335 0 0 0
6331 0 0 0
6333 0 0 0
6328 0 0 0
6484 0 0 0
6485 0 0 0
6479 0 0 0
6342 0 0 0
6175 0 0 0
6336 0 0 0
6338 0 0 0
7492 0 0 0
6340 0 0 0
6337 0 0 0
6343 0 0 0
6347 0 0 0
6339 0 0 0
6345 0 0 0
6341 0 0 0
6348 0 0 0
6346 0 0 0
6344 0 0 0
6352 0 0 0
6489 0 0 0
6487 0 0 0
6488 0 0 0
6486 0 0 0
6196 0 0 0
6188 0 0 0
6351 0 0 0
7501 0 0 0
6363 0 0 0
6355 0 0 0
7508 0 0 0
6353 0 0 0
6354 0 0 0
6360 0 0 0
6356 0 0 0
6358 0 0 0
6361 0 0 0
6359 0 0 0
6357 0 0 0
6491 0 0 0
6490 0 0 0
6362 0 0 0
6495 0 0 0
6492 0 0 0
6493 0 0 0
6494 0 0 0
6366 0 0 0
6201 0 0 0
6365 0 0 0
6364 0 0 0
6378 0 0 0
6370 0 0 0
6380 0 0 0
6372 0 0 0
7516 0 0 0
6374 0 0 0
6367 0 0 0
6368 0 0 0
6375 0 0 0
6371 0 0 0
6381 0 0 0
6373 0 0 0
6376 0 0 0
6369 0 0 0
6377 0 0 0
6498 0 0 0
6214 0 0 0
6222 0 0 0
6385 0 0 0
6387 0 0 0
6389 0 0 0
6393 0 0 0
6395 0 0 0
6382 0 0 0
6383 0 0 0
6386 0 0 0
6390 0 0 0
6388 0 0 0
6394 0 0 0
6396 0 0 0
6399 0 0 0
6397 0 0 0
6384 0 0 0
6227 0 0 0
6400 0 0 0
6402 0 0 0
6404 0 0 0
6408 0 0 0
6410 0 0 0
6401 0 0 0
6405 0 0 0
6403 0 0 0
6398 0 0 0
6406 0 0 0
6412 0 0 0
6411 0 0 0
6413 0 0 0
6414 0 0 0
6240 0 0 0
6253 0 0 0
6423 0 0 0
6415 0 0 0
6425 0 0 0
6417 0 0 0
6419 0 0 0
6427 0 0 0
6420 0 0 0
6416 0 0 0
6426 0 0 0
6418 0 0 0
6421 0 0 0
6436 0 0 0
6434 0 0 0
6438 0 0 0
6431 0 0 0
6261 0 0 0
6430 0 0 0
6435 0 0 0
6433 0 0 0
6441 0 0 0
6437 0 0 0
6439 0 0 0
6440 0 0 0
6443 0 0 0
6442 0 0 0
6448 0 0 0
6446 0 0 0
6450 0 0 0
7561 0 0 0
6455 0 0 0
6445 0 0 0
6454 0 0 0
6447 0 0 0
6453 0 0 0
6449 0 0 0
6451 0 0 0
6452 0 0 0
6460 0 0 0
6458 0 0 0
6462 0 0 0
7569 0 0 0
6291 0 0 0
6457 0 0 0
6466 0 0 0
6459 0 0 0
6465 0 0 0
6461 0 0 0
6463 0 0 0
6464 0 0 0
6467 0 0 0
6469 0 0 0
6578 0 0 0
6306 0 0 0
6470 0 0 0
6468 0 0 0
6471 0 0 0
6473 0 0 0
6478 0 0 0
6472 0 0 0
6475 0 0 0
6474 0 0 0
6476 0 0 0
6321 0 0 0
6580 0 0 0
6581 0 0 0
6482 0 0 0
6483 0 0 0
6497 0 0 0
6496 0 0 0
6503 0 0 0
6499 0 0 0
6504 0 0 0
6500 0 0 0
7597 0 0 0
6501 0 0 0
6582 0 0 0
6505 0 0 0
6507 0 0 0
6502 0 0 0
6506 0 0 0
6511 0 0 0
6516 0 0 0
6514 0 0 0
6518 0 0 0
6509 0 0 0
6392 0 0 0
6510 0 0 0
6512 0 0 0
6513 0 0 0
6515 0 0 0
6517 0 0 0
6583 0 0 0
7611 0 0 0
6523 0 0 0
6528 0 0 0
6526 0 0 0
6530 0 0 0
6407 0 0 0
6522 0 0 0
6521 0 0 0
6520 0 0 0
6524 0 0 0
6525 0 0 0
6527 0 0 0
6533 0 0 0
6529 0 0 0
6531 0 0 0
6532 0 0 0
6422 0 0 0
6540 0 0 0
6538 0 0 0
6542 0 0 0
6535 0 0 0
6429 0 0 0
6544 0 0 0
6545 0 0 0
6534 0 0 0
6539 0 0 0
6537 0 0 0
6541 0 0 0
6543 0 0 0
6553 0 0 0
6547 0 0 0
7632 0 0 0
6549 0 0 0
7627 0 0 0
6546 0 0 0
6552 0 0 0
6548 0 0 0
6551 0 0 0
6555 0 0 0
6554 0 0 0
6556 0 0 0
6560 0 0 0
6559 0 0 0
6561 0 0 0
6550 0 0 0
6558 0 0 0
7639 0 0 0
6569 0 0 0
7644 0 0 0
6571 0 0 0
6564 0 0 0
6557 0 0 0
6563 0 0 0
6562 0 0 0
6568 0 0 0
6567 0 0 0
6570 0 0 0
6566 0 0 0
6572 0 0 0
6565 0 0 0
6574 0 0 0
6579 0 0 0
6584 0 0 0
6588 0 0 0
6593 0 0 0
6590 0 0 0
6592 0 0 0
6595 0 0 0
6591 0 0 0
6587 0 0 0
6585 0 0 0
7671 0 0 0
7669 0 0 0
6589 0 0 0
6586 0 0 0
6596 0 0 0
6594 0 0 0
6599 0 0 0
6601 0 0 0
7682 0 0 0
6605 0 0 0
6598 0 0 0
6597 0 0 0
6604 0 0 0
6600 0 0 0
6602 0 0 0
6607 0 0 0
6606 0 0 0
6608 0 0 0
6610 0 0 0
7699 0 0 0
6612 0 0 0
6616 0 0 0
6619 0 0 0
6618 0 0 0
6609 0 0 0
6615 0 0 0
6611 0 0 0
6614 0 0 0
6613 0 0 0
6617 0 0 0
6625 0 0 0
6627 0 0 0
6620 0 0 0
6623 0 0 0
6630 0 0 0
6626 0 0 0
6628 0 0 0
6622 0 0 0
6629 0 0 0
6621 0 0 0
6624 0 0 0
6632 0 0 0
6633 0 0 0
6637 0 0 0
6639 0 0 0
6634 0 0 0
6635 0 0 0
6636 0 0 0
6642 0 0 0
6638 0 0 0
6641 0 0 0
6643 0 0 0
6714 0 0 0
6713 0 0 0
6719 0 0 0
6715 0 0 0
7772 0 0 0
6717 0 0 0
6651 0 0 0
7729 0 0 0
6654 0 0 0
6649 0 0 0
6652 0 0 0
6648 0 0 0
7726 0 0 0
6653 0 0 0
6655 0 0 0
7732 0 0 0
6664 0 0 0
6666 0 0 0
7739 0 0 0
6656 0 0 0
6661 0 0 0
6660 0 0 0
6662 0 0 0
6658 0 0 0
6663 0 0 0
6665 0 0 0
6667 0 0 0
6668 0 0 0
6723 0 0 0
6722 0 0 0
6720 0 0 0
7694 0 0 0
6669 0 0 0
6670 0 0 0
6676 0 0 0
6678 0 0 0
6671 0 0 0
7746 0 0 0
6680 0 0 0
6681 0 0 0
6674 0 0 0
6677 0 0 0
6679 0 0 0
6673 0 0 0
6672 0 0 0
6675 0 0 0
6737 0 0 0
6738 0 0 0
6690 0 0 0
6683 0 0 0
6685 0 0 0
7750 0 0 0
6692 0 0 0
6694 0 0 0
6691 0 0 0
6687 0 0 0
6695 0 0 0
6686 0 0 0
6688 0 0 0
6693 0 0 0
6696 0 0 0
6698 0 0 0
6700 0 0 0
7758 0 0 0
6699 0 0 0
6697 0 0 0
6704 0 0 0
6701 0 0 0
6705 0 0 0
6707 0 0 0
6709 0 0 0
6702 0 0 0
6703 0 0 0
6706 0 0 0
6710 0 0 0
6716 0 0 0
6711 0 0 0
6712 0 0 0
6708 0 0 0
7766 0 0 0
7770 0 0 0
7773 0 0 0
6718 0 0 0
6721 0 0 0
7777 0 0 0
7775 0 0 0
6724 0 0 0
6729 0 0 0
6731 0 0 0
6733 0 0 0
6726 0 0 0
6725 0 0 0
6727 0 0 0
6728 0 0 0
6730 0 0 0
6734 0 0 0
6736 0 0 0
6732 0 0 0
6735 0 0 0
7779 0 0 0
6684 0 0 0
6739 0 0 0
7787 0 0 0
6746 0 0 0
6748 0 0 0
6749 0 0 0
6750 0 0 0
6745 0 0 0
6740 0 0 0
6742 0 0 0
6743 0 0 0
6747 0 0 0
6764 0 0 0
6689 0 0 0
7797 0 0 0
6754 0 0 0
6756 0 0 0
6760 0 0 0
6758 0 0 0
6762 0 0 0
6755 0 0 0
6757 0 0 0
6768 0 0 0
6767 0 0 0
6769 0 0 0
6766 0 0 0
6777 0 0 0
6786 0 0 0
7805 0 0 0
6765 0 0 0
6770 0 0 0
6772 0 0 0
6774 0 0 0
6775 0 0 0
6779 0 0 0
6781 0 0 0
6778 0 0 0
6780 0 0 0
6785 0 0 0
7813 0 0 0
6782 0 0 0
6783 0 0 0
6796 0 0 0
6798 0 0 0
7832 0 0 0
6792 0 0 0
6793 0 0 0
6801 0 0 0
6797 0 0 0
6799 0 0 0
6800 0 0 0
6802 0 0 0
6804 0 0 0
6805 0 0 0
6753 0 0 0
7840 0 0 0
6808 0 0 0
6810 0 0 0
6817 0 0 0
6816 0 0 0
6807 0 0 0
6814 0 0 0
6812 0 0 0
6809 0 0 0
6811 0 0 0
7846 0 0 0
6823 0 0 0
6825 0 0 0
7853 0 0 0
6822 0 0 0
6820 0 0 0
6821 0 0 0
6824 0 0 0
6819 0 0 0
6826 0 0 0
6827 0 0 0
7858 0 0 0
6830 0 0 0
7870 0 0 0
6834 0 0 0
6836 0 0 0
7865 0 0 0
6831 0 0 0
6833 0 0 0
6838 0 0 0
6835 0 0 0
6837 0 0 0
6842 0 0 0
6843 0 0 0
7877 0 0 0
6845 0 0 0
6847 0 0 0
6846 0 0 0
6850 0 0 0
6853 0 0 0
6844 0 0 0
6849 0 0 0
6852 0 0 0
6848 0 0 0
6931 0 0 0
6924 0 0 0
6863 0 0 0
7896 0 0 0
6858 0 0 0
6861 0 0 0
6862 0 0 0
6864 0 0 0
6866 0 0 0
6865 0 0 0
6860 0 0 0
6859 0 0 0
6857 0 0 0
6867 0 0 0
7901 0 0 0
6874 0 0 0
6876 0 0 0
7908 0 0 0
6871 0 0 0
6870 0 0 0
6873 0 0 0
6875 0 0 0
6878 0 0 0
6877 0 0 0
7913 0 0 0
6885 0 0 0
6887 0 0 0
7920 0 0 0
6889 0 0 0
6884 0 0 0
6882 0 0 0
6883 0 0 0
6886 0 0 0
6888 0 0 0
6891 0 0 0
6893 0 0 0
7925 0 0 0
6899 0 0 0
6896 0 0 0
6892 0 0 0
6895 0 0 0
6900 0 0 0
6894 0 0 0
6897 0 0 0
6902 0 0 0
6903 0 0 0
6905 0 0 0
7932 0 0 0
6904 0 0 0
6906 0 0 0
6912 0 0 0
6915 0 0 0
6917 0 0 0
7027 0 0 0
7939 0 0 0
6908 0 0 0
6907 0 0 0
6909 0 0 0
6911 0 0 0
6916 0 0 0
6918 0 0 0
6914 0 0 0
6851 0 0 0
6854 0 0 0
6932 0 0 0
6855 0 0 0
7044 0 0 0
7946 0 0 0
6920 0 0 0
6919 0 0 0
6921 0 0 0
6923 0 0 0
6928 0 0 0
6930 0 0 0
6926 0 0 0
6927 0 0 0
6929 0 0 0
6933 0 0 0
7057 0 0 0
7059 0 0 0
6934 0 0 0
6936 0 0 0
6939 0 0 0
7954 0 0 0
7058 0 0 0
6941 0 0 0
6942 0 0 0
6947 0 0 0
6959 0 0 0
7966 0 0 0
6955 0 0 0
6954 0 0 0
6953 0 0 0
7132 0 0 0
6961 0 0 0
7977 0 0 0
7975 0 0 0
7973 0 0 0
6976 0 0 0
6964 0 0 0
6968 0 0 0
6970 0 0 0
7984 0 0 0
6965 0 0 0
6973 0 0 0
6969 0 0 0
6972 0 0 0
6971 0 0 0
6974 0 0 0
6980 0 0 0
6982 0 0 0
7991 0 0 0
7164 0 0 0
6981 0 0 0
6977 0 0 0
6983 0 0 0
6984 0 0 0
6979 0 0 0
6986 0 0 0
6988 0 0 0
6989 0 0 0
6991 0 0 0
6881 0 0 0
6992 0 0 0
6994 0 0 0
7177 0 0 0
7998 0 0 0
7001 0 0 0
7003 0 0 0
7000 0 0 0
6997 0 0 0
6993 0 0 0
6996 0 0 0
6995 0 0 0
6998 0 0 0
7179 0 0 0
7012 0 0 0
7014 0 0 0
7013 0 0 0
7006 0 0 0
8008 0 0 0
7008 0 0 0
7016 0 0 0
7005 0 0 0
7015 0 0 0
7011 0 0 0
7018 0 0 0
7007 0 0 0
7010 0 0 0
7017 0 0 0
7022 0 0 0
7021 0 0 0
7029 0 0 0
7028 0 0 0
7023 0 0 0
7036 0 0 0
8016 0 0 0
7038 0 0 0
7024 0 0 0
7026 0 0 0
7025 0 0 0
7031 0 0 0
7030 0 0 0
7033 0 0 0
7037 0 0 0
7032 0 0 0
7043 0 0 0
7042 0 0 0
7049 0 0 0
7051 0 0 0
8024 0 0 0
7053 0 0 0
7039 0 0 0
7041 0 0 0
7040 0 0 0
7046 0 0 0
7050 0 0 0
7045 0 0 0
7048 0 0 0
7052 0 0 0
7047 0 0 0
7208 0 0 0
7212 0 0 0
7220 0 0 0
7959 0 0 0
6940 0 0 0
8032 0 0 0
7066 0 0 0
7068 0 0 0
7054 0 0 0
7056 0 0 0
7055 0 0 0
7060 0 0 0
7063 0 0 0
7062 0 0 0
7065 0 0 0
7067 0 0 0
7232 0 0 0
6943 0 0 0
7071 0 0 0
7073 0 0 0
7072 0 0 0
7074 0 0 0
6944 0 0 0
8040 0 0 0
7079 0 0 0
7081 0 0 0
7083 0 0 0
7076 0 0 0
7075 0 0 0
7078 0 0 0
7070 0 0 0
7077 0 0 0
7080 0 0 0
7084 0 0 0
7086 0 0 0
7082 0 0 0
7099 0 0 0
6946 0 0 0
7085 0 0 0
7088 0 0 0
7089 0 0 0
6945 0 0 0
6949 0 0 0
6950 0 0 0
7087 0 0 0
6948 0 0 0
7096 0 0 0
8047 0 0 0
7098 0 0 0
7095 0 0 0
7090 0 0 0
7093 0 0 0
7101 0 0 0
7097 0 0 0
7092 0 0 0
7100 0 0 0
6958 0 0 0
7968 0 0 0
6952 0 0 0
6951 0 0 0
7103 0 0 0
6956 0 0 0
7117 0 0 0
6957 0 0 0
7104 0 0 0
7102 0 0 0
8054 0 0 0
7111 0 0 0
7113 0 0 0
7105 0 0 0
7107 0 0 0
7114 0 0 0
7116 0 0 0
7112 0 0 0
7115 0 0 0
7120 0 0 0
7119 0 0 0
7118 0 0 0
7134 0 0 0
6960 0 0 0
8062 0 0 0
7126 0 0 0
8070 0 0 0
7128 0 0 0
7121 0 0 0
7122 0 0 0
7129 0 0 0
7125 0 0 0
7135 0 0 0
7127 0 0 0
7130 0 0 0
7133 0 0 0
7147 0 0 0
7149 0 0 0
6967 0 0 0
7148 0 0 0
7141 0 0 0
7143 0 0 0
8078 0 0 0
7138 0 0 0
7137 0 0 0
7140 0 0 0
7144 0 0 0
7142 0 0 0
7145 0 0 0
7150 0 0 0
7155 0 0 0
7162 0 0 0
7163 0 0 0
7156 0 0 0
7158 0 0 0
8086 0 0 0
7159 0 0 0
7161 0 0 0
7157 0 0 0
7152 0 0 0
7160 0 0 0
7165 0 0 0
7168 0 0 0
7178 0 0 0
7167 0 0 0
7171 0 0 0
8094 0 0 0
7173 0 0 0
7181 0 0 0
7183 0 0 0
7182 0 0 0
7170 0 0 0
7180 0 0 0
7176 0 0 0
7172 0 0 0
7175 0 0 0
7197 0 0 0
7184 0 0 0
7188 0 0 0
7190 0 0 0
7185 0 0 0
7192 0 0 0
8099 0 0 0
7193 0 0 0
7189 0 0 0
7187 0 0 0
7195 0 0 0
7191 0 0 0
7186 0 0 0
7194 0 0 0
7196 0 0 0
7342 0 0 0
8109 0 0 0
7200 0 0 0
7202 0 0 0
7209 0 0 0
7204 0 0 0
8119 0 0 0
7199 0 0 0
7198 0 0 0
7205 0 0 0
7201 0 0 0
7207 0 0 0
7203 0 0 0
7206 0 0 0
6124 0 0 0
6137 0 0 0
7214 0 0 0
7221 0 0 0
7216 0 0 0
8129 0 0 0
7211 0 0 0
7210 0 0 0
7217 0 0 0
7213 0 0 0
7219 0 0 0
7215 0 0 0
7218 0 0 0
7224 0 0 0
7226 0 0 0
7228 0 0 0
7233 0 0 0
8139 0 0 0
7223 0 0 0
7222 0 0 0
7229 0 0 0
7225 0 0 0
7231 0 0 0
7227 0 0 0
7230 0 0 0
7234 0 0 0
7236 0 0 0
7238 0 0 0
7240 0 0 0
7245 0 0 0
8149 0 0 0
7241 0 0 0
7237 0 0 0
7235 0 0 0
7243 0 0 0
7239 0 0 0
7242 0 0 0
7244 0 0 0
7246 0 0 0
7255 0 0 0
7250 0 0 0
7252 0 0 0
8159 0 0 0
7253 0 0 0
7249 0 0 0
7256 0 0 0
7251 0 0 0
7259 0 0 0
7254 0 0 0
7258 0 0 0
7261 0 0 0
7265 0 0 0
6189 0 0 0
7108 0 0 0
7260 0 0 0
7262 0 0 0
7264 0 0 0
7269 0 0 0
8169 0 0 0
7263 0 0 0
7266 0 0 0
7277 0 0 0
7268 0 0 0
7271 0 0 0
7270 0 0 0
7276 0 0 0
7272 0 0 0
7274 0 0 0
7273 0 0 0
7275 0 0 0
7286 0 0 0
7288 0 0 0
8179 0 0 0
7279 0 0 0
7278 0 0 0
7285 0 0 0
7280 0 0 0
7283 0 0 0
7282 0 0 0
7289 0 0 0
7287 0 0 0
8189 0 0 0
7298 0 0 0
7300 0 0 0
7291 0 0 0
7290 0 0 0
7292 0 0 0
7295 0 0 0
7294 0 0 0
7301 0 0 0
7297 0 0 0
7299 0 0 0
7153 0 0 0
7305 0 0 0
8199 0 0 0
7308 0 0 0
7310 0 0 0
7312 0 0 0
7304 0 0 0
7303 0 0 0
7307 0 0 0
7302 0 0 0
7306 0 0 0
7313 0 0 0
7309 0 0 0
7315 0 0 0
7311 0 0 0
7314 0 0 0
7320 0 0 0
7322 0 0 0
7317 0 0 0
7324 0 0 0
8209 0 0 0
7327 0 0 0
7326 0 0 0
7325 0 0 0
7321 0 0 0
7316 0 0 0
7319 0 0 0
7323 0 0 0
7318 0 0 0
7332 0 0 0
6102 0 0 0
6105 0 0 0
7328 0 0 0
7334 0 0 0
7336 0 0 0
7330 0 0 0
7333 0 0 0
7335 0 0 0
7331 0 0 0
7337 0 0 0
7329 0 0 0
7339 0 0 0
7340 0 0 0
7344 0 0 0
7346 0 0 0
7350 0 0 0
7341 0 0 0
7345 0 0 0
7347 0 0 0
8231 0 0 0
7349 0 0 0
8118 0 0 0
7354 0 0 0
7356 0 0 0
7360 0 0 0
7351 0 0 0
7353 0 0 0
7355 0 0 0
7357 0 0 0
8239 0 0 0
7359 0 0 0
8128 0 0 0
7366 0 0 0
7370 0 0 0
7361 0 0 0
7363 0 0 0
7365 0 0 0
7367 0 0 0
8247 0 0 0
7369 0 0 0
7371 0 0 0
7374 0 0 0
7376 0 0 0
7380 0 0 0
7373 0 0 0
7375 0 0 0
7377 0 0 0
8255 0 0 0
7379 0 0 0
7381 0 0 0
7384 0 0 0
7386 0 0 0
7390 0 0 0
7383 0 0 0
7385 0 0 0
7387 0 0 0
8263 0 0 0
7389 0 0 0
7391 0 0 0
8165 0 0 0
8271 0 0 0
7394 0 0 0
7396 0 0 0
7400 0 0 0
7393 0 0 0
7395 0 0 0
7397 0 0 0
7401 0 0 0
7399 0 0 0
8168 0 0 0
8175 0 0 0
8279 0 0 0
7404 0 0 0
7406 0 0 0
7403 0 0 0
7405 0 0 0
7414 0 0 0
7416 0 0 0
7410 0 0 0
7407 0 0 0
7415 0 0 0
7411 0 0 0
8287 0 0 0
7409 0 0 0
8178 0 0 0
7413 0 0 0
7420 0 0 0
7424 0 0 0
7426 0 0 0
7417 0 0 0
7419 0 0 0
7421 0 0 0
7423 0 0 0
7425 0 0 0
8295 0 0 0
8195 0 0 0
8188 0 0 0
7430 0 0 0
7434 0 0 0
7436 0 0 0
7427 0 0 0
7429 0 0 0
7431 0 0 0
7435 0 0 0
8303 0 0 0
7433 0 0 0
7437 0 0 0
7444 0 0 0
7446 0 0 0
7440 0 0 0
7447 0 0 0
7443 0 0 0
7445 0 0 0
7441 0 0 0
7439 0 0 0
8215 0 0 0
6265 0 0 0
7451 0 0 0
6267 0 0 0
7449 0 0 0
7453 0 0 0
7448 0 0 0
7450 0 0 0
7452 0 0 0
7454 0 0 0
7455 0 0 0
7456 0 0 0
8326 0 0 0
7457 0 0 0
7465 0 0 0
7461 0 0 0
7458 0 0 0
7464 0 0 0
7463 0 0 0
8337 0 0 0
7460 0 0 0
7462 0 0 0
7473 0 0 0
7469 0 0 0
7466 0 0 0
7472 0 0 0
7471 0 0 0
8348 0 0 0
7468 0 0 0
7470 0 0 0
7477 0 0 0
7481 0 0 0
7474 0 0 0
7476 0 0 0
7479 0 0 0
7478 0 0 0
7480 0 0 0
8359 0 0 0
7482 0 0 0
7485 0 0 0
7489 0 0 0
7484 0 0 0
7486 0 0 0
7487 0 0 0
7488 0 0 0
7490 0 0 0
8370 0 0 0
7585 0 0 0
7498 0 0 0
7497 0 0 0
7496 0 0 0
7499 0 0 0
8379 0 0 0
7493 0 0 0
7494 0 0 0
7495 0 0 0
7491 0 0 0
7506 0 0 0
7510 0 0 0
7502 0 0 0
7504 0 0 0
7505 0 0 0
7507 0 0 0
8388 0 0 0
7509 0 0 0
7511 0 0 0
7503 0 0 0
7500 0 0 0
7588 0 0 0
7514 0 0 0
7518 0 0 0
7512 0 0 0
7513 0 0 0
7515 0 0 0
8399 0 0 0
7517 0 0 0
7524 0 0 0
6391 0 0 0
7519 0 0 0
7522 0 0 0
7526 0 0 0
7520 0 0 0
7521 0 0 0
7523 0 0 0
8410 0 0 0
7525 0 0 0
7527 0 0 0
7532 0 0 0
7530 0 0 0
7534 0 0 0
7529 0 0 0
7528 0 0 0
7531 0 0 0
7533 0 0 0
7535 0 0 0
7540 0 0 0
6428 0 0 0
7536 0 0 0
7538 0 0 0
7542 0 0 0
7544 0 0 0
7537 0 0 0
7539 0 0 0
7541 0 0 0
7543 0 0 0
7545 0 0 0
6432 0 0 0
7553 0 0 0
7551 0 0 0
7547 0 0 0
7549 0 0 0
7546 0 0 0
7550 0 0 0
7552 0 0 0
7557 0 0 0
7554 0 0 0
7555 0 0 0
7556 0 0 0
7548 0 0 0
6444 0 0 0
7559 0 0 0
7563 0 0 0
7565 0 0 0
7558 0 0 0
7562 0 0 0
7560 0 0 0
7564 0 0 0
8461 0 0 0
7649 0 0 0
6456 0 0 0
7567 0 0 0
7571 0 0 0
7566 0 0 0
7570 0 0 0
7568 0 0 0
7572 0 0 0
7573 0 0 0
7661 0 0 0
7667 0 0 0
7657 0 0 0
6477 0 0 0
7577 0 0 0
7580 0 0 0
7582 0 0 0
7575 0 0 0
7574 0 0 0
7576 0 0 0
8473 0 0 0
7578 0 0 0
7579 0 0 0
7581 0 0 0
7584 0 0 0
7583 0 0 0
7586 0 0 0
7587 0 0 0
7590 0 0 0
7595 0 0 0
7592 0 0 0
8493 0 0 0
7591 0 0 0
7589 0 0 0
7594 0 0 0
7598 0 0 0
7600 0 0 0
7599 0 0 0
7596 0 0 0
7593 0 0 0
7603 0 0 0
6508 0 0 0
7601 0 0 0
6519 0 0 0
8497 0 0 0
7605 0 0 0
7609 0 0 0
7602 0 0 0
7604 0 0 0
7608 0 0 0
7606 0 0 0
7607 0 0 0
7668 0 0 0
7613 0 0 0
7615 0 0 0
7617 0 0 0
7612 0 0 0
7610 0 0 0
7614 0 0 0
7616 0 0 0
8512 0 0 0
7692 0 0 0
7618 0 0 0
7619 0 0 0
6536 0 0 0
7625 0 0 0
7621 0 0 0
7623 0 0 0
7626 0 0 0
7620 0 0 0
7624 0 0 0
7622 0 0 0
8521 0 0 0
7634 0 0 0
7636 0 0 0
7633 0 0 0
7630 0 0 0
7635 0 0 0
7637 0 0 0
7628 0 0 0
7631 0 0 0
7638 0 0 0
7641 0 0 0
7640 0 0 0
7651 0 0 0
6573 0 0 0
7724 0 0 0
7646 0 0 0
7648 0 0 0
7653 0 0 0
7642 0 0 0
7643 0 0 0
7645 0 0 0
7647 0 0 0
7652 0 0 0
7650 0 0 0
7656 0 0 0
7662 0 0 0
7664 0 0 0
7658 0 0 0
7654 0 0 0
7655 0 0 0
7659 0 0 0
8550 0 0 0
7660 0 0 0
7663 0 0 0
7665 0 0 0
7666 0 0 0
8555 0 0 0
7675 0 0 0
7677 0 0 0
7674 0 0 0
7676 0 0 0
7678 0 0 0
7670 0 0 0
7679 0 0 0
7673 0 0 0
7672 0 0 0
7687 0 0 0
6603 0 0 0
7680 0 0 0
7684 0 0 0
7689 0 0 0
7691 0 0 0
7685 0 0 0
7683 0 0 0
7681 0 0 0
7686 0 0 0
7688 0 0 0
7690 0 0 0
7693 0 0 0
8573 0 0 0
7701 0 0 0
7703 0 0 0
7704 0 0 0
7705 0 0 0
7700 0 0 0
7697 0 0 0
7702 0 0 0
7698 0 0 0
8581 0 0 0
7709 0 0 0
6631 0 0 0
7629 0 0 0
7707 0 0 0
7711 0 0 0
7706 0 0 0
7710 0 0 0
7708 0 0 0
7712 0 0 0
7714 0 0 0
8592 0 0 0
7716 0 0 0
6640 0 0 0
7713 0 0 0
7718 0 0 0
7715 0 0 0
7720 0 0 0
7717 0 0 0
7719 0 0 0
8599 0 0 0
7721 0 0 0
7725 0 0 0
7722 0 0 0
7723 0 0 0
7730 0 0 0
7731 0 0 0
7727 0 0 0
7733 0 0 0
7734 0 0 0
7728 0 0 0
7737 0 0 0
7741 0 0 0
7736 0 0 0
7735 0 0 0
7738 0 0 0
8609 0 0 0
7740 0 0 0
7742 0 0 0
6682 0 0 0
7695 0 0 0
7696 0 0 0
7744 0 0 0
7748 0 0 0
7749 0 0 0
7743 0 0 0
7747 0 0 0
7745 0 0 0
7756 0 0 0
7752 0 0 0
7755 0 0 0
7754 0 0 0
7757 0 0 0
8627 0 0 0
7753 0 0 0
7763 0 0 0
7760 0 0 0
7761 0 0 0
7764 0 0 0
7759 0 0 0
7762 0 0 0
7767 0 0 0
7765 0 0 0
7769 0 0 0
7768 0 0 0
7771 0 0 0
7774 0 0 0
7778 0 0 0
7776 0 0 0
7785 0 0 0
7780 0 0 0
7782 0 0 0
7783 0 0 0
7784 0 0 0
7786 0 0 0
8655 0 0 0
7781 0 0 0
7751 0 0 0
7793 0 0 0
7789 0 0 0
7794 0 0 0
7792 0 0 0
7788 0 0 0
7791 0 0 0
8666 0 0 0
7790 0 0 0
7795 0 0 0
7799 0 0 0
7801 0 0 0
7798 0 0 0
7796 0 0 0
8673 0 0 0
7800 0 0 0
7802 0 0 0
7803 0 0 0
8682 0 0 0
7851 0 0 0
8679 0 0 0
7811 0 0 0
7812 0 0 0
7814 0 0 0
7807 0 0 0
7809 0 0 0
7804 0 0 0
7806 0 0 0
7810 0 0 0
8691 0 0 0
7808 0 0 0
7825 0 0 0
7826 0 0 0
7821 0 0 0
7817 0 0 0
7828 0 0 0
7822 0 0 0
7818 0 0 0
7827 0 0 0
7824 0 0 0
7820 0 0 0
7816 0 0 0
7823 0 0 0
7819 0 0 0
7830 0 0 0
7834 0 0 0
7836 0 0 0
7829 0 0 0
7831 0 0 0
8707 0 0 0
7833 0 0 0
7835 0 0 0
7837 0 0 0
7906 0 0 0
7838 0 0 0
7842 0 0 0
7844 0 0 0
7845 0 0 0
7841 0 0 0
7839 0 0 0
8716 0 0 0
7843 0 0 0
8722 0 0 0
7918 0 0 0
7848 0 0 0
7850 0 0 0
7847 0 0 0
7856 0 0 0
7849 0 0 0
7852 0 0 0
8725 0 0 0
7857 0 0 0
7860 0 0 0
7859 0 0 0
7861 0 0 0
8733 0 0 0
7863 0 0 0
7876 0 0 0
8688 0 0 0
7815 0 0 0
7862 0 0 0
7874 0 0 0
7867 0 0 0
7864 0 0 0
7871 0 0 0
7868 0 0 0
7873 0 0 0
7869 0 0 0
8741 0 0 0
7872 0 0 0
7875 0 0 0
7881 0 0 0
7880 0 0 0
7885 0 0 0
7884 0 0 0
7882 0 0 0
8703 0 0 0
7895 0 0 0
7894 0 0 0
7892 0 0 0
7891 0 0 0
7899 0 0 0
8713 0 0 0
7903 0 0 0
7905 0 0 0
7910 0 0 0
7902 0 0 0
7904 0 0 0
7900 0 0 0
7907 0 0 0
8762 0 0 0
7911 0 0 0
7909 0 0 0
7912 0 0 0
7915 0 0 0
7917 0 0 0
7922 0 0 0
7923 0 0 0
7924 0 0 0
7914 0 0 0
7916 0 0 0
7919 0 0 0
8770 0 0 0
7855 0 0 0
7854 0 0 0
7930 0 0 0
7927 0 0 0
7929 0 0 0
7928 0 0 0
7931 0 0 0
8781 0 0 0
7926 0 0 0
8005 0 0 0
7933 0 0 0
7866 0 0 0
7934 0 0 0
7937 0 0 0
7941 0 0 0
7935 0 0 0
7936 0 0 0
7938 0 0 0
8788 0 0 0
7940 0 0 0
8021 0 0 0
7879 0 0 0
7878 0 0 0
7944 0 0 0
7948 0 0 0
7942 0 0 0
7943 0 0 0
7945 0 0 0
8795 0 0 0
7947 0 0 0
7949 0 0 0
7957 0 0 0
7952 0 0 0
8803 0 0 0
7950 0 0 0
7951 0 0 0
7953 0 0 0
7956 0 0 0
7958 0 0 0
7960 0 0 0
7972 0 0 0
7971 0 0 0
7981 0 0 0
7980 0 0 0
7978 0 0 0
7979 0 0 0
7976 0 0 0
7974 0 0 0
7897 0 0 0
7883 0 0 0
7982 0 0 0
7888 0 0 0
7889 0 0 0
7890 0 0 0
7887 0 0 0
7886 0 0 0
7898 0 0 0
7893 0 0 0
8818 0 0 0
7986 0 0 0
7989 0 0 0
7983 0 0 0
7985 0 0 0
7987 0 0 0
7988 0 0 0
8825 0 0 0
8816 0 0 0
7993 0 0 0
7996 0 0 0
7990 0 0 0
7992 0 0 0
7994 0 0 0
7995 0 0 0
8832 0 0 0
7921 0 0 0
7997 0 0 0
8003 0 0 0
8000 0 0 0
8004 0 0 0
8002 0 0 0
8001 0 0 0
8839 0 0 0
7999 0 0 0
8091 0 0 0
8006 0 0 0
8010 0 0 0
8007 0 0 0
8843 0 0 0
8009 0 0 0
8011 0 0 0
8012 0 0 0
8854 0 0 0
8013 0 0 0
8014 0 0 0
8022 0 0 0
8018 0 0 0
8015 0 0 0
8020 0 0 0
8865 0 0 0
8017 0 0 0
8019 0 0 0
8029 0 0 0
8030 0 0 0
8026 0 0 0
8023 0 0 0
8028 0 0 0
8876 0 0 0
8025 0 0 0
8027 0 0 0
7955 0 0 0
8037 0 0 0
8034 0 0 0
8038 0 0 0
8031 0 0 0
8033 0 0 0
8036 0 0 0
8035 0 0 0
8887 0 0 0
7961 0 0 0
7962 0 0 0
8042 0 0 0
8039 0 0 0
8041 0 0 0
8043 0 0 0
8044 0 0 0
8898 0 0 0
8045 0 0 0
8046 0 0 0
7964 0 0 0
7963 0 0 0
8049 0 0 0
8051 0 0 0
8053 0 0 0
8909 0 0 0
8048 0 0 0
8050 0 0 0
8052 0 0 0
8059 0 0 0
7970 0 0 0
7969 0 0 0
7967 0 0 0
7965 0 0 0
8056 0 0 0
8060 0 0 0
8055 0 0 0
8058 0 0 0
8057 0 0 0
8061 0 0 0
8920 0 0 0
8065 0 0 0
8067 0 0 0
8064 0 0 0
8063 0 0 0
8068 0 0 0
8072 0 0 0
8066 0 0 0
8069 0 0 0
8931 0 0 0
8071 0 0 0
8073 0 0 0
9050 0 0 0
8075 0 0 0
8076 0 0 0
8080 0 0 0
8074 0 0 0
8077 0 0 0
8942 0 0 0
8079 0 0 0
8081 0 0 0
9059 0 0 0
8083 0 0 0
8084 0 0 0
8088 0 0 0
8082 0 0 0
8085 0 0 0
8953 0 0 0
8087 0 0 0
8089 0 0 0
9068 0 0 0
8090 0 0 0
8092 0 0 0
8096 0 0 0
8098 0 0 0
8093 0 0 0
8964 0 0 0
8095 0 0 0
8097 0 0 0
8106 0 0 0
8101 0 0 0
8103 0 0 0
8105 0 0 0
8108 0 0 0
8104 0 0 0
8107 0 0 0
8100 0 0 0
8102 0 0 0
8975 0 0 0
8110 0 0 0
8984 0 0 0
8978 0 0 0
7343 0 0 0
8111 0 0 0
8113 0 0 0
8116 0 0 0
8121 0 0 0
8123 0 0 0
8114 0 0 0
8112 0 0 0
8115 0 0 0
8117 0 0 0
8987 0 0 0
8120 0 0 0
8122 0 0 0
8993 0 0 0
8126 0 0 0
8131 0 0 0
8133 0 0 0
8124 0 0 0
8125 0 0 0
8127 0 0 0
8996 0 0 0
8130 0 0 0
8132 0 0 0
9002 0 0 0
7364 0 0 0
8136 0 0 0
8141 0 0 0
8143 0 0 0
8134 0 0 0
8135 0 0 0
8138 0 0 0
8137 0 0 0
9005 0 0 0
8140 0 0 0
8142 0 0 0
9011 0 0 0
8144 0 0 0
8146 0 0 0
8151 0 0 0
8153 0 0 0
8145 0 0 0
8148 0 0 0
8147 0 0 0
9014 0 0 0
8150 0 0 0
8154 0 0 0
8152 0 0 0
8155 0 0 0
9020 0 0 0
8156 0 0 0
8161 0 0 0
8163 0 0 0
8158 0 0 0
8157 0 0 0
9023 0 0 0
8160 0 0 0
8162 0 0 0
8164 0 0 0
9029 0 0 0
8166 0 0 0
8176 0 0 0
8171 0 0 0
8173 0 0 0
8167 0 0 0
9032 0 0 0
8174 0 0 0
8170 0 0 0
8172 0 0 0
9038 0 0 0
9041 0 0 0
8186 0 0 0
8181 0 0 0
8183 0 0 0
8177 0 0 0
8185 0 0 0
8184 0 0 0
8180 0 0 0
8182 0 0 0
9047 0 0 0
8191 0 0 0
8193 0 0 0
8196 0 0 0
8187 0 0 0
8190 0 0 0
8194 0 0 0
8192 0 0 0
9056 0 0 0
8201 0 0 0
8203 0 0 0
8206 0 0 0
8198 0 0 0
8197 0 0 0
8200 0 0 0
8202 0 0 0
8204 0 0 0
8205 0 0 0
9065 0 0 0
8207 0 0 0
8208 0 0 0
8216 0 0 0
8211 0 0 0
8213 0 0 0
8217 0 0 0
8218 0 0 0
8214 0 0 0
9077 0 0 0
8210 0 0 0
8212 0 0 0
9074 0 0 0
8223 0 0 0
8224 0 0 0
8220 0 0 0
8225 0 0 0
8222 0 0 0
8226 0 0 0
8219 0 0 0
8221 0 0 0
8229 0 0 0
8228 0 0 0
8232 0 0 0
8236 0 0 0
8230 0 0 0
8227 0 0 0
8233 0 0 0
8234 0 0 0
8235 0 0 0
8237 0 0 0
9098 0 0 0
9113 0 0 0
9112 0 0 0
9099 0 0 0
8240 0 0 0
8244 0 0 0
8238 0 0 0
8241 0 0 0
8242 0 0 0
8245 0 0 0
9128 0 0 0
9118 0 0 0
8243 0 0 0
8248 0 0 0
8252 0 0 0
8246 0 0 0
8249 0 0 0
8250 0 0 0
8251 0 0 0
8253 0 0 0
9143 0 0 0
9133 0 0 0
9142 0 0 0
9144 0 0 0
8356 0 0 0
8254 0 0 0
8256 0 0 0
8260 0 0 0
8257 0 0 0
8258 0 0 0
8262 0 0 0
8259 0 0 0
8261 0 0 0
9158 0 0 0
9148 0 0 0
9157 0 0 0
9163 0 0 0
9165 0 0 0
8264 0 0 0
8268 0 0 0
8265 0 0 0
8266 0 0 0
8270 0 0 0
8269 0 0 0
9173 0 0 0
9178 0 0 0
8386 0 0 0
9327 0 0 0
8272 0 0 0
8280 0 0 0
8276 0 0 0
8273 0 0 0
8274 0 0 0
8281 0 0 0
8278 0 0 0
8277 0 0 0
8385 0 0 0
9188 0 0 0
9189 0 0 0
8288 0 0 0
8284 0 0 0
8282 0 0 0
8289 0 0 0
8286 0 0 0
8283 0 0 0
8285 0 0 0
9203 0 0 0
9204 0 0 0
8292 0 0 0
8296 0 0 0
8290 0 0 0
8294 0 0 0
8291 0 0 0
8293 0 0 0
8297 0 0 0
9218 0 0 0
9223 0 0 0
9219 0 0 0
8300 0 0 0
8304 0 0 0
8298 0 0 0
8299 0 0 0
8302 0 0 0
8301 0 0 0
8305 0 0 0
9233 0 0 0
9234 0 0 0
9238 0 0 0
8311 0 0 0
8306 0 0 0
8312 0 0 0
8308 0 0 0
8314 0 0 0
8313 0 0 0
8310 0 0 0
8307 0 0 0
8309 0 0 0
9248 0 0 0
9253 0 0 0
8315 0 0 0
8322 0 0 0
8316 0 0 0
8318 0 0 0
8320 0 0 0
8324 0 0 0
8323 0 0 0
8317 0 0 0
8319 0 0 0
8329 0 0 0
8328 0 0 0
8330 0 0 0
8327 0 0 0
8333 0 0 0
8338 0 0 0
8340 0 0 0
8331 0 0 0
8335 0 0 0
8334 0 0 0
8341 0 0 0
8332 0 0 0
8336 0 0 0
9279 0 0 0
9288 0 0 0
8339 0 0 0
8344 0 0 0
8349 0 0 0
8351 0 0 0
8342 0 0 0
8346 0 0 0
8345 0 0 0
8350 0 0 0
8352 0 0 0
8347 0 0 0
9300 0 0 0
8355 0 0 0
8360 0 0 0
8362 0 0 0
8353 0 0 0
8357 0 0 0
8361 0 0 0
8363 0 0 0
8358 0 0 0
9303 0 0 0
9312 0 0 0
9304 0 0 0
8354 0 0 0
8365 0 0 0
8479 0 0 0
8366 0 0 0
8371 0 0 0
8364 0 0 0
8368 0 0 0
8367 0 0 0
8372 0 0 0
8375 0 0 0
8374 0 0 0
8373 0 0 0
8369 0 0 0
8483 0 0 0
9315 0 0 0
9314 0 0 0
9461 0 0 0
8480 0 0 0
8376 0 0 0
8380 0 0 0
8378 0 0 0
8377 0 0 0
8381 0 0 0
8384 0 0 0
8383 0 0 0
8382 0 0 0
8486 0 0 0
8485 0 0 0
9336 0 0 0
9341 0 0 0
8389 0 0 0
8387 0 0 0
8393 0 0 0
8390 0 0 0
8392 0 0 0
8391 0 0 0
8488 0 0 0
8487 0 0 0
8394 0 0 0
8489 0 0 0
9340 0 0 0
9348 0 0 0
9467 0 0 0
9466 0 0 0
8395 0 0 0
8396 0 0 0
9352 0 0 0
8406 0 0 0
8400 0 0 0
8402 0 0 0
8397 0 0 0
8404 0 0 0
8407 0 0 0
8401 0 0 0
8403 0 0 0
9351 0 0 0
9363 0 0 0
9360 0 0 0
8411 0 0 0
8413 0 0 0
8417 0 0 0
8408 0 0 0
8412 0 0 0
8415 0 0 0
8414 0 0 0
8418 0 0 0
8409 0 0 0
9372 0 0 0
8420 0 0 0
8421 0 0 0
8515 0 0 0
8429 0 0 0
8422 0 0 0
8424 0 0 0
8428 0 0 0
8419 0 0 0
8423 0 0 0
8426 0 0 0
8425 0 0 0
9384 0 0 0
9387 0 0 0
9388 0 0 0
8431 0 0 0
8432 0 0 0
8430 0 0 0
8439 0 0 0
8433 0 0 0
8435 0 0 0
8441 0 0 0
8437 0 0 0
8440 0 0 0
8434 0 0 0
8436 0 0 0
9396 0 0 0
8442 0 0 0
8443 0 0 0
8452 0 0 0
8446 0 0 0
8449 0 0 0
8447 0 0 0
8444 0 0 0
8321 0 0 0
8448 0 0 0
8445 0 0 0
8451 0 0 0
8450 0 0 0
8325 0 0 0
8453 0 0 0
8455 0 0 0
8458 0 0 0
8456 0 0 0
8462 0 0 0
8454 0 0 0
8457 0 0 0
8460 0 0 0
8459 0 0 0
8464 0 0 0
8470 0 0 0
8467 0 0 0
8465 0 0 0
8343 0 0 0
8463 0 0 0
8466 0 0 0
8469 0 0 0
8468 0 0 0
8471 0 0 0
8472 0 0 0
8557 0 0 0
9436 0 0 0
9440 0 0 0
9439 0 0 0
8474 0 0 0
8475 0 0 0
8477 0 0 0
8476 0 0 0
8478 0 0 0
8558 0 0 0
8484 0 0 0
8481 0 0 0
8482 0 0 0
9460 0 0 0
8490 0 0 0
8492 0 0 0
8491 0 0 0
8494 0 0 0
8498 0 0 0
8398 0 0 0
8405 0 0 0
8500 0 0 0
8496 0 0 0
8495 0 0 0
9474 0 0 0
8506 0 0 0
8499 0 0 0
9478 0 0 0
9481 0 0 0
8503 0 0 0
8501 0 0 0
8504 0 0 0
8509 0 0 0
8507 0 0 0
8502 0 0 0
8416 0 0 0
8505 0 0 0
8508 0 0 0
8510 0 0 0
9482 0 0 0
8511 0 0 0
8427 0 0 0
8513 0 0 0
8518 0 0 0
8516 0 0 0
8514 0 0 0
8517 0 0 0
8520 0 0 0
8519 0 0 0
9503 0 0 0
9496 0 0 0
8524 0 0 0
8438 0 0 0
8527 0 0 0
8525 0 0 0
8522 0 0 0
8529 0 0 0
8526 0 0 0
8523 0 0 0
8528 0 0 0
8534 0 0 0
8531 0 0 0
8535 0 0 0
8530 0 0 0
8533 0 0 0
8532 0 0 0
8536 0 0 0
8537 0 0 0
8540 0 0 0
8542 0 0 0
8539 0 0 0
8547 0 0 0
8543 0 0 0
8538 0 0 0
8541 0 0 0
8546 0 0 0
8545 0 0 0
8548 0 0 0
8544 0 0 0
9548 0 0 0
9549 0 0 0
8549 0 0 0
8551 0 0 0
8554 0 0 0
8553 0 0 0
8552 0 0 0
8556 0 0 0
8559 0 0 0
8561 0 0 0
8564 0 0 0
8563 0 0 0
8567 0 0 0
8562 0 0 0
8560 0 0 0
9564 0 0 0
9568 0 0 0
9566 0 0 0
8566 0 0 0
9567 0 0 0
8565 0 0 0
8570 0 0 0
8574 0 0 0
8569 0 0 0
8568 0 0 0
8572 0 0 0
8571 0 0 0
8575 0 0 0
9565 0 0 0
9579 0 0 0
8576 0 0 0
8578 0 0 0
8582 0 0 0
8584 0 0 0
8577 0 0 0
8580 0 0 0
8579 0 0 0
9594 0 0 0
9600 0 0 0
8585 0 0 0
8589 0 0 0
8586 0 0 0
8588 0 0 0
8591 0 0 0
8590 0 0 0
8587 0 0 0
8593 0 0 0
9612 0 0 0
8594 0 0 0
8596 0 0 0
8595 0 0 0
8598 0 0 0
8597 0 0 0
8601 0 0 0
8600 0 0 0
8603 0 0 0
9625 0 0 0
8646 0 0 0
9624 0 0 0
9630 0 0 0
8602 0 0 0
8605 0 0 0
9641 0 0 0
9638 0 0 0
9642 0 0 0
8607 0 0 0
8606 0 0 0
8604 0 0 0
8610 0 0 0
8613 0 0 0
8608 0 0 0
8611 0 0 0
8612 0 0 0
8614 0 0 0
8652 0 0 0
8651 0 0 0
9649 0 0 0
9653 0 0 0
9713 0 0 0
8616 0 0 0
8583 0 0 0
8615 0 0 0
8620 0 0 0
8617 0 0 0
8622 0 0 0
8619 0 0 0
8621 0 0 0
8618 0 0 0
8635 0 0 0
8628 0 0 0
8623 0 0 0
8630 0 0 0
8629 0 0 0
8625 0 0 0
8632 0 0 0
8624 0 0 0
8626 0 0 0
8631 0 0 0
9674 0 0 0
9683 0 0 0
9685 0 0 0
8638 0 0 0
8634 0 0 0
8639 0 0 0
8641 0 0 0
8636 0 0 0
8637 0 0 0
8640 0 0 0
8643 0 0 0
8642 0 0 0
8645 0 0 0
8648 0 0 0
9686 0 0 0
9695 0 0 0
9697 0 0 0
9698 0 0 0
9699 0 0 0
9708 0 0 0
8647 0 0 0
9706 0 0 0
8650 0 0 0
8649 0 0 0
8656 0 0 0
8658 0 0 0
8653 0 0 0
8654 0 0 0
8657 0 0 0
8661 0 0 0
8659 0 0 0
9722 0 0 0
9714 0 0 0
9720 0 0 0
9724 0 0 0
8660 0 0 0
8667 0 0 0
8662 0 0 0
8669 0 0 0
8671 0 0 0
8672 0 0 0
8668 0 0 0
8664 0 0 0
8663 0 0 0
8665 0 0 0
8670 0 0 0
9734 0 0 0
9736 0 0 0
9732 0 0 0
8633 0 0 0
8674 0 0 0
8680 0 0 0
8676 0 0 0
8675 0 0 0
8678 0 0 0
8681 0 0 0
8677 0 0 0
8683 0 0 0
8686 0 0 0
9737 0 0 0
9740 0 0 0
8644 0 0 0
9748 0 0 0
8685 0 0 0
8684 0 0 0
8687 0 0 0
8693 0 0 0
8690 0 0 0
8695 0 0 0
8692 0 0 0
8694 0 0 0
8697 0 0 0
8699 0 0 0
8698 0 0 0
9751 0 0 0
9760 0 0 0
9759 0 0 0
9763 0 0 0
8696 0 0 0
9761 0 0 0
8704 0 0 0
8701 0 0 0
8700 0 0 0
8705 0 0 0
8702 0 0 0
8710 0 0 0
8714 0 0 0
8709 0 0 0
8706 0 0 0
8712 0 0 0
8711 0 0 0
8708 0 0 0
9776 0 0 0
9777 0 0 0
9779 0 0 0
8715 0 0 0
8717 0 0 0
8723 0 0 0
8719 0 0 0
8724 0 0 0
8718 0 0 0
8721 0 0 0
8720 0 0 0
9787 0 0 0
9797 0 0 0
9790 0 0 0
9786 0 0 0
8730 0 0 0
8726 0 0 0
8729 0 0 0
8728 0 0 0
8732 0 0 0
8731 0 0 0
8727 0 0 0
8734 0 0 0
8735 0 0 0
9805 0 0 0
9803 0 0 0
9811 0 0 0
8689 0 0 0
8738 0 0 0
8742 0 0 0
8736 0 0 0
8737 0 0 0
8740 0 0 0
8739 0 0 0
9820 0 0 0
9818 0 0 0
9826 0 0 0
8744 0 0 0
9828 0 0 0
8746 0 0 0
8745 0 0 0
8748 0 0 0
8750 0 0 0
9835 0 0 0
9841 0 0 0
9842 0 0 0
8754 0 0 0
8752 0 0 0
8759 0 0 0
8756 0 0 0
8757 0 0 0
8758 0 0 0
8760 0 0 0
8755 0 0 0
8753 0 0 0
9857 0 0 0
9855 0 0 0
9854 0 0 0
9863 0 0 0
8763 0 0 0
8767 0 0 0
8761 0 0 0
8764 0 0 0
8765 0 0 0
8766 0 0 0
8769 0 0 0
8768 0 0 0
9872 0 0 0
9870 0 0 0
9878 0 0 0
8775 0 0 0
8771 0 0 0
8777 0 0 0
8774 0 0 0
8773 0 0 0
8776 0 0 0
8772 0 0 0
9887 0 0 0
9885 0 0 0
10015 0 0 0
8782 0 0 0
8778 0 0 0
8850 0 0 0
8783 0 0 0
8780 0 0 0
8784 0 0 0
8779 0 0 0
8785 0 0 0
8786 0 0 0
9895 0 0 0
9900 0 0 0
9906 0 0 0
9907 0 0 0
9904 0 0 0
8743 0 0 0
8789 0 0 0
8792 0 0 0
8787 0 0 0
8790 0 0 0
8791 0 0 0
8793 0 0 0
9919 0 0 0
9912 0 0 0
9920 0 0 0
9918 0 0 0
9916 0 0 0
8747 0 0 0
8749 0 0 0
8801 0 0 0
8751 0 0 0
8796 0 0 0
8794 0 0 0
8797 0 0 0
8798 0 0 0
8800 0 0 0
8799 0 0 0
8802 0 0 0
9936 0 0 0
9843 0 0 0
10046 0 0 0
9924 0 0 0
9930 0 0 0
9931 0 0 0
8807 0 0 0
9926 0 0 0
8883 0 0 0
8805 0 0 0
8804 0 0 0
8806 0 0 0
10058 0 0 0
9938 0 0 0
8884 0 0 0
8808 0 0 0
8811 0 0 0
9951 0 0 0
9956 0 0 0
8815 0 0 0
8938 0 0 0
8817 0 0 0
9970 0 0 0
8820 0 0 0
8819 0 0 0
8822 0 0 0
8826 0 0 0
8821 0 0 0
8824 0 0 0
8823 0 0 0
8827 0 0 0
8950 0 0 0
9982 0 0 0
10128 0 0 0
9979 0 0 0
9991 0 0 0
9981 0 0 0
8829 0 0 0
8833 0 0 0
8960 0 0 0
8828 0 0 0
8831 0 0 0
8830 0 0 0
8834 0 0 0
9994 0 0 0
10140 0 0 0
9993 0 0 0
10001 0 0 0
10003 0 0 0
8835 0 0 0
8840 0 0 0
8836 0 0 0
8842 0 0 0
8841 0 0 0
8838 0 0 0
8837 0 0 0
10005 0 0 0
10006 0 0 0
10152 0 0 0
10017 0 0 0
10011 0 0 0
10022 0 0 0
8851 0 0 0
8844 0 0 0
8846 0 0 0
8848 0 0 0
8852 0 0 0
8845 0 0 0
8849 0 0 0
8853 0 0 0
8847 0 0 0
8858 0 0 0
10019 0 0 0
10021 0 0 0
8855 0 0 0
8856 0 0 0
8861 0 0 0
8862 0 0 0
8857 0 0 0
8866 0 0 0
8868 0 0 0
8859 0 0 0
8860 0 0 0
8863 0 0 0
8867 0 0 0
8864 0 0 0
8869 0 0 0
10034 0 0 0
10031 0 0 0
10043 0 0 0
10033 0 0 0
10186 0 0 0
8872 0 0 0
8873 0 0 0
8877 0 0 0
8879 0 0 0
8870 0 0 0
8871 0 0 0
8874 0 0 0
8878 0 0 0
8875 0 0 0
8880 0 0 0
10055 0 0 0
10045 0 0 0
10199 0 0 0
8888 0 0 0
8890 0 0 0
8881 0 0 0
8882 0 0 0
8885 0 0 0
8886 0 0 0
8889 0 0 0
8891 0 0 0
10067 0 0 0
10057 0 0 0
9948 0 0 0
10065 0 0 0
8895 0 0 0
8894 0 0 0
8809 0 0 0
8899 0 0 0
8901 0 0 0
8892 0 0 0
8896 0 0 0
8893 0 0 0
8897 0 0 0
8900 0 0 0
8903 0 0 0
8902 0 0 0
10070 0 0 0
10078 0 0 0
10077 0 0 0
8904 0 0 0
10069 0 0 0
10080 0 0 0
8813 0 0 0
8906 0 0 0
8812 0 0 0
8905 0 0 0
8810 0 0 0
8910 0 0 0
8912 0 0 0
8907 0 0 0
8911 0 0 0
8914 0 0 0
8915 0 0 0
8913 0 0 0
10081 0 0 0
9952 0 0 0
9953 0 0 0
9954 0 0 0
8917 0 0 0
8916 0 0 0
8921 0 0 0
8923 0 0 0
8918 0 0 0
8919 0 0 0
8925 0 0 0
8922 0 0 0
8926 0 0 0
8924 0 0 0
9955 0 0 0
9958 0 0 0
10092 0 0 0
10101 0 0 0
10099 0 0 0
10103 0 0 0
8927 0 0 0
8928 0 0 0
8814 0 0 0
8939 0 0 0
8932 0 0 0
8934 0 0 0
8929 0 0 0
8930 0 0 0
8936 0 0 0
8933 0 0 0
8937 0 0 0
8935 0 0 0
9051 0 0 0
10104 0 0 0
10116 0 0 0
10113 0 0 0
10117 0 0 0
8949 0 0 0
8943 0 0 0
8945 0 0 0
8940 0 0 0
8941 0 0 0
8944 0 0 0
8947 0 0 0
8948 0 0 0
8946 0 0 0
10125 0 0 0
10127 0 0 0
10129 0 0 0
8951 0 0 0
8961 0 0 0
8954 0 0 0
8956 0 0 0
8955 0 0 0
8958 0 0 0
8952 0 0 0
8959 0 0 0
8957 0 0 0
10137 0 0 0
10139 0 0 0
8962 0 0 0
8971 0 0 0
8972 0 0 0
8963 0 0 0
8965 0 0 0
8967 0 0 0
8973 0 0 0
8974 0 0 0
8969 0 0 0
8966 0 0 0
8970 0 0 0
8968 0 0 0
10149 0 0 0
10151 0 0 0
8979 0 0 0
8981 0 0 0
8976 0 0 0
8980 0 0 0
8977 0 0 0
8983 0 0 0
8982 0 0 0
10168 0 0 0
10173 0 0 0
8985 0 0 0
8988 0 0 0
8990 0 0 0
8994 0 0 0
8986 0 0 0
8989 0 0 0
8992 0 0 0
8991 0 0 0
10181 0 0 0
10184 0 0 0
8997 0 0 0
8999 0 0 0
9003 0 0 0
8995 0 0 0
8998 0 0 0
9001 0 0 0
9000 0 0 0
10194 0 0 0
10197 0 0 0
9006 0 0 0
9008 0 0 0
9012 0 0 0
9004 0 0 0
9007 0 0 0
9010 0 0 0
9009 0 0 0
10207 0 0 0
10210 0 0 0
9015 0 0 0
9017 0 0 0
9021 0 0 0
9016 0 0 0
9013 0 0 0
9019 0 0 0
9018 0 0 0
9022 0 0 0
10220 0 0 0
8267 0 0 0
8908 0 0 0
9024 0 0 0
9026 0 0 0
9030 0 0 0
9025 0 0 0
9028 0 0 0
9027 0 0 0
9031 0 0 0
10233 0 0 0
10236 0 0 0
10244 0 0 0
10234 0 0 0
8275 0 0 0
9033 0 0 0
9035 0 0 0
9039 0 0 0
9034 0 0 0
9037 0 0 0
9036 0 0 0
9040 0 0 0
10246 0 0 0
10259 0 0 0
10249 0 0 0
10260 0 0 0
10257 0 0 0
9042 0 0 0
9044 0 0 0
9043 0 0 0
9045 0 0 0
9053 0 0 0
9048 0 0 0
9046 0 0 0
9052 0 0 0
9049 0 0 0
10272 0 0 0
10273 0 0 0
10270 0 0 0
9054 0 0 0
9057 0 0 0
9060 0 0 0
9062 0 0 0
9055 0 0 0
9058 0 0 0
9061 0 0 0
9063 0 0 0
10285 0 0 0
10286 0 0 0
9066 0 0 0
9069 0 0 0
9071 0 0 0
9064 0 0 0
9067 0 0 0
9070 0 0 0
9072 0 0 0
10298 0 0 0
10301 0 0 0
9073 0 0 0
9078 0 0 0
9080 0 0 0
9075 0 0 0
9082 0 0 0
9079 0 0 0
9076 0 0 0
9081 0 0 0
10311 0 0 0
10314 0 0 0
10309 0 0 0
9083 0 0 0
9097 0 0 0
9091 0 0 0
9093 0 0 0
10319 0 0 0
9085 0 0 0
9087 0 0 0
9088 0 0 0
9095 0 0 0
9092 0 0 0
9084 0 0 0
9094 0 0 0
9089 0 0 0
9096 0 0 0
9090 0 0 0
9086 0 0 0
9101 0 0 0
9103 0 0 0
9100 0 0 0
9102 0 0 0
9106 0 0 0
9108 0 0 0
10327 0 0 0
9115 0 0 0
9117 0 0 0
9105 0 0 0
9104 0 0 0
9110 0 0 0
9107 0 0 0
9109 0 0 0
9111 0 0 0
9116 0 0 0
9129 0 0 0
9114 0 0 0
9123 0 0 0
10335 0 0 0
9130 0 0 0
9132 0 0 0
9120 0 0 0
9119 0 0 0
9125 0 0 0
9122 0 0 0
9124 0 0 0
9126 0 0 0
9131 0 0 0
9136 0 0 0
9138 0 0 0
10343 0 0 0
9145 0 0 0
9147 0 0 0
9135 0 0 0
9134 0 0 0
9140 0 0 0
9137 0 0 0
9139 0 0 0
9141 0 0 0
9146 0 0 0
9151 0 0 0
9153 0 0 0
10351 0 0 0
9160 0 0 0
9162 0 0 0
9155 0 0 0
9152 0 0 0
9154 0 0 0
9149 0 0 0
9156 0 0 0
9150 0 0 0
9159 0 0 0
9161 0 0 0
9164 0 0 0
10219 0 0 0
10232 0 0 0
9166 0 0 0
9168 0 0 0
10359 0 0 0
9175 0 0 0
9177 0 0 0
9170 0 0 0
9167 0 0 0
9174 0 0 0
9169 0 0 0
9171 0 0 0
9172 0 0 0
9180 0 0 0
9176 0 0 0
9179 0 0 0
10245 0 0 0
9182 0 0 0
9181 0 0 0
9183 0 0 0
10367 0 0 0
9196 0 0 0
9190 0 0 0
9192 0 0 0
9185 0 0 0
9184 0 0 0
9186 0 0 0
9193 0 0 0
9194 0 0 0
9195 0 0 0
9191 0 0 0
9197 0 0 0
10250 0 0 0
10375 0 0 0
9199 0 0 0
9211 0 0 0
9213 0 0 0
10383 0 0 0
9205 0 0 0
9207 0 0 0
9200 0 0 0
9201 0 0 0
9208 0 0 0
9214 0 0 0
9209 0 0 0
9210 0 0 0
9206 0 0 0
9198 0 0 0
9220 0 0 0
9222 0 0 0
9226 0 0 0
10391 0 0 0
9215 0 0 0
9216 0 0 0
9225 0 0 0
9221 0 0 0
9224 0 0 0
9229 0 0 0
9228 0 0 0
9227 0 0 0
9235 0 0 0
9237 0 0 0
9241 0 0 0
9243 0 0 0
10399 0 0 0
9230 0 0 0
9231 0 0 0
9232 0 0 0
9240 0 0 0
9236 0 0 0
9239 0 0 0
9244 0 0 0
9247 0 0 0
9262 0 0 0
9245 0 0 0
9246 0 0 0
9258 0 0 0
10407 0 0 0
9250 0 0 0
9252 0 0 0
9260 0 0 0
9261 0 0 0
9257 0 0 0
9249 0 0 0
9259 0 0 0
9254 0 0 0
9255 0 0 0
9251 0 0 0
9267 0 0 0
10412 0 0 0
9269 0 0 0
9264 0 0 0
9271 0 0 0
9268 0 0 0
9263 0 0 0
9265 0 0 0
9266 0 0 0
9274 0 0 0
9270 0 0 0
9272 0 0 0
9273 0 0 0
9275 0 0 0
10422 0 0 0
9276 0 0 0
9278 0 0 0
10432 0 0 0
9281 0 0 0
9283 0 0 0
9277 0 0 0
9280 0 0 0
9287 0 0 0
9285 0 0 0
9286 0 0 0
9282 0 0 0
9284 0 0 0
9291 0 0 0
9127 0 0 0
10442 0 0 0
9293 0 0 0
9295 0 0 0
9289 0 0 0
9290 0 0 0
9292 0 0 0
9299 0 0 0
9297 0 0 0
9298 0 0 0
9294 0 0 0
9296 0 0 0
9302 0 0 0
9305 0 0 0
9307 0 0 0
10452 0 0 0
9301 0 0 0
9310 0 0 0
9306 0 0 0
9309 0 0 0
9308 0 0 0
9311 0 0 0
9324 0 0 0
9317 0 0 0
9319 0 0 0
10462 0 0 0
9316 0 0 0
9313 0 0 0
9322 0 0 0
9318 0 0 0
9320 0 0 0
9321 0 0 0
9323 0 0 0
9325 0 0 0
10569 0 0 0
9328 0 0 0
9464 0 0 0
9326 0 0 0
10470 0 0 0
9329 0 0 0
9335 0 0 0
9333 0 0 0
9337 0 0 0
9334 0 0 0
9330 0 0 0
9338 0 0 0
9331 0 0 0
9332 0 0 0
9463 0 0 0
9462 0 0 0
9346 0 0 0
9187 0 0 0
9342 0 0 0
10478 0 0 0
9343 0 0 0
9345 0 0 0
9347 0 0 0
9349 0 0 0
9350 0 0 0
9344 0 0 0
9339 0 0 0
9465 0 0 0
9355 0 0 0
9354 0 0 0
9356 0 0 0
9202 0 0 0
9353 0 0 0
10488 0 0 0
9365 0 0 0
9367 0 0 0
9358 0 0 0
9357 0 0 0
9364 0 0 0
9359 0 0 0
9361 0 0 0
9362 0 0 0
9366 0 0 0
9217 0 0 0
9375 0 0 0
9368 0 0 0
10498 0 0 0
9377 0 0 0
9379 0 0 0
9370 0 0 0
9369 0 0 0
9371 0 0 0
9373 0 0 0
9374 0 0 0
9376 0 0 0
9378 0 0 0
9380 0 0 0
10508 0 0 0
9389 0 0 0
9391 0 0 0
9383 0 0 0
9381 0 0 0
9385 0 0 0
9382 0 0 0
9386 0 0 0
9390 0 0 0
9392 0 0 0
9394 0 0 0
9393 0 0 0
9399 0 0 0
10518 0 0 0
9401 0 0 0
9403 0 0 0
9405 0 0 0
9406 0 0 0
9400 0 0 0
9395 0 0 0
9397 0 0 0
9398 0 0 0
9402 0 0 0
9404 0 0 0
9414 0 0 0
9408 0 0 0
10532 0 0 0
9410 0 0 0
10528 0 0 0
9407 0 0 0
9415 0 0 0
9413 0 0 0
9417 0 0 0
9409 0 0 0
9412 0 0 0
9416 0 0 0
9411 0 0 0
10538 0 0 0
9420 0 0 0
9422 0 0 0
9421 0 0 0
9425 0 0 0
9429 0 0 0
9419 0 0 0
9430 0 0 0
10542 0 0 0
9432 0 0 0
10548 0 0 0
9418 0 0 0
9424 0 0 0
9423 0 0 0
9426 0 0 0
9428 0 0 0
9431 0 0 0
9427 0 0 0
9433 0 0 0
9538 0 0 0
9437 0 0 0
9441 0 0 0
10552 0 0 0
9443 0 0 0
9435 0 0 0
9434 0 0 0
9442 0 0 0
9438 0 0 0
9444 0 0 0
10558 0 0 0
9553 0 0 0
10655 0 0 0
10654 0 0 0
9557 0 0 0
10562 0 0 0
9446 0 0 0
9445 0 0 0
9450 0 0 0
9449 0 0 0
9451 0 0 0
9453 0 0 0
9447 0 0 0
9448 0 0 0
9452 0 0 0
9455 0 0 0
9454 0 0 0
9456 0 0 0
9459 0 0 0
9457 0 0 0
9458 0 0 0
9563 0 0 0
10572 0 0 0
10568 0 0 0
10585 0 0 0
10586 0 0 0
9468 0 0 0
9471 0 0 0
9480 0 0 0
9476 0 0 0
9479 0 0 0
9475 0 0 0
9472 0 0 0
9469 0 0 0
9477 0 0 0
9473 0 0 0
9470 0 0 0
9485 0 0 0
10590 0 0 0
9486 0 0 0
9488 0 0 0
9492 0 0 0
10600 0 0 0
9484 0 0 0
9483 0 0 0
9491 0 0 0
9487 0 0 0
9490 0 0 0
9489 0 0 0
9493 0 0 0
10596 0 0 0
9504 0 0 0
9497 0 0 0
9499 0 0 0
10606 0 0 0
10610 0 0 0
9495 0 0 0
9502 0 0 0
9498 0 0 0
9494 0 0 0
9500 0 0 0
9501 0 0 0
9576 0 0 0
9591 0 0 0
9506 0 0 0
9505 0 0 0
9514 0 0 0
9508 0 0 0
10620 0 0 0
9510 0 0 0
10616 0 0 0
9517 0 0 0
9516 0 0 0
9507 0 0 0
9515 0 0 0
9513 0 0 0
9509 0 0 0
9512 0 0 0
9511 0 0 0
9518 0 0 0
9526 0 0 0
9528 0 0 0
9520 0 0 0
10629 0 0 0
9522 0 0 0
9524 0 0 0
9531 0 0 0
9527 0 0 0
9519 0 0 0
9523 0 0 0
9529 0 0 0
9530 0 0 0
9521 0 0 0
9525 0 0 0
9532 0 0 0
9537 0 0 0
9536 0 0 0
9533 0 0 0
9535 0 0 0
9534 0 0 0
9541 0 0 0
9543 0 0 0
9552 0 0 0
9539 0 0 0
9540 0 0 0
9546 0 0 0
9542 0 0 0
9545 0 0 0
9544 0 0 0
9551 0 0 0
9547 0 0 0
9550 0 0 0
9555 0 0 0
10652 0 0 0
9634 0 0 0
9635 0 0 0
9558 0 0 0
9554 0 0 0
9560 0 0 0
9559 0 0 0
9556 0 0 0
9561 0 0 0
9562 0 0 0
10645 0 0 0
10649 0 0 0
9572 0 0 0
9574 0 0 0
9571 0 0 0
9570 0 0 0
9573 0 0 0
9575 0 0 0
10668 0 0 0
10666 0 0 0
9569 0 0 0
9588 0 0 0
9581 0 0 0
9583 0 0 0
9587 0 0 0
9589 0 0 0
10676 0 0 0
9577 0 0 0
9580 0 0 0
9585 0 0 0
9584 0 0 0
9582 0 0 0
9578 0 0 0
9586 0 0 0
9590 0 0 0
9593 0 0 0
9659 0 0 0
9592 0 0 0
9602 0 0 0
9604 0 0 0
9596 0 0 0
10684 0 0 0
9598 0 0 0
9607 0 0 0
9606 0 0 0
9608 0 0 0
9603 0 0 0
9595 0 0 0
9599 0 0 0
9605 0 0 0
9597 0 0 0
9601 0 0 0
9671 0 0 0
9613 0 0 0
9614 0 0 0
9615 0 0 0
10689 0 0 0
9617 0 0 0
9610 0 0 0
9618 0 0 0
9609 0 0 0
9620 0 0 0
9616 0 0 0
9611 0 0 0
9619 0 0 0
10696 0 0 0
9627 0 0 0
9629 0 0 0
9622 0 0 0
9621 0 0 0
9623 0 0 0
9626 0 0 0
9633 0 0 0
9632 0 0 0
9628 0 0 0
9631 0 0 0
10703 0 0 0
10710 0 0 0
10708 0 0 0
9639 0 0 0
9640 0 0 0
9636 0 0 0
9643 0 0 0
9645 0 0 0
9644 0 0 0
9646 0 0 0
9637 0 0 0
10714 0 0 0
10712 0 0 0
10717 0 0 0
9654 0 0 0
9656 0 0 0
9658 0 0 0
9647 0 0 0
9651 0 0 0
9650 0 0 0
9648 0 0 0
9652 0 0 0
9655 0 0 0
9657 0 0 0
9665 0 0 0
9661 0 0 0
9660 0 0 0
9666 0 0 0
9668 0 0 0
10724 0 0 0
9670 0 0 0
9672 0 0 0
9673 0 0 0
9667 0 0 0
9663 0 0 0
9662 0 0 0
9669 0 0 0
9664 0 0 0
9725 0 0 0
9676 0 0 0
10734 0 0 0
9678 0 0 0
9682 0 0 0
9675 0 0 0
9681 0 0 0
9680 0 0 0
9684 0 0 0
9679 0 0 0
9688 0 0 0
9689 0 0 0
9690 0 0 0
9687 0 0 0
10744 0 0 0
9693 0 0 0
9691 0 0 0
9692 0 0 0
9694 0 0 0
9701 0 0 0
9696 0 0 0
9703 0 0 0
9702 0 0 0
9700 0 0 0
10753 0 0 0
9707 0 0 0
9705 0 0 0
9704 0 0 0
9711 0 0 0
9709 0 0 0
9712 0 0 0
9710 0 0 0
10760 0 0 0
9716 0 0 0
9718 0 0 0
9719 0 0 0
9721 0 0 0
9723 0 0 0
9715 0 0 0
9717 0 0 0
9677 0 0 0
9727 0 0 0
10770 0 0 0
9729 0 0 0
9735 0 0 0
9733 0 0 0
9726 0 0 0
9728 0 0 0
9731 0 0 0
9730 0 0 0
9742 0 0 0
10777 0 0 0
9744 0 0 0
10783 0 0 0
9741 0 0 0
9747 0 0 0
9743 0 0 0
9739 0 0 0
9745 0 0 0
9746 0 0 0
9738 0 0 0
9749 0 0 0
9802 0 0 0
10787 0 0 0
9753 0 0 0
9755 0 0 0
9750 0 0 0
9752 0 0 0
9758 0 0 0
9754 0 0 0
9757 0 0 0
9756 0 0 0
10797 0 0 0
9768 0 0 0
10813 0 0 0
10810 0 0 0
9862 0 0 0
9767 0 0 0
9771 0 0 0
9773 0 0 0
9772 0 0 0
9765 0 0 0
10808 0 0 0
9770 0 0 0
9764 0 0 0
9769 0 0 0
9766 0 0 0
10818 0 0 0
9781 0 0 0
9783 0 0 0
10824 0 0 0
9775 0 0 0
9774 0 0 0
9778 0 0 0
9780 0 0 0
9782 0 0 0
9784 0 0 0
9869 0 0 0
9877 0 0 0
9785 0 0 0
9792 0 0 0
10828 0 0 0
9794 0 0 0
10834 0 0 0
9796 0 0 0
9791 0 0 0
9793 0 0 0
9789 0 0 0
9795 0 0 0
9788 0 0 0
9884 0 0 0
9798 0 0 0
9800 0 0 0
10838 0 0 0
9807 0 0 0
9809 0 0 0
9799 0 0 0
9810 0 0 0
9801 0 0 0
9806 0 0 0
9804 0 0 0
9812 0 0 0
9813 0 0 0
9815 0 0 0
10846 0 0 0
9814 0 0 0
9816 0 0 0
10793 0 0 0
9762 0 0 0
10854 0 0 0
9824 0 0 0
9817 0 0 0
9819 0 0 0
9829 0 0 0
9825 0 0 0
9821 0 0 0
9827 0 0 0
9830 0 0 0
9834 0 0 0
9831 0 0 0
9832 0 0 0
9833 0 0 0
9836 0 0 0
9850 0 0 0
9849 0 0 0
10866 0 0 0
9859 0 0 0
9861 0 0 0
9856 0 0 0
9858 0 0 0
9860 0 0 0
10870 0 0 0
10868 0 0 0
9865 0 0 0
9867 0 0 0
10878 0 0 0
9874 0 0 0
9876 0 0 0
9866 0 0 0
9868 0 0 0
9864 0 0 0
9871 0 0 0
9873 0 0 0
9879 0 0 0
9893 0 0 0
9880 0 0 0
9882 0 0 0
10886 0 0 0
9889 0 0 0
9891 0 0 0
9892 0 0 0
9894 0 0 0
9881 0 0 0
9883 0 0 0
9888 0 0 0
9886 0 0 0
9808 0 0 0
10896 0 0 0
9897 0 0 0
9899 0 0 0
9896 0 0 0
9903 0 0 0
9901 0 0 0
9905 0 0 0
9902 0 0 0
9898 0 0 0
10018 0 0 0
9908 0 0 0
9910 0 0 0
10030 0 0 0
9909 0 0 0
9911 0 0 0
9822 0 0 0
9823 0 0 0
10903 0 0 0
9921 0 0 0
9923 0 0 0
9914 0 0 0
9913 0 0 0
9915 0 0 0
9917 0 0 0
9922 0 0 0
9840 0 0 0
9837 0 0 0
9838 0 0 0
9839 0 0 0
10860 0 0 0
10910 0 0 0
9933 0 0 0
9935 0 0 0
9925 0 0 0
9928 0 0 0
9932 0 0 0
9927 0 0 0
9929 0 0 0
9934 0 0 0
9937 0 0 0
9939 0 0 0
9940 0 0 0
9942 0 0 0
10918 0 0 0
10922 0 0 0
10924 0 0 0
9941 0 0 0
9944 0 0 0
9946 0 0 0
9943 0 0 0
9945 0 0 0
9947 0 0 0
9967 0 0 0
9964 0 0 0
9966 0 0 0
9965 0 0 0
9962 0 0 0
9960 0 0 0
9959 0 0 0
9847 0 0 0
9846 0 0 0
10940 0 0 0
9976 0 0 0
9974 0 0 0
9975 0 0 0
9972 0 0 0
9969 0 0 0
9973 0 0 0
9971 0 0 0
9968 0 0 0
9844 0 0 0
9978 0 0 0
9851 0 0 0
9852 0 0 0
9845 0 0 0
9848 0 0 0
9853 0 0 0
9984 0 0 0
9986 0 0 0
10947 0 0 0
9980 0 0 0
9987 0 0 0
9983 0 0 0
9989 0 0 0
9985 0 0 0
9988 0 0 0
9990 0 0 0
9999 0 0 0
9875 0 0 0
9996 0 0 0
9998 0 0 0
10954 0 0 0
9995 0 0 0
9992 0 0 0
9997 0 0 0
10000 0 0 0
10002 0 0 0
10004 0 0 0
9890 0 0 0
10961 0 0 0
10008 0 0 0
10010 0 0 0
10016 0 0 0
10007 0 0 0
10014 0 0 0
10012 0 0 0
10013 0 0 0
10009 0 0 0
10148 0 0 0
10966 0 0 0
10024 0 0 0
10026 0 0 0
10023 0 0 0
10020 0 0 0
10029 0 0 0
10025 0 0 0
10027 0 0 0
10028 0 0 0
10160 0 0 0
10042 0 0 0
10976 0 0 0
10986 0 0 0
10036 0 0 0
10038 0 0 0
10032 0 0 0
10035 0 0 0
10040 0 0 0
10041 0 0 0
10037 0 0 0
10039 0 0 0
10054 0 0 0
10996 0 0 0
10048 0 0 0
10050 0 0 0
10044 0 0 0
10047 0 0 0
10052 0 0 0
10053 0 0 0
10049 0 0 0
10051 0 0 0
10066 0 0 0
10060 0 0 0
10062 0 0 0
11006 0 0 0
10056 0 0 0
10059 0 0 0
10061 0 0 0
10064 0 0 0
10063 0 0 0
9950 0 0 0
9949 0 0 0
10929 0 0 0
10072 0 0 0
10074 0 0 0
10071 0 0 0
10068 0 0 0
10073 0 0 0
10075 0 0 0
10076 0 0 0
10079 0 0 0
11016 0 0 0
10089 0 0 0
10088 0 0 0
10091 0 0 0
10933 0 0 0
10083 0 0 0
10085 0 0 0
10082 0 0 0
10087 0 0 0
10090 0 0 0
10084 0 0 0
10086 0 0 0
11026 0 0 0
10932 0 0 0
9961 0 0 0
9963 0 0 0
10100 0 0 0
9957 0 0 0
10094 0 0 0
10096 0 0 0
11036 0 0 0
10093 0 0 0
10095 0 0 0
10098 0 0 0
10097 0 0 0
10102 0 0 0
10109 0 0 0
10251 0 0 0
9977 0 0 0
10112 0 0 0
10106 0 0 0
10108 0 0 0
10105 0 0 0
10107 0 0 0
11046 0 0 0
10118 0 0 0
10120 0 0 0
10111 0 0 0
10110 0 0 0
10114 0 0 0
10115 0 0 0
10119 0 0 0
10121 0 0 0
10124 0 0 0
11056 0 0 0
10130 0 0 0
10132 0 0 0
10123 0 0 0
10122 0 0 0
10126 0 0 0
10131 0 0 0
10133 0 0 0
10136 0 0 0
11066 0 0 0
10142 0 0 0
10144 0 0 0
10134 0 0 0
10138 0 0 0
10135 0 0 0
10141 0 0 0
10143 0 0 0
10145 0 0 0
11190 0 0 0
10290 0 0 0
10147 0 0 0
10146 0 0 0
11076 0 0 0
10154 0 0 0
10156 0 0 0
10158 0 0 0
10159 0 0 0
10153 0 0 0
10150 0 0 0
10155 0 0 0
10157 0 0 0
10303 0 0 0
11090 0 0 0
10161 0 0 0
10163 0 0 0
11086 0 0 0
10169 0 0 0
10167 0 0 0
10172 0 0 0
10165 0 0 0
10170 0 0 0
10166 0 0 0
10171 0 0 0
10162 0 0 0
10164 0 0 0
10175 0 0 0
10185 0 0 0
10174 0 0 0
10176 0 0 0
11096 0 0 0
11100 0 0 0
10187 0 0 0
10189 0 0 0
11106 0 0 0
10179 0 0 0
10178 0 0 0
10177 0 0 0
10180 0 0 0
10182 0 0 0
10183 0 0 0
10188 0 0 0
10190 0 0 0
9121 0 0 0
10198 0 0 0
11110 0 0 0
10200 0 0 0
10202 0 0 0
11116 0 0 0
10192 0 0 0
10191 0 0 0
10193 0 0 0
10195 0 0 0
10196 0 0 0
10201 0 0 0
10203 0 0 0
10212 0 0 0
11120 0 0 0
10213 0 0 0
10215 0 0 0
11126 0 0 0
10205 0 0 0
10204 0 0 0
10206 0 0 0
10208 0 0 0
10211 0 0 0
10209 0 0 0
10214 0 0 0
10216 0 0 0
11130 0 0 0
10226 0 0 0
10228 0 0 0
11136 0 0 0
10221 0 0 0
10224 0 0 0
10217 0 0 0
10222 0 0 0
10218 0 0 0
10223 0 0 0
10225 0 0 0
10231 0 0 0
10227 0 0 0
10230 0 0 0
10229 0 0 0
11140 0 0 0
10239 0 0 0
10241 0 0 0
11146 0 0 0
10237 0 0 0
10238 0 0 0
10235 0 0 0
10240 0 0 0
10242 0 0 0
10243 0 0 0
11150 0 0 0
10252 0 0 0
10254 0 0 0
11156 0 0 0
10247 0 0 0
10248 0 0 0
10258 0 0 0
10256 0 0 0
10253 0 0 0
10255 0 0 0
11170 0 0 0
9212 0 0 0
11160 0 0 0
10265 0 0 0
10267 0 0 0
11166 0 0 0
10263 0 0 0
10261 0 0 0
10262 0 0 0
10271 0 0 0
10264 0 0 0
10269 0 0 0
10266 0 0 0
10268 0 0 0
10278 0 0 0
10280 0 0 0
11176 0 0 0
11180 0 0 0
10276 0 0 0
10274 0 0 0
10275 0 0 0
10277 0 0 0
10283 0 0 0
10279 0 0 0
10282 0 0 0
10281 0 0 0
10284 0 0 0
10288 0 0 0
9242 0 0 0
10291 0 0 0
10293 0 0 0
11186 0 0 0
10289 0 0 0
10287 0 0 0
10296 0 0 0
10292 0 0 0
10294 0 0 0
10295 0 0 0
10297 0 0 0
10299 0 0 0
9256 0 0 0
10302 0 0 0
10300 0 0 0
11200 0 0 0
10304 0 0 0
10306 0 0 0
11196 0 0 0
10313 0 0 0
10315 0 0 0
10312 0 0 0
10310 0 0 0
10308 0 0 0
10305 0 0 0
10307 0 0 0
1 0 0 0
18 0 0 0
10321 0 0 0
10317 0 0 0
10320 0 0 0
10322 0 0 0
10318 0 0 0
10323 0 0 0
10324 0 0 0
10316 0 0 0
35 0 0 0
10325 0 0 0
10329 0 0 0
10333 0 0 0
10326 0 0 0
10328 0 0 0
10330 0 0 0
10331 0 0 0
10332 0 0 0
52 0 0 0
10337 0 0 0
10341 0 0 0
10334 0 0 0
10336 0 0 0
10338 0 0 0
10339 0 0 0
10340 0 0 0
69 0 0 0
10345 0 0 0
10349 0 0 0
10342 0 0 0
10344 0 0 0
10346 0 0 0
10347 0 0 0
10348 0 0 0
86 0 0 0
10353 0 0 0
10357 0 0 0
10352 0 0 0
10354 0 0 0
10350 0 0 0
10355 0 0 0
10358 0 0 0
10356 0 0 0
103 0 0 0
10361 0 0 0
10365 0 0 0
10360 0 0 0
10362 0 0 0
10363 0 0 0
10366 0 0 0
120 0 0 0
302 0 0 0
10369 0 0 0
10377 0 0 0
10373 0 0 0
10368 0 0 0
10370 0 0 0
10371 0 0 0
10376 0 0 0
10374 0 0 0
10372 0 0 0
10476 0 0 0
316 0 0 0
137 0 0 0
10378 0 0 0
10385 0 0 0
10381 0 0 0
10379 0 0 0
10384 0 0 0
10386 0 0 0
10382 0 0 0
10380 0 0 0
154 0 0 0
10389 0 0 0
10393 0 0 0
10387 0 0 0
10390 0 0 0
10388 0 0 0
10392 0 0 0
10394 0 0 0
171 0 0 0
10397 0 0 0
10401 0 0 0
10395 0 0 0
10396 0 0 0
10398 0 0 0
10400 0 0 0
10402 0 0 0
188 0 0 0
10403 0 0 0
10409 0 0 0
10405 0 0 0
10411 0 0 0
10408 0 0 0
10410 0 0 0
10406 0 0 0
10404 0 0 0
211 0 0 0
207 0 0 0
222 0 0 0
10419 0 0 0
10414 0 0 0
10416 0 0 0
10413 0 0 0
10417 0 0 0
10420 0 0 0
10415 0 0 0
10426 0 0 0
10423 0 0 0
10425 0 0 0
226 0 0 0
237 0 0 0
10424 0 0 0
10429 0 0 0
10434 0 0 0
10436 0 0 0
10427 0 0 0
10433 0 0 0
10430 0 0 0
10435 0 0 0
10428 0 0 0
241 0 0 0
252 0 0 0
10439 0 0 0
10444 0 0 0
10446 0 0 0
10437 0 0 0
10443 0 0 0
10440 0 0 0
10445 0 0 0
10438 0 0 0
10441 0 0 0
256 0 0 0
267 0 0 0
10449 0 0 0
10454 0 0 0
10456 0 0 0
10447 0 0 0
10450 0 0 0
10453 0 0 0
10455 0 0 0
10448 0 0 0
10458 0 0 0
271 0 0 0
282 0 0 0
10459 0 0 0
10464 0 0 0
10457 0 0 0
10460 0 0 0
10463 0 0 0
10465 0 0 0
10467 0 0 0
10466 0 0 0
10570 0 0 0
10461 0 0 0
10576 0 0 0
10571 0 0 0
286 0 0 0
10468 0 0 0
10472 0 0 0
10471 0 0 0
10469 0 0 0
10473 0 0 0
10475 0 0 0
10474 0 0 0
10577 0 0 0
10578 0 0 0
312 0 0 0
459 0 0 0
10480 0 0 0
10477 0 0 0
10479 0 0 0
10483 0 0 0
10481 0 0 0
10482 0 0 0
10580 0 0 0
10579 0 0 0
10484 0 0 0
10582 0 0 0
10581 0 0 0
10588 0 0 0
331 0 0 0
327 0 0 0
10485 0 0 0
10495 0 0 0
10490 0 0 0
10492 0 0 0
10486 0 0 0
10489 0 0 0
10493 0 0 0
10491 0 0 0
10587 0 0 0
10487 0 0 0
342 0 0 0
346 0 0 0
10500 0 0 0
10502 0 0 0
10505 0 0 0
10496 0 0 0
10499 0 0 0
10501 0 0 0
10503 0 0 0
10507 0 0 0
357 0 0 0
361 0 0 0
10510 0 0 0
10512 0 0 0
10515 0 0 0
10509 0 0 0
10506 0 0 0
10511 0 0 0
10513 0 0 0
10517 0 0 0
376 0 0 0
372 0 0 0
10516 0 0 0
10525 0 0 0
10520 0 0 0
10522 0 0 0
10526 0 0 0
10519 0 0 0
10523 0 0 0
10521 0 0 0
394 0 0 0
10536 0 0 0
10534 0 0 0
10530 0 0 0
10418 0 0 0
10533 0 0 0
10535 0 0 0
10531 0 0 0
10537 0 0 0
10421 0 0 0
10540 0 0 0
10539 0 0 0
408 0 0 0
10546 0 0 0
10544 0 0 0
10550 0 0 0
10541 0 0 0
10431 0 0 0
10543 0 0 0
10545 0 0 0
10547 0 0 0
10549 0 0 0
10556 0 0 0
10554 0 0 0
10551 0 0 0
10553 0 0 0
10555 0 0 0
10557 0 0 0
10559 0 0 0
10560 0 0 0
10561 0 0 0
10657 0 0 0
436 0 0 0
10658 0 0 0
10651 0 0 0
10656 0 0 0
438 0 0 0
578 0 0 0
10451 0 0 0
10564 0 0 0
10563 0 0 0
10565 0 0 0
10566 0 0 0
10567 0 0 0
10573 0 0 0
10574 0 0 0
10575 0 0 0
460 0 0 0
10584 0 0 0
10583 0 0 0
10592 0 0 0
10494 0 0 0
10593 0 0 0
10594 0 0 0
10589 0 0 0
10659 0 0 0
10591 0 0 0
477 0 0 0
490 0 0 0
10660 0 0 0
10598 0 0 0
10604 0 0 0
10602 0 0 0
10595 0 0 0
10497 0 0 0
10504 0 0 0
10597 0 0 0
10599 0 0 0
10601 0 0 0
10603 0 0 0
10611 0 0 0
504 0 0 0
10608 0 0 0
10614 0 0 0
10612 0 0 0
10514 0 0 0
10605 0 0 0
10607 0 0 0
10609 0 0 0
10613 0 0 0
10615 0 0 0
10529 0 0 0
518 0 0 0
10624 0 0 0
10622 0 0 0
10618 0 0 0
10527 0 0 0
10625 0 0 0
10524 0 0 0
10621 0 0 0
10623 0 0 0
10619 0 0 0
10617 0 0 0
523 0 0 0
540 0 0 0
10627 0 0 0
10631 0 0 0
10626 0 0 0
10628 0 0 0
10630 0 0 0
10633 0 0 0
10635 0 0 0
10634 0 0 0
10637 0 0 0
10643 0 0 0
10639 0 0 0
10636 0 0 0
10642 0 0 0
10641 0 0 0
10638 0 0 0
10640 0 0 0
10646 0 0 0
10644 0 0 0
10647 0 0 0
10650 0 0 0
10653 0 0 0
10648 0 0 0
10663 0 0 0
580 0 0 0
586 0 0 0
583 0 0 0
10670 0 0 0
10664 0 0 0
10667 0 0 0
10669 0 0 0
10665 0 0 0
10662 0 0 0
10661 0 0 0
10671 0 0 0
600 0 0 0
10674 0 0 0
10678 0 0 0
10673 0 0 0
10672 0 0 0
10675 0 0 0
10677 0 0 0
10679 0 0 0
10680 0 0 0
617 0 0 0
10682 0 0 0
10686 0 0 0
10688 0 0 0
10681 0 0 0
10683 0 0 0
10685 0 0 0
639 0 0 0
10632 0 0 0
10694 0 0 0
10691 0 0 0
10693 0 0 0
10695 0 0 0
10690 0 0 0
10692 0 0 0
10697 0 0 0
10698 0 0 0
744 0 0 0
653 0 0 0
743 0 0 0
10701 0 0 0
10700 0 0 0
10699 0 0 0
10702 0 0 0
10704 0 0 0
10706 0 0 0
10705 0 0 0
10709 0 0 0
10751 0 0 0
10754 0 0 0
10707 0 0 0
10752 0 0 0
676 0 0 0
10715 0 0 0
10713 0 0 0
10711 0 0 0
690 0 0 0
10719 0 0 0
10722 0 0 0
10716 0 0 0
10718 0 0 0
10720 0 0 0
10721 0 0 0
10723 0 0 0
10757 0 0 0
10687 0 0 0
704 0 0 0
775 0 0 0
10729 0 0 0
10726 0 0 0
10730 0 0 0
10728 0 0 0
10725 0 0 0
10727 0 0 0
724 0 0 0
728 0 0 0
10736 0 0 0
10731 0 0 0
10738 0 0 0
10735 0 0 0
10737 0 0 0
10732 0 0 0
10739 0 0 0
10733 0 0 0
751 0 0 0
739 0 0 0
10741 0 0 0
10746 0 0 0
10748 0 0 0
10742 0 0 0
10743 0 0 0
10745 0 0 0
10747 0 0 0
10749 0 0 0
760 0 0 0
771 0 0 0
10756 0 0 0
10755 0 0 0
10762 0 0 0
10764 0 0 0
10758 0 0 0
10761 0 0 0
10763 0 0 0
10819 0 0 0
10766 0 0 0
10816 0 0 0
713 0 0 0
10765 0 0 0
786 0 0 0
10772 0 0 0
10767 0 0 0
10774 0 0 0
10775 0 0 0
10771 0 0 0
10773 0 0 0
10768 0 0 0
10769 0 0 0
10776 0 0 0
10740 0 0 0
791 0 0 0
805 0 0 0
10779 0 0 0
10785 0 0 0
10781 0 0 0
10778 0 0 0
10780 0 0 0
10782 0 0 0
10786 0 0 0
10789 0 0 0
10788 0 0 0
10784 0 0 0
10791 0 0 0
819 0 0 0
10806 0 0 0
10750 0 0 0
10790 0 0 0
10792 0 0 0
10798 0 0 0
10800 0 0 0
10796 0 0 0
10801 0 0 0
10799 0 0 0
10805 0 0 0
10804 0 0 0
10807 0 0 0
10803 0 0 0
10802 0 0 0
10815 0 0 0
10811 0 0 0
10809 0 0 0
10817 0 0 0
10814 0 0 0
843 0 0 0
10759 0 0 0
10812 0 0 0
10822 0 0 0
10826 0 0 0
10821 0 0 0
10823 0 0 0
10825 0 0 0
10827 0 0 0
10820 0 0 0
857 0 0 0
10830 0 0 0
10836 0 0 0
10832 0 0 0
10837 0 0 0
10829 0 0 0
10831 0 0 0
10835 0 0 0
10833 0 0 0
878 0 0 0
10844 0 0 0
10840 0 0 0
10843 0 0 0
10839 0 0 0
10842 0 0 0
10845 0 0 0
10841 0 0 0
10848 0 0 0
10847 0 0 0
10849 0 0 0
895 0 0 0
10795 0 0 0
10794 0 0 0
10852 0 0 0
10856 0 0 0
10850 0 0 0
10851 0 0 0
10855 0 0 0
10853 0 0 0
912 0 0 0
10858 0 0 0
10859 0 0 0
10862 0 0 0
10864 0 0 0
939 0 0 0
937 0 0 0
936 0 0 0
10867 0 0 0
10876 0 0 0
10871 0 0 0
10873 0 0 0
10874 0 0 0
10875 0 0 0
10872 0 0 0
10869 0 0 0
956 0 0 0
10880 0 0 0
10884 0 0 0
10879 0 0 0
10877 0 0 0
10881 0 0 0
10882 0 0 0
10883 0 0 0
10885 0 0 0
973 0 0 0
10892 0 0 0
10888 0 0 0
10893 0 0 0
10891 0 0 0
10887 0 0 0
10890 0 0 0
10889 0 0 0
982 0 0 0
996 0 0 0
10898 0 0 0
10894 0 0 0
10897 0 0 0
10899 0 0 0
10895 0 0 0
10900 0 0 0
10901 0 0 0
10973 0 0 0
1011 0 0 0
10857 0 0 0
1010 0 0 0
10905 0 0 0
10908 0 0 0
10902 0 0 0
10904 0 0 0
10906 0 0 0
10907 0 0 0
1030 0 0 0
922 0 0 0
1024 0 0 0
10861 0 0 0
10863 0 0 0
10916 0 0 0
10865 0 0 0
10912 0 0 0
10909 0 0 0
10911 0 0 0
10913 0 0 0
10914 0 0 0
10915 0 0 0
10917 0 0 0
10919 0 0 0
10921 0 0 0
10920 0 0 0
10923 0 0 0
10925 0 0 0
10926 0 0 0
1046 0 0 0
10931 0 0 0
10935 0 0 0
10937 0 0 0
1250 0 0 0
11053 0 0 0
10941 0 0 0
10942 0 0 0
10939 0 0 0
10943 0 0 0
1084 0 0 0
10938 0 0 0
10945 0 0 0
10949 0 0 0
10944 0 0 0
10946 0 0 0
10948 0 0 0
10950 0 0 0
1098 0 0 0
10952 0 0 0
10956 0 0 0
11073 0 0 0
10951 0 0 0
10953 0 0 0
10955 0 0 0
10957 0 0 0
1112 0 0 0
10958 0 0 0
10963 0 0 0
10959 0 0 0
11083 0 0 0
10965 0 0 0
10962 0 0 0
10964 0 0 0
10960 0 0 0
1132 0 0 0
1128 0 0 0
1143 0 0 0
10968 0 0 0
10970 0 0 0
10967 0 0 0
10971 0 0 0
10974 0 0 0
10969 0 0 0
10972 0 0 0
10975 0 0 0
10977 0 0 0
10979 0 0 0
10983 0 0 0
1147 0 0 0
1158 0 0 0
10978 0 0 0
10980 0 0 0
10988 0 0 0
10990 0 0 0
10981 0 0 0
10982 0 0 0
10987 0 0 0
10984 0 0 0
10989 0 0 0
10985 0 0 0
1162 0 0 0
1173 0 0 0
10993 0 0 0
10998 0 0 0
11000 0 0 0
10991 0 0 0
10992 0 0 0
10997 0 0 0
10994 0 0 0
10999 0 0 0
10995 0 0 0
1177 0 0 0
1188 0 0 0
11003 0 0 0
11008 0 0 0
11010 0 0 0
11001 0 0 0
11002 0 0 0
11004 0 0 0
11007 0 0 0
11009 0 0 0
11121 0 0 0
1047 0 0 0
11012 0 0 0
1192 0 0 0
1202 0 0 0
10928 0 0 0
11013 0 0 0
10927 0 0 0
11018 0 0 0
11020 0 0 0
11011 0 0 0
11014 0 0 0
11015 0 0 0
11017 0 0 0
11019 0 0 0
11022 0 0 0
11021 0 0 0
1050 0 0 0
1206 0 0 0
1207 0 0 0
1051 0 0 0
1052 0 0 0
1053 0 0 0
1216 0 0 0
11023 0 0 0
10930 0 0 0
11028 0 0 0
11030 0 0 0
11027 0 0 0
11024 0 0 0
11029 0 0 0
11031 0 0 0
11025 0 0 0
11032 0 0 0
11142 0 0 0
1220 0 0 0
1231 0 0 0
10934 0 0 0
11033 0 0 0
11038 0 0 0
11040 0 0 0
11034 0 0 0
11035 0 0 0
11037 0 0 0
11041 0 0 0
11039 0 0 0
11042 0 0 0
1235 0 0 0
1246 0 0 0
11043 0 0 0
10936 0 0 0
11048 0 0 0
11050 0 0 0
11044 0 0 0
11045 0 0 0
11047 0 0 0
11051 0 0 0
11049 0 0 0
11052 0 0 0
1265 0 0 0
1261 0 0 0
11063 0 0 0
11058 0 0 0
11060 0 0 0
11054 0 0 0
11055 0 0 0
11057 0 0 0
11059 0 0 0
11061 0 0 0
11062 0 0 0
11181 0 0 0
11065 0 0 0
1280 0 0 0
1276 0 0 0
11068 0 0 0
11070 0 0 0
11067 0 0 0
11064 0 0 0
11069 0 0 0
11071 0 0 0
11072 0 0 0
11075 0 0 0
1295 0 0 0
1291 0 0 0
11074 0 0 0
11078 0 0 0
11080 0 0 0
11084 0 0 0
11085 0 0 0
11077 0 0 0
11081 0 0 0
11079 0 0 0
11082 0 0 0
1314 0 0 0
11092 0 0 0
11094 0 0 0
11088 0 0 0
11091 0 0 0
11093 0 0 0
11087 0 0 0
11089 0 0 0
11095 0 0 0
11097 0 0 0
1330 0 0 0
11098 0 0 0
11102 0 0 0
11104 0 0 0
11108 0 0 0
11099 0 0 0
11101 0 0 0
11103 0 0 0
11107 0 0 0
11105 0 0 0
1346 0 0 0
11112 0 0 0
11114 0 0 0
11118 0 0 0
11109 0 0 0
11111 0 0 0
11113 0 0 0
11117 0 0 0
11115 0 0 0
11005 0 0 0
1362 0 0 0
11122 0 0 0
11124 0 0 0
11128 0 0 0
11119 0 0 0
11123 0 0 0
11125 0 0 0
11127 0 0 0
1378 0 0 0
11132 0 0 0
11134 0 0 0
11138 0 0 0
11131 0 0 0
11133 0 0 0
11129 0 0 0
11135 0 0 0
11137 0 0 0
11139 0 0 0
10364 0 0 0
1394 0 0 0
1410 0 0 0
11144 0 0 0
11148 0 0 0
11141 0 0 0
11143 0 0 0
11147 0 0 0
11145 0 0 0
11149 0 0 0
1426 0 0 0
11152 0 0 0
11154 0 0 0
11158 0 0 0
11151 0 0 0
11153 0 0 0
11155 0 0 0
11157 0 0 0
11159 0 0 0
11164 0 0 0
1442 0 0 0
11162 0 0 0
11161 0 0 0
11163 0 0 0
11172 0 0 0
11174 0 0 0
11168 0 0 0
11165 0 0 0
11171 0 0 0
11173 0 0 0
11167 0 0 0
11169 0 0 0
11182 0 0 0
1458 0 0 0
11178 0 0 0
11184 0 0 0
11175 0 0 0
11177 0 0 0
11179 0 0 0
11183 0 0 0
1474 0 0 0
11188 0 0 0
11192 0 0 0
11194 0 0 0
11187 0 0 0
11185 0 0 0
11189 0 0 0
11191 0 0 0
11193 0 0 0
1490 0 0 0
11195 0 0 0
11202 0 0 0
11204 0 0 0
11198 0 0 0
11205 0 0 0
11201 0 0 0
11203 0 0 0
11197 0 0 0
11199 0 0 0
